  <PP_INFO>

############################################################
#    Opium Parameter File                                  #
############################################################
#-----------------------------------------------------------
#Command line   : opium Hg Hg.log ae ps nl tc2 ke upf qmcpack rpt 
 
#Opium version  : 4.1 
#Compile Host   : py-garuda.cos.ncsu.edu 
#Compile OS     : Linux 5.15.0-113-generic x86_64 
#Compile Date   : Sat Jul 13 02:11:52 EDT 2024 
#-----------------------------------------------------------
#Execution Host : Gwaihir 
#Execution Date : Tue Feb  3 11:34:50 2026
 
#-----------------------------------------------------------
############################################################
[Atom]
Hg
15
100   2.00  -
200   2.00  -
210   6.00  -
300   2.00  -
310   6.00  -
320   10.00  -
400   2.00  -
410   6.00  -
420   10.00  -
430   14.00  -
500   2.00  -
510   6.00  -
520   8.50  -
600   1.00  -
610   0.75  -

[Pseudo]
5 -1 -1 -1 -1 -1
g

[Gaussinfo]
20 5 3
2 2 2 2 4  4 4 2
2 12.9532290166098 275.737657986525
2 6.45005190430085 49.0917938708058
2 10.4230066951820 241.541716850735
2 5.38679524090959 27.3955764893378
2 7.93364791402509 127.872345240135
2 4.18479544342716 16.6159549535243
2 4.08579100000000 10.1824980000000
2 3.68579100000000 20.1824980000000
1 10.1860669744676 20.0
3 10.5916853410000 203.7213395
2 10.0580904698861 -123.870122616786
2 10.5917864250000 -7.74443833676065
2 11.3180966175565 -161.013792344507
2 10.1995059332927 161.035062256779
2 5.94668854787920 -18.1658391475349
2 5.00905681262259 18.3691978554603
2 8.40567107988112 -51.1373723104674
2 8.21651628985333 51.1381812102993
2 4.00929799237370 -6.56269705298583
2 3.79926167567424 6.54438496880100
2 3.26977992583514 -6.28662593490690
2 3.21186536850503 6.24676778366235

[KBdesign]
s

[Relativity]
frl

[XC]
pbe

[Configs]
10

500  2.00 -
510  6.00 -
520  10.00 -
600  2.00 -
610  0.00 -

500  2.00 -
510  6.00 -
520  10.00 -
600  1.00 -
610  1.00 -

500  2.00 -
510  6.00 -
520  10.00 -
600  0.00 -
610  0.00 -

500  2.00 -
510  6.00 -
520  9.00 -
600  1.00 -
610  0.00 -

500  2.00 -
510  6.00 -
520  9.00 -
600  0.00 -
610  0.00 -

500  2.00 -
510  6.00 -
520  8.00 -
600  0.00 -
610  0.00 -

500  2.00 -
510  6.00 -
520  7.00 -
600  0.00 -
610  0.00 -

500  2.00 -
510  6.00 -
520  6.00 -
600  0.00 -
610  0.00 -

500  2.00 -
510  6.00 -
520  5.00 -
600  0.00 -
610  0.00 -

500  2.00 -
510  6.00 -
520  4.00 -
600  0.00 -
610  0.00 -
############################################################
  </PP_INFO>



<PP_HEADER>
   0         Version Number
   Hg        Element
   NC        Norm - Conserving pseudopotential
    F      Nonlinear Core Correction
SLA  PW   PBE  PBE     PBE  Exchange-Correlation functional
 20          Z valence
 0          Total energy
 0.000000   0.000000     Suggested cutoff for wfc and rho
 2           Max angular momentum component
 1189           Number of points in mesh
 5  4     Number of Wavefuncitons, Number of Projectors
 Wavefunctions         nl  l   occ
                      5S  0  2.000000
                      5P  1  2.000000
                      5P  1  4.000000
                      5D  2  3.400000
                      5D  2  5.100000
</PP_HEADER>
<PP_MESH>
  <PP_R>
 2.3207944168063882e-05  2.3511617039196853e-05  2.3819263429569367e-05  2.4130935332153635e-05 
 2.4446685420242996e-05  2.4766567056353879e-05  2.5090634301244082e-05  2.5418941923049337e-05 
 2.5751545406539130e-05  2.6088500962493793e-05  2.6429865537204270e-05  2.6775696822096180e-05 
 2.7126053263479772e-05  2.7480994072427518e-05  2.7840579234780956e-05  2.8204869521288315e-05 
 2.8573926497875099e-05  2.8947812536048725e-05  2.9326590823439543e-05  2.9710325374479640e-05 
 3.0099081041221478e-05  3.0492923524298006e-05  3.0891919384026239e-05  3.1296136051656167e-05 
 3.1705641840766627e-05  3.2120505958810673e-05  3.2540798518811671e-05  3.2966590551212589e-05 
 3.3397954015880338e-05  3.3834961814267135e-05  3.4277687801731026e-05  3.4726206800017621e-05 
 3.5180594609905183e-05  3.5640928024015006e-05  3.6107284839789747e-05  3.6579743872641236e-05 
 3.7058384969270536e-05  3.7543289021162176e-05  3.8034537978255065e-05  3.8532214862792153e-05 
 3.9036403783351451e-05  3.9547189949060583e-05  4.0064659683997222e-05  4.0588900441778213e-05 
 4.1120000820339374e-05  4.1658050576908757e-05  4.2203140643175826e-05  4.2755363140659144e-05 
 4.3314811396275139e-05  4.3881579958110584e-05  4.4455764611401321e-05  4.5037462394720396e-05 
 4.5626771616377706e-05  4.6223791871034302e-05  4.6828624056534211e-05  4.7441370390956325e-05 
 4.8062134429889558e-05  4.8691021083933975e-05  4.9328136636430915e-05  4.9973588761425204e-05 
 5.0627486541862092e-05  5.1289940488022879e-05  5.1961062556201158e-05  5.2640966167623795e-05 
 5.3329766227619348e-05  5.4027579145037364e-05  5.4734522851921760e-05  5.5450716823441648e-05 
 5.6176282098082719e-05  5.6911341298103350e-05  5.7656018650257850e-05  5.8410440006791153e-05 
 5.9174732866708095e-05  5.9949026397321108e-05  6.0733451456079744e-05  6.1528140612685948e-05 
 6.2333228171498623e-05  6.3148850194231408e-05  6.3975144522947425e-05  6.4812250803354812e-05 
 6.5660310508407389e-05  6.6519466962213774e-05  6.7389865364259540e-05  6.8271652813946276e-05 
 6.9164978335451691e-05  7.0069992902915210e-05  7.0986849465952618e-05  7.1915702975505340e-05 
 7.2856710410027254e-05  7.3810030802014476e-05  7.4775825264882244e-05  7.5754257020193492e-05 
 7.6745491425243609e-05  7.7749696001006290e-05  7.8767040460444931e-05  7.9797696737194572e-05 
 8.0841839014619100e-05  8.1899643755248432e-05  8.2971289730601465e-05  8.4056958051398668e-05 
 8.5156832198170261e-05  8.6271098052264836e-05  8.7399943927263794e-05  8.8543560600806874e-05 
 8.9702141346833654e-05  9.0875881968247810e-05  9.2064980830007997e-05  9.3269638892652017e-05 
 9.4490059746259655e-05  9.5726449644859891e-05  9.6979017541288335e-05  9.8247975122500673e-05 
 9.9533536845348433e-05  1.0083591997282247e-04  1.0215534461077128e-04  1.0349203374509879e-04 
 1.0484621327945030e-04  1.0621811207339015e-04  1.0760796198107980e-04  1.0901599789046160e-04 
 1.1044245776295552e-04  1.1188758267367520e-04  1.1335161685216992e-04  1.1483480772370046e-04 
 1.1633740595105426e-04  1.1785966547690806e-04  1.1940184356674485e-04  1.2096420085233240e-04 
 1.2254700137577046e-04  1.2415051263411475e-04  1.2577500562458446e-04  1.2742075489036137e-04 
 1.2908803856698860e-04  1.3077713842937557e-04  1.3248833993941933e-04  1.3422193229424795e-04 
 1.3597820847509545e-04  1.3775746529681653e-04  1.3956000345804887e-04  1.4138612759203206e-04 
 1.4323614631809084e-04  1.4511037229379326e-04  1.4700912226779005e-04  1.4893271713334604e-04 
 1.5088148198257184e-04  1.5285574616136520e-04  1.5485584332507131e-04  1.5688211149487123e-04 
 1.5893489311490840e-04  1.6101453511016241e-04  1.6312138894508034e-04  1.6525581068297456e-04 
 1.6741816104619899e-04  1.6960880547711165e-04  1.7182811419983533e-04  1.7407646228282644e-04 
 1.7635422970226203e-04  1.7866180140625743e-04  1.8099956737992285e-04  1.8336792271127195e-04 
 1.8576726765799268e-04  1.8819800771509166e-04  1.9066055368342397e-04  1.9315532173911932e-04 
 1.9568273350391692e-04  1.9824321611642054e-04  2.0083720230428589e-04  2.0346513045735258e-04 
 2.0612744470173330e-04  2.0882459497487206e-04  2.1155703710158411e-04  2.1432523287109252e-04 
 2.1712965011507095e-04  2.1997076278670860e-04  2.2284905104080869e-04  2.2576500131493699e-04 
 2.2871910641163008e-04  2.3171186558168018e-04  2.3474378460851053e-04  2.3781537589365244e-04 
 2.4092715854334403e-04  2.4407965845625934e-04  2.4727340841238714e-04  2.5050894816307110e-04 
 2.5378682452223015e-04  2.5710759145877065e-04  2.6047181019020867e-04  2.6388004927751705e-04 
 2.6733288472121324e-04  2.7083090005870542e-04  2.7437468646291133e-04  2.7796484284216781e-04 
 2.8160197594144775e-04  2.8528670044490173e-04  2.8901963907974085e-04  2.9280142272147911e-04 
 2.9663269050055318e-04  3.0051408991033622e-04  3.0444627691656671e-04  3.0842991606820771e-04 
 3.1246568060975735e-04  3.1655425259502848e-04  3.2069632300241798e-04  3.2489259185168308e-04 
 3.2914376832224692e-04  3.3345057087305141e-04  3.3781372736397793e-04  3.4223397517885824e-04 
 3.4671206135009378e-04  3.5124874268490589e-04  3.5584478589323760e-04  3.6050096771733024e-04 
 3.6521807506299434e-04  3.6999690513259836e-04  3.7483826555979844e-04  3.7974297454602929e-04 
 3.8471186099878348e-04  3.8974576467169786e-04  3.9484553630647450e-04  4.0001203777665744e-04 
 4.0524614223329188e-04  4.1054873425248883e-04  4.1592070998492015e-04  4.2136297730727064e-04 
 4.2687645597567049e-04  4.3246207778113754e-04  4.3812078670705113e-04  4.4385353908868832e-04 
 4.4966130377484563e-04  4.5554506229157833e-04  4.6150580900807952e-04  4.6754455130473165e-04 
 4.7366230974335566e-04  4.7986011823968825e-04  4.8613902423811690e-04  4.9250008888869967e-04 
 4.9894438722650268e-04  5.0547300835328268e-04  5.1208705562154908e-04  5.1878764682103222e-04 
 5.2557591436759284e-04  5.3245300549460337e-04  5.3942008244683200e-04  5.4647832267686600e-04 
 5.5362891904410375e-04  5.6087308001635057e-04  5.6821202987405203e-04  5.7564700891720192e-04 
 5.8317927367495430e-04  5.9081009711798086e-04  5.9854076887360590e-04  6.0637259544375516e-04 
 6.1430690042575979e-04  6.2234502473604628e-04  6.3048832683675483e-04  6.3873818296532174e-04 
 6.4709598736706841e-04  6.5556315253083113e-04  6.6414110942767540e-04  6.7283130775273327e-04 
 6.8163521617020466e-04  6.9055432256156656e-04  6.9959013427702747e-04  7.0874417839027367e-04 
 7.1801800195654718e-04  7.2741317227410372e-04  7.3693127714908832e-04  7.4657392516387882e-04 
 7.5634274594894055e-04  7.6623939045823621e-04  7.7626553124824315e-04  7.8642286276061810e-04 
 7.9671310160856249e-04  8.0713798686693255e-04  8.1769928036614975e-04  8.2839876698995207e-04 
 8.3923825497704497e-04  8.5021957622669758e-04  8.6134458660833710e-04  8.7261516627519672e-04 
 8.8403321998206544e-04  8.9560067740719596e-04  9.0731949347842432e-04  9.1919164870355873e-04 
 9.3121914950508881e-04  9.4340402855927713e-04  9.5574834513968525e-04  9.6825418546519506e-04 
 9.8092366305258709e-04  9.9375891907372811e-04  1.0067621227174356e-03  1.0199354715560731e-03 
 1.0332811919169485e-03  1.0468015392585673e-03  1.0604987985518095e-03  1.0743752846660974e-03 
 1.0884333427606102e-03  1.1026753486806265e-03  1.1171037093590437e-03  1.1317208632231580e-03 
 1.1465292806067616e-03  1.1615314641676383e-03  1.1767299493105168e-03  1.1921273046155596e-03 
 1.2077261322724615e-03  1.2235290685202219e-03  1.2395387840926798e-03  1.2557579846698714e-03 
 1.2721894113352978e-03  1.2888358410391737e-03  1.3057000870677405e-03  1.3227849995187130e-03 
 1.3400934657829605e-03  1.3576284110324772e-03  1.3753927987147456e-03  1.3933896310535645e-03 
 1.4116219495564338e-03  1.4300928355285747e-03  1.4488054105936793e-03  1.4677628372214728e-03 
 1.4869683192621727e-03  1.5064251024879565e-03  1.5261364751414982e-03  1.5461057684916912e-03 
 1.5663363573966405e-03  1.5868316608740221e-03  1.6075951426789044e-03  1.6286303118891309e-03 
 1.6499407234983662e-03  1.6715299790168894e-03  1.6934017270802703e-03  1.7155596640659871e-03 
 1.7380075347181289e-03  1.7607491327802645e-03  1.7837883016365932e-03  1.8071289349614870e-03 
 1.8307749773775310e-03  1.8547304251221753e-03  1.8789993267231010e-03  1.9035857836824433e-03 
 1.9284939511699461e-03  1.9537280387251993e-03  1.9792923109690583e-03  2.0051910883243781e-03 
 2.0314287477461741e-03  2.0580097234613355e-03  2.0849385077180262e-03  2.1122196515448747e-03 
 2.1398577655201219e-03  2.1678575205508100e-03  2.1962236486621819e-03  2.2249609437974024e-03 
 2.2540742626277468e-03  2.2835685253733903e-03  2.3134487166349359e-03  2.3437198862358267e-03 
 2.3743871500757690e-03  2.4054556909953459e-03  2.4369307596519177e-03  2.4688176754070019e-03 
 2.5011218272252547e-03  2.5338486745852202e-03  2.5670037484019958e-03  2.6005926519619684e-03 
 2.6346210618697873e-03  2.6690947290077130e-03  2.7040194795075441e-03  2.7394012157352403e-03 
 2.7752459172884357e-03  2.8115596420070065e-03  2.8483485269968608e-03  2.8856187896671220e-03 
 2.9233767287808890e-03  2.9616287255197419e-03  3.0003812445621681e-03  3.0396408351761233e-03 
 3.0794141323258620e-03  3.1197078577932672e-03  3.1605288213138460e-03  3.2018839217275914e-03 
 3.2437801481449021e-03  3.2862245811277600e-03  3.3292243938863640e-03  3.3727868534914073e-03 
 3.4169193221022507e-03  3.4616292582111269e-03  3.5069242179036537e-03  3.5528118561358258e-03 
 3.5992999280277196e-03  3.6463962901741322e-03  3.6941089019723607e-03  3.7424458269673623e-03 
 3.7914152342145013e-03  3.8410253996601579e-03  3.8912847075403684e-03  3.9422016517977870e-03 
 3.9937848375171817e-03  4.0460429823797103e-03  4.0989849181362354e-03  4.1526195920999053e-03 
 4.2069560686582809e-03  4.2620035308052178e-03  4.3177712816928424e-03  4.3742687462037860e-03 
 4.4315054725440209e-03  4.4894911338565274e-03  4.5482355298560786e-03  4.6077485884854167e-03 
 4.6680403675930949e-03  4.7291210566332894e-03  4.7910009783878162e-03  4.8536905907107363e-03 
 4.9172004882957390e-03  4.9815414044666780e-03  5.0467242129915209e-03  5.1127599299200521e-03 
 5.1796597154456026e-03  5.2474348757911545e-03  5.3160968651201224e-03  5.3856572874721158e-03 
 5.4561278987240776e-03  5.5275206085770362e-03  5.5998474825688770e-03  5.6731207441134517e-03 
 5.7473527765663579e-03  5.8225561253177583e-03  5.8987434999125858e-03  5.9759277761984829e-03 
 6.0541219985018385e-03  6.1333393818323373e-03  6.2135933141163066e-03  6.2948973584593159e-03 
 6.3772652554383675e-03  6.4607109254240973e-03  6.5452484709333418e-03  6.6308921790124969e-03 
 6.7176565236520772e-03  6.8055561682328191e-03  6.8946059680038765e-03  6.9848209725933558e-03 
 7.0762164285517511e-03  7.1688077819286530e-03  7.2626106808831564e-03  7.3576409783284464e-03 
 7.4539147346109683e-03  7.5514482202246862e-03  7.6502579185607931e-03  7.7503605286934896e-03 
 7.8517729682021434e-03  7.9545123760304016e-03  8.0585961153827202e-03  8.1640417766587758e-03 
 8.2708671804262966e-03  8.3790903804327709e-03  8.4887296666565949e-03  8.5998035683980713e-03 
 8.7123308574109729e-03  8.8263305510749672e-03  8.9418219156096133e-03  9.0588244693303992e-03 
 9.1773579859473799e-03  9.2974424979069860e-03  9.4190982997775508e-03  9.5423459516791511e-03 
 9.6672062827582832e-03  9.7937003947080898e-03  9.9218496653345530e-03  1.0051675752169423e-02 
 1.0183200596130367e-02  1.0316446425229064e-02  1.0451435758327760e-02  1.0588191408945045e-02 
 1.0726736489111370e-02  1.0867094413275016e-02  1.1009288902259242e-02  1.1153343987271122e-02 
 1.1299284013962890e-02  1.1447133646546403e-02  1.1596917871961470e-02  1.1748662004098687e-02 
 1.1902391688077546e-02  1.2058132904580545e-02  1.2215911974243930e-02  1.2375755562106015e-02 
 1.2537690682113592e-02  1.2701744701687362e-02  1.2867945346347099e-02  1.3036320704397322e-02 
 1.3206899231674294e-02  1.3379709756355117e-02  1.3554781483829778e-02  1.3732144001636887e-02 
 1.3911827284464103e-02  1.4093861699213889e-02  1.4278278010135596e-02  1.4465107384024697e-02 
 1.4654381395490057e-02  1.4846132032290096e-02  1.5040391700738825e-02  1.5237193231182580e-02 
 1.5436569883548384e-02  1.5638555352965038e-02  1.5843183775457619e-02  1.6050489733716557e-02 
 1.6260508262942217e-02  1.6473274856765897e-02  1.6688825473248355e-02  1.6907196540956813e-02 
 1.7128424965121469e-02  1.7352548133872527e-02  1.7579603924558949e-02  1.7809630710149783e-02 
 1.8042667365719276e-02  1.8278753275016869e-02  1.8517928337123138e-02  1.8760232973192844e-02 
 1.9005708133286191e-02  1.9254395303289498e-02  1.9506336511926372e-02  1.9761574337860729e-02 
 2.0020151916892645e-02  2.0282112949248414e-02  2.0547501706965992e-02  2.0816363041377094e-02 
 2.1088742390687143e-02  2.1364685787654467e-02  2.1644239867369942e-02  2.1927451875138372e-02 
 2.2214369674463153e-02  2.2505041755135267e-02  2.2799517241428178e-02  2.3097845900399944e-02 
 2.3400078150303986e-02  2.3706265069109882e-02  2.4016458403135658e-02  2.4330710575793078e-02 
 2.4649074696447237e-02  2.4971604569392274e-02  2.5298354702944375e-02  2.5629380318653805e-02 
 2.5964737360637490e-02  2.6304482505033710e-02  2.6648673169580493e-02  2.6997367523319354e-02 
 2.7350624496426029e-02  2.7708503790169710e-02  2.8071065887002849e-02  2.8438372060782740e-02 
 2.8810484387126984e-02  2.9187465753904390e-02  2.9569379871863193e-02  2.9956291285398333e-02 
 3.0348265383459576e-02  3.0745368410602457e-02  3.1147667478183656e-02  3.1555230575703128e-02 
 3.1968126582294393e-02  3.2386425278365299e-02  3.2810197357391074e-02  3.3239514437861696e-02 
 3.3674449075385575e-02  3.4115074774951640e-02  3.4561466003351880e-02  3.5013698201766294e-02 
 3.5471847798512784e-02  3.5935992221963656e-02  3.6406209913631186e-02  3.6882580341424415e-02 
 3.7365184013079457e-02  3.7854102489765458e-02  3.8349418399868655e-02  3.8851215452956792e-02 
 3.9359578453926097e-02  3.9874593317333715e-02  4.0396347081917354e-02  4.0924927925305055e-02 
 4.1460425178917418e-02  4.2002929343064842e-02  4.2552532102242274e-02  4.3109326340624129e-02 
 4.3673406157761961e-02  4.4244866884487345e-02  4.4823805099023270e-02  4.5410318643305921e-02 
 4.6004506639520243e-02  4.6606469506851822e-02  4.7216308978457966e-02  4.7834128118660849e-02 
 4.8460031340365639e-02  4.9094124422706553e-02  4.9736514528923630e-02  5.0387310224473812e-02 
 5.1046621495378607e-02  5.1714559766812010e-02  5.2391237921931663e-02  5.3076770320956333e-02 
 5.3771272820493099e-02  5.4474862793117362e-02  5.5187659147209148e-02  5.5909782347048728e-02 
 5.6641354433175660e-02  5.7382499043013693e-02  5.8133341431765906e-02  5.8894008493583047e-02 
 5.9664628783009058e-02  6.0445332536706975e-02  6.1236251695469333e-02  6.2037519926516481e-02 
 6.2849272646086460e-02  6.3671647042320978e-02  6.4504782098450328e-02  6.5348818616281945e-02 
 6.6203899239996214e-02  6.7070168480253725e-02  6.7947772738617893e-02  6.8836860332297162e-02 
 6.9737581519210973e-02  7.0650088523383711e-02  7.1574535560670963e-02  7.2511078864822276e-02 
 7.3459876713885250e-02  7.4421089456954373e-02  7.5394879541271095e-02  7.6381411539677410e-02 
 7.7380852178429077e-02  7.8393370365372819e-02  7.9419137218492114e-02  8.0458326094826546e-02 
 8.1511112619769621e-02  8.2577674716749774e-02  8.3658192637299900e-02  8.4752848991520330e-02 
 8.5861828778940288e-02  8.6985319419783352e-02  8.8123510786641851e-02  8.9276595236565753e-02 
 9.0444767643571580e-02  9.1628225431576477e-02  9.2827168607763494e-02  9.4041799796382705e-02 
 9.5272324272996103e-02  9.6518949999168963e-02  9.7781887657616140e-02  9.9061350687807789e-02 
 1.0035755532204130e-01  1.0167072062198490e-01  1.0300106851569976e-01  1.0434882383514629e-01 
 1.0571421435418130e-01  1.0709747082705216e-01  1.0849882702739518e-01  1.0991851978774350e-01 
 1.1135678903955266e-01  1.1281387785374945e-01  1.1429003248181147e-01  1.1578550239738424e-01 
 1.1730054033844306e-01  1.1883540235000553e-01  1.2039034782740490e-01  1.2196563956012776e-01 
 1.2356154377622633e-01  1.2517833018731148e-01  1.2681627203413484e-01  1.2847564613276694e-01 
 1.3015673292137997e-01  1.3185981650764231e-01  1.3358518471673358e-01  1.3533312913998763e-01 
 1.3710394518417229e-01  1.3889793212141371e-01  1.4071539313977416e-01  1.4255663539449148e-01 
 1.4442197005988908e-01  1.4631171238196503e-01  1.4822618173166985e-01  1.5016570165887971e-01 
 1.5213059994707881e-01  1.5412120866875451e-01  1.5613786424151860e-01  1.5818090748496275e-01 
 1.6025068367825773e-01  1.6234754261850642e-01  1.6447183867986054e-01  1.6662393087341043e-01 
 1.6880418290785898e-01  1.7101296325098927e-01  1.7325064519193639e-01  1.7551760690427420e-01 
 1.7781423150992776e-01  1.8014090714392153e-01  1.8249802701997542e-01  1.8488598949695864e-01 
 1.8730519814621374e-01  1.8975606181975968e-01  1.9223899471939096e-01  1.9475441646667724e-01 
 1.9730275217388071e-01  1.9988443251580124e-01  2.0249989380256120e-01  2.0514957805334313e-01 
 2.0783393307109194e-01  2.1055341251819457e-01  2.1330847599315034e-01  2.1609958910824370e-01 
 2.1892722356823432e-01  2.2179185725007594e-01  2.2469397428367888e-01  2.2763406513372914e-01 
 2.3061262668257815e-01  2.3363016231421682e-01  2.3668718199934946e-01  2.3978420238157794e-01 
 2.4292174686471851e-01  2.4610034570125644e-01  2.4932053608196053e-01  2.5258286222666948e-01 
 2.5588787547626635e-01  2.5923613438585663e-01  2.6262820481916521e-01  2.6606466004416879e-01 
 2.6954608082997938e-01  2.7307305554499606e-01  2.7664618025634014e-01  2.8026605883059214e-01 
 2.8393330303584685e-01  2.8764853264510337e-01  2.9141237554100829e-01  2.9522546782196923e-01 
 2.9908845390965783e-01  3.0300198665791606e-01  3.0696672746309350e-01  3.1098334637582276e-01 
 3.1505252221425994e-01  3.1917494267880681e-01  3.2335130446833371e-01  3.2758231339792310e-01 
 3.3186868451815432e-01  3.3621114223594867e-01  3.4061042043699591e-01  3.4506726260978282e-01 
 3.4958242197124423e-01  3.5415666159405879e-01  3.5879075453560982e-01  3.6348548396863406e-01 
 3.6824164331357967e-01  3.7306003637269597e-01  3.7794147746587892e-01  3.8288679156829020e-01 
 3.8789681444978413e-01  3.9297239281615204e-01  3.9811438445221814e-01  4.0332365836680745e-01 
 4.0860109493961005e-01  4.1394758606996762e-01  4.1936403532760630e-01  4.2485135810534230e-01 
 4.3041048177378538e-01  4.3604234583806695e-01  4.4174790209661802e-01  4.4752811480202614e-01 
 4.5338396082399612e-01  4.5931642981444298e-01  4.6532652437474598e-01  4.7141526022519048e-01 
 4.7758366637662786e-01  4.8383278530437729e-01  4.9016367312441200e-01  4.9657739977184179e-01 
 5.0307504918173529e-01  5.0965771947230765e-01  5.1632652313050564e-01  5.2308258720001954e-01 
 5.2992705347175761e-01  5.3686107867680999e-01  5.4388583468194007e-01  5.5100250868763223e-01 
 5.5821230342873196e-01  5.6551643737771040e-01  5.7291614495058962e-01  5.8041267671556118e-01 
 5.8800729960433595e-01  5.9570129712625830e-01  6.0349596958522267e-01  6.1139263429942470e-01 
 6.1939262582399679e-01  6.2749729617654770e-01  6.3570801506565666e-01  6.4402617012235830e-01 
 6.5245316713465518e-01  6.6099043028509941e-01  6.6963940239148312e-01  6.7840154515067741e-01 
 6.8727833938566352e-01  6.9627128529579474e-01  7.0538190271033407e-01  7.1461173134530853e-01 
 7.2396233106372532e-01  7.3343528213919229e-01  7.4303218552298778e-01  7.5275466311462513e-01 
 7.6260435803595916e-01  7.7258293490887198e-01  7.8269208013660663e-01  7.9293350218876713e-01 
 8.0330893189005592e-01  8.1382012271278725e-01  8.2446885107322765e-01  8.3525691663181489e-01 
 8.4618614259730529e-01  8.5725837603489963e-01  8.6847548817840159e-01  8.7983937474646134e-01 
 8.9135195626295616e-01  9.0301517838156331e-01  9.1483101221458030e-01  9.2680145466604791e-01 
 9.3892852876923139e-01  9.5121428402851738e-01  9.6366079676578786e-01  9.7627017047131626e-01 
 9.8904453615927168e-01  1.0019860527278595e+00  1.0150969073241822e+00  1.0283793157138716e+00 
 1.0418355226555587e+00  1.0554678022802439e+00  1.0692784584756301e+00  1.0832698252754849e+00 
 1.0974442672540980e+00  1.1118041799259009e+00  1.1263519901503125e+00  1.1410901565418865e+00 
 1.1560211698858207e+00  1.1711475535589080e+00  1.1864718639559910e+00  1.2019966909220008e+00 
 1.2177246581896468e+00  1.2336584238228270e+00  1.2498006806658597e+00  1.2661541567985717e+00 
 1.2827216159973518e+00  1.2995058582022372e+00  1.3165097199901081e+00  1.3337360750540781e+00 
 1.3511878346891533e+00  1.3688679482842483e+00  1.3867794038206416e+00  1.4049252283769498e+00 
 1.4233084886407117e+00  1.4419322914266657e+00  1.4607997842018092e+00  1.4799141556173274e+00 
 1.4992786360474839e+00  1.5188964981355608e+00  1.5387710573469460e+00  1.5589056725294437e+00 
 1.5793037464809454e+00  1.5999687265244982e+00  1.6209041050909139e+00  1.6421134203089984e+00 
 1.6636002566035040e+00  1.6853682453009053e+00  1.7074210652431017e+00  1.7297624434091514e+00 
 1.7523961555451397e+00  1.7753260268022870e+00  1.7985559323834117e+00  1.8220897981978463e+00 
 1.8459316015249265e+00  1.8700853716861601e+00  1.8945551907261926e+00  1.9193451941026827e+00 
 1.9444595713852066e+00  1.9699025669632930e+00  1.9956784807637553e+00  2.0217916689773743e+00 
 2.0482465447951101e+00  2.0750475791539413e+00  2.1021993014924636e+00  2.1297063005163759e+00 
 2.1575732249739823e+00  2.1858047844418422e+00  2.2144057501207000e+00  2.2433809556418276e+00 
 2.2727352978839224e+00  2.3024737378006899e+00  2.3326013012592557e+00  2.3631230798895513e+00 
 2.3940442319448092e+00  2.4253699831733231e+00  2.4571056277016128e+00  2.4892565289291286e+00 
 2.5218281204347051e+00  2.5548259068948296e+00  2.5882554650139524e+00  2.6221224444669611e+00 
 2.6564325688539894e+00  2.6911916366677207e+00  2.7264055222733452e+00  2.7620801769013430e+00 
 2.7982216296532547e+00  2.8348359885206165e+00  2.8719294414172216e+00  2.9095082572248971e+00 
 2.9475787868529535e+00  2.9861474643115118e+00  3.0252208077988580e+00  3.0648054208030402e+00 
 3.1049079932178776e+00  3.1455353024735446e+00  3.1866942146820074e+00  3.2283916857973920e+00 
 3.2706347627915617e+00  3.3134305848450700e+00  3.3567863845537018e+00  3.4007094891508003e+00 
 3.4452073217455825e+00  3.4902874025776662e+00  3.5359573502880073e+00  3.5822248832064680e+00 
 3.6290978206562321e+00  3.6765840842752917e+00  3.7246916993552182e+00  3.7734287961974631e+00 
 3.8228036114873909e+00  3.8728244896863027e+00  3.9234998844416751e+00  3.9748383600158208e+00 
 4.0268485927333089e+00  4.0795393724472575e+00  4.1329196040248481e+00  4.1869983088522691e+00 
 4.2417846263593457e+00  4.2972878155641343e+00  4.3535172566377147e+00  4.4104824524894592e+00 
 4.4681930303730493e+00  4.5266587435135035e+00  4.5858894727554977e+00  4.6458952282332486e+00 
 4.7066861510622502e+00  4.7682725150531500e+00  4.8306647284480437e+00  4.8938733356794941e+00 
 4.9579090191525754e+00  5.0227826010501877e+00  5.0885050451620861e+00  5.1550874587377518e+00 
 5.2225410943635504e+00  5.2908773518644487e+00  5.3601077802306127e+00  5.4302440795692117e+00 
 5.5012981030817629e+00  5.5732818590673565e+00  5.6462075129520830e+00  5.7200873893450188e+00 
 5.7949339741211148e+00  5.8707599165313402e+00  5.9475780313404369e+00  6.0254013009926410e+00 
 6.1042428778057509e+00  6.1841160861938977e+00  6.2650344249194179e+00  6.3470115693741258e+00 
 6.4300613738905597e+00  6.5141978740833490e+00  6.5994352892212804e+00  6.6857880246303836e+00 
 6.7732706741284714e+00  6.8618980224915278e+00  6.9516850479523651e+00  7.0426469247319901e+00 
 7.1347990256040745e+00  7.2281569244929997e+00  7.3227363991058754e+00  7.4185534335990209e+00 
 7.5156242212793218e+00  7.6139651673409290e+00  7.7135928916377923e+00  7.8145242314924372e+00 
 7.9167762445415448e+00  8.0203662116186578e+00  8.1253116396747824e+00  8.2316302647370385e+00 
 8.3393400549061134e+00  8.4484592133929031e+00  8.5590061815949063e+00  8.6709996422128608e+00 
 8.7844585224081690e+00  8.8994019970016218e+00  9.0158494917140093e+00  9.1338206864490878e+00 
 9.2533355186195543e+00  9.3744141865165016e+00  9.4970771527229836e+00  9.6213451475722369e+00 
 9.7472391726511614e+00  9.8747805043496371e+00  1.0003990697456299e+01  1.0134891588801278e+01 
 1.0267505300946786e+01  1.0401854245925811e+01  1.0537961129029817e+01  1.0675848952645996e+01 
 1.0815541020144725e+01  1.0957060939817893e+01  1.1100432628868756e+01  1.1245680317453999e+01 
 1.1392828552778701e+01  1.1541902203244856e+01  1.1692926462654203e+01  1.1845926854466033e+01 
 1.2000929236110721e+01  1.2157959803359685e+01  1.2317045094752537e+01  1.2478211996082161e+01 
 1.2641487744938496e+01  1.2806899935311668e+01  1.2974476522255568e+01  1.3144245826612240e+01 
 1.3316236539798183e+01  1.3490477728653286e+01  1.3666998840353173e+01  1.3845829707385857e+01 
 1.4027000552593506e+01  1.4210541994280160e+01  1.4396485051386312e+01  1.4584861148731175e+01 
 1.4775702122323557e+01  1.4969040224742210e+01  1.5164908130586607e+01  1.5363338941999023e+01 
 1.5564366194258870e+01  1.5768023861450271e+01  1.5974346362203653e+01  1.6183368565512733e+01 
 1.6395125796627372e+01  1.6609653843023626e+01  1.6826988960451935e+01  1.7047167879064418e+01 
 1.7270227809622373e+01  1.7496206449784967e+01  1.7725141990480239e+01  1.7957073122359454e+01 
 1.8192039042335921e+01  1.8430079460209353e+01  1.8671234605376934e+01  1.8915545233632169e+01 
 1.9163052634052715e+01  1.9413798635978331e+01  1.9667825616080151e+01  1.9925176505522451e+01 
 2.0185894797217994e+01  2.0450024553178654e+01  2.0717610411961836e+01  2.0988697596214553e+01 
 2.1263331920316165e+01  2.1541559798121096e+01  2.1823428250802905e+01  2.2108984914800971e+01 
 2.2398278049871159e+01  2.2691356547241845e+01  2.2988269937876645e+01  2.3289068400845245e+01 
 2.3593802771803826e+01  2.3902524551586374e+01  2.4215285914908460e+01  2.4532139719184890e+01 
 2.4853139513462729e+01  2.5178339547471261e+01  2.5507794780790157e+01  2.5841560892138027e+01 
 2.6179694288782080e+01  2.6522252116071144e+01  2.6869292267093350e+01  2.7220873392460213e+01 
 2.7577054910218710e+01  2.7937897015893093e+01  2.8303460692658057e+01  2.8673807721645055e+01 
 2.9049000692383451e+01  2.9429103013378288e+01  2.9814178922826507e+01  3.0204293499473305e+01 
 3.0599512673610654e+01  3.0999903238219645e+01  3.1405532860258667e+01  3.1816470092099330e+01 
 3.2232784383111785e+01  3.2654546091402125e+01  3.3081826495702892e+01  3.3514697807419381e+01 
 3.3953233182833550e+01  3.4397506735467594e+01  3.4847593548609325e+01  3.5303569688001417e+01 
 3.5765512214696692e+01  3.6233499198081624e+01  3.6707609729070278e+01  3.7187923933470799e+01 
 3.7674522985526934e+01  3.8167489121636628e+01  3.8666905654250193e+01  3.9172856985950311e+01 
 3.9685428623716241e+01  4.0204707193374809e+01  4.0730780454240076e+01  4.1263737313945313e+01 
 4.1803667843468290e+01  4.2350663292353588e+01  4.2904816104133971e+01  4.3466219931953567e+01 
 4.4034969654395461e+01  4.4611161391516447e+01  4.5194892521091475e+01  4.5786261695070785e+01 
 4.6385368856252292e+01  4.6992315255172166e+01  4.7607203467216429e+01  4.8230137409956399e+01 
 4.8861222360711039e+01  4.9500564974339078e+01  5.0148273301263920e+01  5.0804456805734503e+01 
 5.1469226384324692e+01  5.2142694384675551e+01  5.2824974624482103e+01  5.3516182410728732e+01 
 5.4216434559176456e+01  5.4925849414105052e+01  5.5644546868313469e+01  5.6372648383382021e+01 
 5.7110277010199731e+01  5.7857557409760147e+01  5.8614615874229386e+01  5.9381580348289845e+01 
 6.0158580450763068e+01  6.0945747496515693e+01  6.1743214518652017e+01  6.2551116290996823e+01 
 6.3369589350872502e+01  6.4198772022174353e+01  6.5038804438747121e+01  6.5889828568068694e+01 
 6.6751988235242422e+01  6.7625429147304118e+01  6.8510298917846754e+01  6.9406747091967645e+01 
 7.0314925171541859e+01  7.1234986640826378e+01  7.2167086992399362e+01  7.3111383753438716e+01 
 7.4068036512344548e+01  7.5037206945710082e+01  7.6019058845645233e+01  7.7013758147458020e+01 
 7.8021472957697924e+01  7.9042373582566341e+01  8.0076632556698684e+01  8.1124424672323400e+01 
 8.2185927008801571e+01  8.3261318962554697e+01  8.4350782277382478e+01  8.5454501075178158e+01 
 8.6572661887045527e+01  8.7705453684823112e+01  8.8853067913020908e+01  9.0015698521174883e+01 
 9.1193541996625015e+01  9.2386797397722034e+01  9.3595666387468782e+01  9.4820353267601746e+01 
 9.6061065013118551e+01  9.7318011307257194e+01  9.8591404576933058e+01  9.9881460028639509e+01 
 1.0118839568481832e+02  1.0251243242070623e+02  1.0385379400166255e+02  1.0521270712098723e+02 
 1.0658940143823179e+02  1.0798410961801251e+02  1.0939706736933128e+02  1.1082851348541108e+02 
 1.1227868988405248e+02  1.1374784164851845e+02  1.1523621706895388e+02  1.1674406768434730e+02 
 1.1827164832504157e+02 
  </PP_R>
  <PP_RAB>
 3.0170327418483045e-07  3.0565102150955907e-07  3.0965042458440178e-07  3.1370215931799724e-07 
 3.1780691046315891e-07  3.2196537173260039e-07  3.2617824591617308e-07  3.3044624499964137e-07 
 3.3477009028500867e-07  3.3915051251241927e-07  3.4358825198365547e-07  3.4808405868725033e-07 
 3.5263869242523704e-07  3.5725292294155771e-07  3.6192753005215240e-07  3.6666330377674805e-07 
 3.7146104447237629e-07  3.7632156296863339e-07  3.8124568070471405e-07  3.8623422986823532e-07 
 3.9128805353587919e-07  3.9640800581587405e-07  4.0159495199234108e-07  4.0684976867153018e-07 
 4.1217334392996612e-07  4.1756657746453873e-07  4.2303038074455170e-07  4.2856567716576363e-07 
 4.3417340220644436e-07  4.3985450358547271e-07  4.4560994142250335e-07  4.5144068840022903e-07 
 4.5734772992876736e-07  4.6333206431219504e-07  4.6939470291726670e-07  4.7553667034433602e-07 
 4.8175900460051696e-07  4.8806275727510829e-07  4.9444899371731582e-07  5.0091879321629794e-07 
 5.0747324918356883e-07  5.1411346933778755e-07  5.2084057589196388e-07  5.2765570574311671e-07 
 5.3456001066441182e-07  5.4155465749981379e-07  5.4864082836128571e-07  5.5581972082856890e-07 
 5.6309254815157678e-07  5.7046053945543753e-07  5.7792493994821712e-07  5.8548701113136512e-07 
 5.9314803101291010e-07  6.0090929432344586e-07  6.0877211273494471e-07  6.1673781508243220e-07 
 6.2480774758856421e-07  6.3298327409114160e-07  6.4126577627360186e-07  6.4965665389852756e-07 
 6.5815732504420718e-07  6.6676922634429738e-07  6.7549381323061503e-07  6.8433256017910926e-07 
 6.9328696095905149e-07  7.0235852888548565e-07  7.1154879707498282e-07  7.2085931870474134e-07 
 7.3029166727507529e-07  7.3984743687534356e-07  7.4952824245335198e-07  7.5933572008828493e-07 
 7.6927152726720516e-07  7.7933734316517432e-07  7.8953486892903662e-07  7.9986582796491725e-07 
 8.1033196622948210e-07  8.2093505252500832e-07  8.3167687879831648e-07  8.4255926044361255e-07 
 8.5358403660929597e-07  8.6475307050877900e-07  8.7606824973537398e-07  8.8753148658130150e-07 
 8.9914471836087193e-07  9.1090990773789770e-07  9.2282904305738403e-07  9.3490413868156942e-07 
 9.4713723533035426e-07  9.5953040042618805e-07  9.7208572844346906e-07  9.8480534126251529e-07 
 9.9769138852816685e-07  1.0107460480130817e-06  1.0239715259857841e-06  1.0373700575835294e-06 
 1.0509439071900483e-06  1.0646953688182295e-06  1.0786267664978191e-06  1.0927404546681827e-06 
 1.1070388185762134e-06  1.1215242746794428e-06  1.1361992710544293e-06  1.1510662878104893e-06 
 1.1661278375088375e-06  1.1813864655872214e-06  1.1968447507901039e-06  1.2125053056044761e-06 
 1.2283707767013755e-06  1.2444438453831785e-06  1.2607272280367483e-06  1.2772236765925086e-06 
 1.2939359789895296e-06  1.3108669596466920e-06  1.3280194799400264e-06  1.3453964386862842e-06 
 1.3630007726328538e-06  1.3808354569540719e-06  1.3989035057540374e-06  1.4172079725760007e-06 
 1.4357519509184218e-06  1.4545385747577774e-06  1.4735710190782089e-06  1.4928525004081060e-06 
 1.5123862773637054e-06  1.5321756511998047e-06  1.5522239663676829e-06  1.5725346110803210e-06 
 1.5931110178850159e-06  1.6139566642434915e-06  1.6350750731195980e-06  1.6564698135746977e-06 
 1.6781445013708518e-06  1.7001027995818823e-06  1.7223484192124511e-06  1.7448851198252233e-06 
 1.7677167101762407e-06  1.7908470488586147e-06  1.8142800449546351e-06  1.8380196586964167e-06 
 1.8620699021351810e-06  1.8864348398193122e-06  1.9111185894812708e-06  1.9361253227334985e-06 
 1.9614592657734340e-06  1.9871247000977474e-06  2.0131259632259271e-06  2.0394674494333261e-06 
 2.0661536104938091e-06  2.0931889564321112e-06  2.1205780562860444e-06  2.1483255388786691e-06 
 2.1764360936005866e-06  2.2049144712024514e-06  2.2337654845978594e-06  2.2629940096767437e-06 
 2.2926049861294063e-06  2.3226034182813466e-06  2.3529943759389968e-06  2.3837829952465355e-06 
 2.4149744795539045e-06  2.4465741002961914e-06  2.4785871978845115e-06  2.5110191826085509e-06 
 2.5438755355509197e-06  2.5771618095134671e-06  2.6108836299557162e-06  2.6450466959455833e-06 
 2.6796567811225328e-06  2.7147197346733364e-06  2.7502414823205934e-06  2.7862280273242025e-06 
 2.8226854514959221e-06  2.8596199162272119e-06  2.8970376635305127e-06  2.9349450170941805e-06 
 2.9733483833511907e-06  3.0122542525618420e-06  3.0516691999106368e-06  3.0915998866174815e-06 
 3.1320530610634723e-06  3.1730355599313715e-06  3.2145543093610328e-06  3.2566163261199242e-06 
 3.2992287187889920e-06  3.3423986889640182e-06  3.3861335324727127e-06  3.4304406406077214e-06 
 3.4753275013757719e-06  3.5208017007631704e-06  3.5668709240178471e-06  3.6135429569481816e-06 
 3.6608256872388204e-06  3.7087271057837224e-06  3.7572553080366309e-06  3.8064184953792280e-06 
 3.8562249765071910e-06  3.9066831688343708e-06  3.9578015999153673e-06  4.0095889088867000e-06 
 4.0620538479268451e-06  4.1152052837353701e-06  4.1690521990314338e-06  4.2236036940718798e-06 
 4.2788689881892098e-06  4.3348574213496681e-06  4.3915784557317127e-06  4.4490416773251569e-06 
 4.5072567975512193e-06  4.5662336549037764e-06  4.6259822166120890e-06  4.6865125803252931e-06 
 4.7478349758189259e-06  4.8099597667237783e-06  4.8728974522773796e-06  4.9366586690983808e-06 
 5.0012541929841851e-06  5.0666949407320719e-06  5.1329919719841680e-06  5.2001564910965470e-06 
 5.2681998490327942e-06  5.3371335452823543e-06  5.4069692298039615e-06  5.4777187049945185e-06 
 5.5493939276837160e-06  5.6220070111547875e-06  5.6955702271916648e-06  5.7700960081529478e-06 
 5.8455969490729925e-06  5.9220858097905182e-06  5.9995755171050331e-06  6.0780791669615115e-06 
 6.1576100266636231e-06  6.2381815371159470e-06  6.3198073150955195e-06  6.4025011555530957e-06 
 6.4862770339445341e-06  6.5711491085926744e-06  6.6571317230801380e-06  6.7442394086734187e-06 
 6.8324868867787065e-06  6.9218890714298434e-06  7.0124610718088158e-06  7.1042181947992580e-06 
 7.1971759475733485e-06  7.2913500402125572e-06  7.3867563883626757e-06  7.4834111159236250e-06 
 7.5813305577744053e-06  7.6805312625337507e-06  7.7810299953568764e-06  7.8828437407688162e-06 
 7.9859897055348764e-06  8.0904853215686017e-06  8.1963482488778119e-06  8.3035963785491821e-06 
 8.4122478357718889e-06  8.5223209829008041e-06  8.6338344225597803e-06  8.7468070007855314e-06 
 8.8612578102126606e-06  8.9772061933003648e-06  9.0946717456013568e-06  9.2136743190735573e-06 
 9.3342340254351128e-06  9.4563712395633474e-06  9.5801066029381483e-06  9.7054610271304234e-06 
 9.8324556973362263e-06  9.9611120759570711e-06  1.0091451906227161e-05  1.0223497215888035e-05 
 1.0357270320911312e-05  1.0492793829270122e-05  1.0630090644759946e-05  1.0769183970869376e-05 
 1.0910097314701584e-05  1.1052854490947069e-05  1.1197479625908381e-05  1.1343997161577557e-05 
 1.1492431859766849e-05  1.1642808806293547e-05  1.1795153415219515e-05  1.1949491433146263e-05 
 1.2105848943566155e-05  1.2264252371270601e-05  1.2424728486815908e-05  1.2587304411047535e-05 
 1.2752007619683631e-05  1.2918865947958465e-05  1.3087907595326663e-05  1.3259161130228949e-05 
 1.3432655494920331e-05  1.3608420010361374e-05  1.3786484381173522e-05  1.3966878700659266e-05 
 1.4149633455887933e-05  1.4334779532848144e-05  1.4522348221667566e-05  1.4712371221901054e-05 
 1.4904880647887901e-05  1.5099909034179298e-05  1.5297489341036719e-05  1.5497654960002273e-05 
 1.5700439719542000e-05  1.5905877890762883e-05  1.6114004193204837e-05  1.6324853800708327e-05 
 1.6538462347358871e-05  1.6754865933509257e-05  1.6974101131880624e-05  1.7196204993743269e-05 
 1.7421215055178487e-05  1.7649169343422203e-05  1.7880106383291694e-05  1.8114065203696337e-05 
 1.8351085344233638e-05  1.8591206861871469e-05  1.8834470337717832e-05  1.9080916883879144e-05 
 1.9330588150408245e-05  1.9583526332343434e-05  1.9839774176839475e-05  2.0099374990391984e-05 
 2.0362372646156326e-05  2.0628811591362288e-05  2.0898736854825754e-05  2.1172194054558701e-05 
 2.1449229405478759e-05  2.1729889727219561e-05  2.2014222452043514e-05  2.2302275632857831e-05 
 2.2594097951335676e-05  2.2889738726143435e-05  2.3189247921275710e-05  2.3492676154499329e-05 
 2.3800074705907902e-05  2.4111495526588278e-05  2.4426991247400310e-05  2.4746615187871761e-05 
 2.5070421365209298e-05  2.5398464503427590e-05  2.5730800042597759e-05  2.6067484148216915e-05 
 2.6408573720700263e-05  2.6754126404997362e-05  2.7104200600334341e-05  2.7458855470083369e-05 
 2.7818150951761582e-05  2.8182147767160530e-05  2.8550907432608363e-05  2.8924492269366230e-05 
 2.9302965414160708e-05  2.9686390829854072e-05  3.0074833316254166e-05  3.0468358521065744e-05 
 3.0867032950984993e-05  3.1270923982939494e-05  3.1680099875474930e-05  3.2094629780291022e-05 
 3.2514583753928308e-05  3.2940032769607862e-05  3.3371048729225946e-05  3.3807704475505590e-05 
 3.4250073804307235e-05  3.4698231477100270e-05  3.5152253233598070e-05  3.5612215804558120e-05 
 3.6078196924749662e-05  3.6550275346091082e-05  3.7028530850959191e-05  3.7513044265672587e-05 
 3.8003897474151557e-05  3.8501173431756643e-05  3.9004956179308184e-05  3.9515330857289601e-05 
 4.0032383720236201e-05  4.0556202151312470e-05  4.1086874677079998e-05  4.1624490982458683e-05 
 4.2169141925883727e-05  4.2720919554660875e-05  4.3279917120522731e-05  4.3846229095388297e-05 
 4.4419951187329255e-05  4.5001180356744647e-05  4.5590014832747493e-05  4.6186554129765736e-05 
 4.6790899064360352e-05  4.7403151772263716e-05  4.8023415725640684e-05  4.8651795750575709e-05 
 4.9288398044788516e-05  4.9933330195582049e-05  5.0586701198024788e-05  5.1248621473371227e-05 
 5.1919202887723361e-05  5.2598558770936232e-05  5.3286803935771061e-05  5.3984054697298764e-05 
 5.4690428892557652e-05  5.5406045900467832e-05  5.6131026662006948e-05  5.6865493700649215e-05 
 5.7609571143072266e-05  5.8363384740134856e-05  5.9127061888129019e-05  5.9900731650310411e-05 
 6.0684524778710230e-05  6.1478573736232754e-05  6.2283012719041613e-05  6.3097977679239564e-05 
 6.3923606347844605e-05  6.4760038258066809e-05  6.5607414768889763e-05  6.6465879088960678e-05 
 6.7335576300792832e-05  6.8216653385285003e-05  6.9109259246561588e-05  7.0013544737137500e-05 
 7.0929662683413011e-05  7.1857767911501463e-05  7.2798017273395405e-05  7.3750569673474873e-05 
 7.4715586095362650e-05  7.5693229629130850e-05  7.6683665498863615e-05  7.7687061090580270e-05 
 7.8703585980523892e-05  7.9733411963820374e-05  8.0776713083511984e-05  8.1833665659971101e-05 
 8.2904448320698780e-05  8.3989242030513265e-05  8.5088230122133435e-05  8.6201598327162457e-05 
 8.7329534807476994e-05  8.8472230187026642e-05  8.9629877584050397e-05  9.0802672643713626e-05 
 9.1990813571172757e-05  9.3194501165072484e-05  9.4413938851481034e-05  9.5649332718269797e-05 
 9.6900891549942580e-05  9.8168826862920919e-05  9.9453352941290300e-05  1.0075468687301537e-04 
 1.0207304858662785e-04  1.0340866088839522e-04  1.0476174949997536e-04  1.0613254309656408e-04 
 1.0752127334554186e-04  1.0892817494562602e-04  1.1035348566653573e-04  1.1179744638917492e-04 
 1.1326030114634264e-04  1.1474229716397457e-04  1.1624368490292496e-04  1.1776471810129519e-04 
 1.1930565381731593e-04  1.2086675247279081e-04  1.2244827789710815e-04  1.2405049737182895e-04 
 1.2567368167585766e-04  1.2731810513120516e-04  1.2898404564934919e-04  1.3067178477820250e-04 
 1.3238160774969477e-04  1.3411380352797782e-04  1.3586866485826087e-04  1.3764648831628558e-04 
 1.3944757435844780e-04  1.4127222737257521e-04  1.4312075572937014e-04  1.4499347183452458e-04 
 1.4689069218151756e-04  1.4881273740510324e-04  1.5075993233549910e-04  1.5273260605328293e-04 
 1.5473109194500811e-04  1.5675572775954708e-04  1.5880685566517107e-04  1.6088482230737820e-04 
 1.6298997886747668e-04  1.6512268112193570e-04  1.6728328950251227e-04  1.6947216915716518e-04 
 1.7168969001176581e-04  1.7393622683261652e-04  1.7621215928978712e-04  1.7851787202127951e-04 
 1.8085375469803334e-04  1.8322020208978056e-04  1.8561761413176273e-04  1.8804639599232106e-04 
 1.9050695814137072e-04  1.9299971641977123e-04  1.9552509210960472e-04  1.9808351200537353e-04 
 2.0067540848612899e-04  2.0330121958854548e-04  2.0596138908094902e-04  2.0865636653831523e-04 
 2.1138660741824879e-04  2.1415257313795667e-04  2.1695473115222860e-04  2.1979355503243858e-04 
 2.2266952454657907e-04  2.2558312574034285e-04  2.2853485101926633e-04  2.3152519923194716e-04 
 2.3455467575435058e-04  2.3762379257521928e-04  2.4073306838260077e-04  2.4388302865150697e-04 
 2.4707420573272048e-04  2.5030713894276345e-04  2.5358237465504280e-04  2.5690046639218947e-04 
 2.6026197491960438e-04  2.6366746834022937e-04  2.6711752219055787e-04  2.7061271953790218e-04 
 2.7415365107893286e-04  2.7774091523950805e-04  2.8137511827580923e-04  2.8505687437679883e-04 
 2.8878680576802096e-04  2.9256554281675845e-04  2.9639372413856632e-04  3.0027199670519929e-04 
 3.0420101595395179e-04  3.0818144589842846e-04  3.1221395924076352e-04  3.1629923748530998e-04 
 3.2043797105381404e-04  3.2463085940209957e-04  3.2887861113827687e-04  3.3318194414249947e-04 
 3.3754158568828738e-04  3.4195827256543822e-04  3.4643275120454641e-04  3.5096577780315160e-04 
 3.5555811845353839e-04  3.6021054927220619e-04  3.6492385653103703e-04  3.6969883679017563e-04 
 3.7453629703265077e-04  3.7943705480075702e-04  3.8440193833422150e-04  3.8943178671017832e-04 
 3.9452744998497445e-04  3.9968978933783191e-04  4.0491967721638752e-04  4.1021799748414063e-04 
 4.1558564556982709e-04  4.2102352861874890e-04  4.2653256564608393e-04  4.3211368769220204e-04 
 4.3776783798001246e-04  4.4349597207437132e-04  4.4929905804357440e-04  4.5517807662296181e-04 
 4.6113402138066615e-04  4.6716789888552753e-04  4.7328072887720541e-04  4.7947354443851739e-04 
 4.8574739217003291e-04  4.9210333236695094e-04  4.9854243919829247e-04  5.0506580088843821e-04 
 5.1167451990103926e-04  5.1836971312533826e-04  5.2515251206492559e-04  5.3202406302896570e-04 
 5.3898552732592638e-04  5.4603808145984288e-04  5.5318291732914953e-04  5.6042124242811368e-04 
 5.6775428005090549e-04  5.7518326949833548e-04  5.8270946628730244e-04  5.9033414236297696e-04 
 5.9805858631376311e-04  6.0588410358907363e-04  6.1381201671995348e-04  6.2184366554259105e-04 
 6.2998040742475326e-04  6.3822361749518513e-04  6.4657468887600715e-04  6.5503503291815951e-04 
 6.6360607943992183e-04  6.7228927696855612e-04  6.8108609298511160e-04  6.8999801417243226e-04 
 6.9902654666641022e-04  7.0817321631052568e-04  7.1743956891371892e-04  7.2682717051163344e-04 
 7.3633760763128350e-04  7.4597248755917795e-04  7.5573343861295669e-04  7.6562211041657962e-04 
 7.7564017417911771e-04  7.8578932297719063e-04  7.9607127204110132e-04  8.0648775904471417e-04 
 8.1704054439912398e-04  8.2773141155017269e-04  8.3856216727985419e-04  8.4953464201166528e-04 
 8.6065069011995079e-04  8.7191219024329841e-04  8.8332104560203252e-04  8.9487918431986309e-04 
 9.0658855974974260e-04  9.1845115080398825e-04  9.3046896228872250e-04  9.4264402524268953e-04 
 9.5497839728050818e-04  9.6747416294040679e-04  9.8013343403652417e-04  9.9295835001580622e-04 
 1.0059510783195780e-03  1.0191138147498467e-03  1.0324487838403974e-03  1.0459582392327450e-03 
 1.0596444640570051e-03  1.0735097713177469e-03  1.0875565042848987e-03  1.1017870368897642e-03 
 1.1162037741262237e-03  1.1308091524571836e-03  1.1456056402263440e-03  1.1605957380753547e-03 
 1.1757819793664305e-03  1.1911669306104941e-03  1.2067531919009254e-03  1.2225433973529752e-03 
 1.2385402155489493e-03  1.2547463499891964e-03  1.2711645395490098e-03  1.2877975589415012e-03 
 1.3046482191865368e-03  1.3217193680858037e-03  1.3390138907040969e-03  1.3565347098569017e-03 
 1.3742847866043569e-03  1.3922671207516780e-03  1.4104847513561373e-03  1.4289407572406654e-03 
 1.4476382575141847e-03  1.4665804120987428e-03  1.4857704222635490e-03  1.5052115311659951e-03 
 1.5249070243997598e-03  1.5448602305500718e-03  1.5650745217562637e-03  1.5855533142816608e-03 
 1.6063000690909421e-03  1.6273182924350490e-03  1.6486115364437528e-03  1.6701833997259700e-03 
 1.6920375279779395e-03  1.7141776145993498e-03  1.7366074013175365e-03  1.7593306788198390e-03 
 1.7823512873942396e-03  1.8056731175783783e-03  1.8293001108170639e-03  1.8532362601283892e-03 
 1.8774856107785579e-03  1.9020522609655452e-03  1.9269403625117080e-03  1.9521541215654361e-03 
 1.9776977993120246e-03  2.0035757126938085e-03  2.0297922351397418e-03  2.0563517973045155e-03 
 2.0832588878173506e-03  2.1105180540405832e-03  2.1381339028381870e-03  2.1661111013543356e-03 
 2.1944543778021665e-03  2.2231685222628603e-03  2.2522583874951731e-03  2.2817288897555646e-03 
 2.3115850096290607e-03  2.3418317928709798e-03  2.3724743512596805e-03  2.4035178634604624e-03 
 2.4349675759007786e-03  2.4668288036568758e-03  2.4991069313520823e-03  2.5318074140668039e-03 
 2.5649357782604491e-03  2.5984976227054158e-03  2.6324986194332955e-03  2.6669445146934607e-03 
 2.7018411299241951e-03  2.7371943627365293e-03  2.7730101879109544e-03  2.8092946584071681e-03 
 2.8460539063870460e-03  2.8832941442509872e-03  2.9210216656878254e-03  2.9592428467384788e-03 
 2.9979641468735156e-03  3.0371921100848186e-03  3.0769333659915426e-03  3.1171946309605132e-03 
 3.1579827092413407e-03  3.1993044941163334e-03  3.2411669690654869e-03  3.2835772089467030e-03 
 3.3265423811914626e-03  3.3700697470161359e-03  3.4141666626491475e-03  3.4588405805741941e-03 
 3.5040990507897319e-03  3.5499497220849484e-03  3.5964003433324216e-03  3.6434587647976974e-03 
 3.6911329394660091e-03  3.7394309243863437e-03  3.7883608820331077e-03  3.8379310816855998e-03 
 3.8881499008255513e-03  3.9390258265529082e-03  3.9905674570202155e-03  4.0427835028856952e-03 
 4.0956827887853788e-03  4.1492742548244884e-03  4.2035669580883384e-03  4.2585700741729999e-03 
 4.3142928987360057e-03  4.3707448490673323e-03  4.4279354656809470e-03  4.4858744139271763e-03 
 4.5445714856261745e-03  4.6040366007227638e-03  4.6642798089629274e-03  4.7253112915922428e-03 
 4.7871413630765358e-03  4.8497804728450476e-03  4.9132392070564256e-03  4.9775282903877721e-03 
 5.0426585878471939e-03  5.1086411066099766e-03  5.1754869978788360e-03  5.2432075587684965e-03 
 5.3118142342149302e-03  5.3813186189095785e-03  5.4517324592588817e-03  5.5230676553694501e-03 
 5.5953362630592101e-03  5.6685504958948699e-03  5.7427227272560336e-03  5.8178654924263395e-03 
 5.8939914907119497e-03  5.9711135875877581e-03  6.0492448168716975e-03  6.1283983829274764e-03 
 6.2085876628961622e-03  6.2898262089569048e-03  6.3721277506173556e-03  6.4555061970339427e-03 
 6.5399756393625585e-03  6.6255503531399990e-03  6.7122448006965733e-03  6.8000736336002541e-03 
 6.8890516951328491e-03  6.9791940227985298e-03  7.0705158508652206e-03  7.1630326129392191e-03 
 7.2567599445735155e-03  7.3517136859102350e-03  7.4479098843576652e-03  7.5453647973022951e-03 
 7.6440948948563667e-03  7.7441168626413573e-03  7.8454476046078952e-03  7.9481042458925209e-03 
 8.0521041357119582e-03  8.1574648502951205e-03  8.2642041958535355e-03  8.3723402115906571e-03 
 8.4818911727505171e-03  8.5928755937062923e-03  8.7053122310892794e-03  8.8192200869588056e-03 
 8.9346184120136247e-03  9.0515267088453304e-03  9.1699647352343431e-03  9.2899525074890098e-03 
 9.4115103038284291e-03  9.5346586678095001e-03  9.6594184117988410e-03  9.7858106204901270e-03 
 9.9138566544674685e-03  1.0043578153815335e-02  1.0174997041775886e-02  1.0308135528453973e-02 
 1.0443016114570727e-02  1.0579661595266234e-02  1.0718095063951959e-02  1.0858339916213593e-02 
 1.1000419853764968e-02  1.1144358888453694e-02  1.1290181346319220e-02  1.1437911871703997e-02 
 1.1587575431418430e-02  1.1739197318960323e-02  1.1892803158789543e-02  1.2048418910658621e-02 
 1.2206070874000007e-02  1.2365785692370726e-02  1.2527590357955242e-02  1.2691512216127111e-02 
 1.2857578970070531e-02  1.3025818685462173e-02  1.3196259795214368e-02  1.3368931104280331e-02 
 1.3543861794522263e-02  1.3721081429643171e-02  1.3900619960183191e-02  1.4082507728581302e-02 
 1.4266775474303274e-02  1.4453454339036711e-02  1.4642575871954062e-02  1.4834172035044524e-02 
 1.5028275208515669e-02  1.5224918196265803e-02  1.5424134231427883e-02  1.5625956981986010e-02 
 1.5830420556465406e-02  1.6037559509696750e-02  1.6247408848656174e-02  1.6460004038381430e-02 
 1.6675381007965572e-02  1.6893576156629082e-02  1.7114626359871404e-02  1.7338568975703014e-02 
 1.7565441850958992e-02  1.7795283327695227e-02  1.8028132249668340e-02  1.8264027968900347e-02 
 1.8503010352329249e-02  1.8745119788546653e-02  1.8990397194623518e-02  1.9238884023025257e-02 
 1.9490622268617291e-02  1.9745654475762289e-02  2.0004023745510295e-02  2.0265773742882767e-02 
 2.0530948704252289e-02  2.0799593444818475e-02  2.1071753366181879e-02  2.1347474464016979e-02 
 2.1626803335845549e-02  2.1909787188911768e-02  2.2196473848160321e-02  2.2486911764318968e-02 
 2.2781150022086815e-02  2.3079238348429731e-02  2.3381227120984352e-02  2.3687167376572001e-02 
 2.3997110819824044e-02  2.4311109831920079e-02  2.4629217479440503e-02  2.4951487523334873e-02 
 2.5277974428007687e-02  2.5608733370522808e-02  2.5943820249928817e-02  2.6283291696705863e-02 
 2.6627205082336430e-02  2.6975618529001235e-02  2.7328590919402027e-02  2.7686181906712886e-02 
 2.8048451924661769e-02  2.8415462197743949e-02  2.8787274751569097e-02  2.9163952423343756e-02 
 2.9545558872490989e-02  2.9932158591408967e-02  3.0323816916370323e-02  3.0720600038564166e-02 
 3.1122575015282518e-02  3.1529809781253200e-02  3.1942373160120968e-02  3.2360334876078672e-02 
 3.2783765565651164e-02  3.3212736789632782e-02  3.3647321045181380e-02  3.4087591778070490e-02 
 3.4533623395101860e-02  3.4985491276680367e-02  3.5443271789553484e-02  3.5907042299717459e-02 
 3.6376881185492309e-02  3.6852867850768009e-02  3.7335082738423876e-02  3.7823607343923663e-02 
 3.8318524229088394e-02  3.8819917036049652e-02  3.9327870501385150e-02  3.9842470470439519e-02 
 4.0363803911832405e-02  4.0891958932156081e-02  4.1427024790866095e-02  4.1969091915366095e-02 
 4.2518251916290301e-02  4.3074597602985910e-02  4.3638222999198124e-02  4.4209223358960402e-02 
 4.4787695182692572e-02  4.5373736233509661e-02  4.5967445553744095e-02  4.6568923481684080e-02 
 4.7178271668531016e-02  4.7795593095578792e-02  4.8420992091617834e-02  4.9054574350567016e-02 
 4.9696446949336080e-02  5.0346718365921930e-02  5.1005498497741775e-02  5.1672898680205671e-02 
 5.2349031705533011e-02  5.3034011841814346e-02  5.3727954852323026e-02  5.4430978015079498e-02 
 5.5143200142671489e-02  5.5864741602333741e-02  5.6595724336290287e-02  5.7336271882362969e-02 
 5.8086509394849641e-02  5.8846563665675540e-02  5.9616563145821470e-02  6.0396637967032228e-02 
 6.1186919963809247e-02  6.1987542695690949e-02  6.2798641469824570e-02  6.3620353363833426e-02 
 6.4452817248983482e-02  6.5296173813652436e-02  6.6150565587107121e-02  6.7016136963590767e-02 
 6.7893034226726157e-02  6.8781405574237828e-02  6.9681401142997965e-02  7.0593173034399756e-02 
 7.1516875340062916e-02  7.2452664167875630e-02  7.3400697668377077e-02  7.4361136061485242e-02 
 7.5334141663574494e-02  7.6319878914907421e-02  7.7318514407425681e-02  7.8330216912904330e-02 
 7.9355157411474753e-02  8.0393509120520665e-02  8.1445447523952427e-02  8.2511150401863631e-02 
 8.3590797860577271e-02  8.4684572363083535e-02  8.5792658759876642e-02  8.6915244320194984e-02 
 8.8052518763670123e-02  8.9204674292389860e-02  9.0371905623380738e-02  9.1554410021515861e-02 
 9.2752387332852959e-02  9.3966040018408997e-02  9.5195573188376376e-02  9.6441194636787270e-02 
 9.7703114876631178e-02  9.8981547175432075e-02  1.0027670759129130e-01  1.0158881500940167e-01 
 1.0291809117904008e-01  1.0426476075104255e-01  1.0562905131577216e-01  1.0701119344158150e-01 
 1.0841142071377947e-01  1.0982996977410774e-01  1.1126708036073378e-01  1.1272299534876719e-01 
 1.1419796079130619e-01  1.1569222596102108e-01  1.1720604339228212e-01  1.1873966892383814e-01 
 1.2029336174205420e-01  1.2186738442471451e-01  1.2346200298539878e-01  1.2507748691843906e-01 
 1.2671410924446508e-01  1.2837214655654527e-01  1.3005187906693189e-01  1.3175359065441661e-01 
 1.3347756891230822e-01  1.3522410519703554e-01  1.3699349467738761e-01  1.3878603638439793e-01 
 1.4060203326188142e-01  1.4244179221763259e-01  1.4430562417529383e-01  1.4619384412690198e-01 
 1.4810677118612312e-01  1.5004472864218313e-01  1.5200804401450463e-01  1.5399704910805842e-01 
 1.5601208006943937e-01  1.5805347744367590e-01  1.6012158623178296e-01  1.6221675594906809e-01 
 1.6433934068420045e-01  1.6648969915905168e-01  1.6866819478932238e-01  1.7087519574595911e-01 
 1.7311107501737638e-01  1.7537621047249272e-01  1.7767098492459124e-01  1.7999578619601614e-01 
 1.8235100718371558e-01  1.8473704592564208e-01  1.8715430566802205e-01  1.8960319493350528e-01 
 1.9208412759020624e-01  1.9459752292164872e-01  1.9714380569762588e-01  1.9972340624598731e-01 
 2.0233676052536531e-01  2.0498431019885352e-01  2.0766650270864748e-01  2.1038379135166552e-01 
 2.1313663535615582e-01  2.1592549995930713e-01  2.1875085648587514e-01  2.2161318242783742e-01 
 2.2451296152509084e-01  2.2745068384720457e-01  2.3042684587624310e-01  2.3344195059067288e-01 
 2.3649650755036697e-01  2.3959103298272158e-01  2.4272604986990012e-01  2.4590208803721819e-01 
 2.4911968424268527e-01  2.5237938226771828e-01  2.5568173300904196e-01  2.5902729457179186e-01 
 2.6241663236383389e-01  2.6585031919132251e-01  2.6932893535550384e-01  2.7285306875078918e-01 
 2.7642331496411016e-01  2.8004027737557424e-01  2.8370456726043775e-01  2.8741680389241259e-01 
 2.9117761464832503e-01  2.9498763511414400e-01  2.9884750919239639e-01  3.0275788921098817e-01 
 3.0671943603344975e-01  3.1073281917062284e-01  3.1479871689380995e-01  3.1891781634940358e-01 
 3.2309081367501546e-01  3.2731841411712637e-01  3.3160133215027204e-01  3.3594029159779432e-01 
 3.4033602575416705e-01  3.4478927750892485e-01  3.4930079947221354e-01  3.5387135410198273e-01 
 3.5850171383284318e-01  3.6319266120661020e-01  3.6794498900455475e-01  3.7275950038138572e-01 
 3.7763700900098485e-01  3.8257833917391770e-01  3.8758432599674458e-01  3.9265581549315293e-01 
 3.9779366475693850e-01  4.0299874209685538e-01  4.0827192718336264e-01  4.1361411119729125e-01 
 4.1902619698045318e-01  4.2450909918822760e-01  4.3006374444413759e-01  4.3569107149645192e-01 
 4.4139203137683614e-01  4.4716758756107872e-01  4.5301871613192118e-01  4.5894640594401842e-01 
 4.6495165879105699e-01  4.7103548957506108e-01  4.7719892647791357e-01  4.8344301113512034e-01 
 4.8976879881185015e-01  4.9617735858127615e-01  5.0266977350525244e-01  5.0924714081735400e-01 
 5.1591057210831115e-01  5.2266119351387252e-01  5.2950014590512096e-01  5.3642858508128910e-01 
 5.4344768196508775e-01  5.5055862280059664e-01  5.5776260935374156e-01  5.6506085911539639e-01 
 5.7245460550714100e-01  5.7994509808971373e-01  5.8753360277418920e-01  5.9522140203592022e-01 
 6.0300979513127972e-01  6.1090009831723813e-01  6.1889364507381350e-01  6.2699178632943320e-01 
 6.3519589068924354e-01  6.4350734466640802e-01  6.5192755291643090e-01  6.6045793847454848e-01 
 6.6909994299622100e-01  6.7785502700078215e-01  6.8672467011826732e-01  6.9571037133947344e-01 
 7.0481364926929391e-01  7.1403604238336560e-01  7.2337910928807503e-01  7.3284442898396629e-01 
 7.4243360113259649e-01  7.5214824632688193e-01  7.6199000636498204e-01  7.7196054452776797e-01 
 7.8206154585991983e-01  7.9229471745470392e-01  8.0266178874247618e-01  8.1316451178295868e-01 
 8.2380466156134247e-01  8.3458403628826650e-01  8.4550445770371252e-01  8.5656777138489293e-01 
 8.6777584705815147e-01  8.7913057891495350e-01  8.9063388593200776e-01  9.0228771219557935e-01 
 9.1409402723004407e-01  9.2605482633074288e-01  9.3817213090119167e-01  9.5044798879470327e-01 
 9.6288447466047911e-01  9.7548369029423099e-01  9.8824776499338796e-01  1.0011788559169543e+00 
 1.0142791484500731e+00  1.0275508565733624e+00  1.0409962232370829e+00  1.0546175207402042e+00 
 1.0684170511144204e+00  1.0823971465132110e+00  1.0965601696059721e+00  1.1109085139773160e+00 
 1.1254446045315918e+00  1.1401708979027003e+00  1.1550898828692717e+00  1.1702040807752734e+00 
 1.1855160459561251e+00  1.2010283661703864e+00  1.2167436630370940e+00  1.2326645924788227e+00 
 1.2487938451705412e+00  1.2651341469943436e+00  1.2816882595001298e+00  1.2984589803723137e+00 
 1.3154491439026381e+00  1.3326616214691809e+00  1.3500993220216131e+00  1.3677651925728340e+00 
 1.3856622186970131e+00  1.4037934250341626e+00  1.4221618758013066e+00  1.4407706753103440e+00 
 1.4596229684926822e+00  1.4787219414307398e+00  1.4980708218964003e+00  1.5176728798965149e+00 
 1.5375314282255403e+00 
  </PP_RAB>
</PP_MESH>


<PP_LOCAL>
3.8642977904953199e+02 3.8642977897676724e+02 3.8642977890204224e+02 3.8642977882590804e+02 
3.8642977874722931e+02 3.8642977866666905e+02 3.8642977858377412e+02 3.8642977849912984e+02 
3.8642977841150667e+02 3.8642977832244014e+02 3.8642977823038740e+02 3.8642977813637395e+02 
3.8642977803942784e+02 3.8642977794030924e+02 3.8642977783851734e+02 3.8642977773402600e+02 
3.8642977762637634e+02 3.8642977751653558e+02 3.8642977740305059e+02 3.8642977728713066e+02 
3.8642977716841472e+02 3.8642977704600918e+02 3.8642977692067319e+02 3.8642977679192421e+02 
3.8642977665972813e+02 3.8642977652418159e+02 3.8642977638513327e+02 3.8642977624219264e+02 
3.8642977609553492e+02 3.8642977594513633e+02 3.8642977579066837e+02 3.8642977563221240e+02 
3.8642977546971684e+02 3.8642977530272537e+02 3.8642977513134150e+02 3.8642977495543312e+02 
3.8642977477473431e+02 3.8642977458978243e+02 3.8642977439970821e+02 3.8642977420437018e+02 
3.8642977400426861e+02 3.8642977379863424e+02 3.8642977358754706e+02 3.8642977337108675e+02 
3.8642977314890629e+02 3.8642977292089040e+02 3.8642977268679658e+02 3.8642977244631504e+02 
3.8642977219985352e+02 3.8642977194659687e+02 3.8642977168681716e+02 3.8642977142049102e+02 
3.8642977114678268e+02 3.8642977086586137e+02 3.8642977057785771e+02 3.8642977028207383e+02 
3.8642976997850997e+02 3.8642976966670221e+02 3.8642976934702455e+02 3.8642976901870384e+02 
3.8642976868187731e+02 3.8642976833614017e+02 3.8642976798125017e+02 3.8642976761710690e+02 
3.8642976724322654e+02 3.8642976685973804e+02 3.8642976646589278e+02 3.8642976606170259e+02 
3.8642976564700871e+02 3.8642976522134069e+02 3.8642976478427175e+02 3.8642976433599563e+02 
3.8642976387583639e+02 3.8642976340340226e+02 3.8642976291864585e+02 3.8642976242106761e+02 
3.8642976191031141e+02 3.8642976138625227e+02 3.8642976084818781e+02 3.8642976029630046e+02 
3.8642975972968321e+02 3.8642975914809085e+02 3.8642975855119289e+02 3.8642975793858523e+02 
3.8642975730989377e+02 3.8642975666446699e+02 3.8642975600221837e+02 3.8642975532245879e+02 
3.8642975462482627e+02 3.8642975390885942e+02 3.8642975317397162e+02 3.8642975241971243e+02 
3.8642975164556196e+02 3.8642975085105132e+02 3.8642975003547048e+02 3.8642974919864230e+02 
3.8642974833969657e+02 3.8642974745811296e+02 3.8642974655333643e+02 3.8642974562480003e+02 
3.8642974467158172e+02 3.8642974369330966e+02 3.8642974268937502e+02 3.8642974165894412e+02 
3.8642974060140097e+02 3.8642973951594405e+02 3.8642973840189484e+02 3.8642973725853204e+02 
3.8642973608510221e+02 3.8642973488072141e+02 3.8642973364447420e+02 3.8642973237579281e+02 
3.8642973107374110e+02 3.8642972973729258e+02 3.8642972836570021e+02 3.8642972695799642e+02 
3.8642972551314443e+02 3.8642972403026221e+02 3.8642972250827063e+02 3.8642972094633006e+02 
3.8642971934308878e+02 3.8642971769765325e+02 3.8642971600888569e+02 3.8642971427566738e+02 
3.8642971249677635e+02 3.8642971067097164e+02 3.8642970879716023e+02 3.8642970687401368e+02 
3.8642970490007986e+02 3.8642970287419359e+02 3.8642970079487418e+02 3.8642969866098980e+02 
3.8642969647078610e+02 3.8642969422275598e+02 3.8642969191573115e+02 3.8642968954775478e+02 
3.8642968711746403e+02 3.8642968462323535e+02 3.8642968206321035e+02 3.8642967943573592e+02 
3.8642967673906071e+02 3.8642967397139063e+02 3.8642967113071552e+02 3.8642966821534566e+02 
3.8642966522308365e+02 3.8642966215210134e+02 3.8642965900008119e+02 3.8642965576518714e+02 
3.8642965244496492e+02 3.8642964903729677e+02 3.8642964553985053e+02 3.8642964195031698e+02 
3.8642963826628159e+02 3.8642963448511091e+02 3.8642963060432845e+02 3.8642962662138450e+02 
3.8642962253337612e+02 3.8642961833781277e+02 3.8642961403171699e+02 3.8642960961220950e+02 
3.8642960507620609e+02 3.8642960042067898e+02 3.8642959564263003e+02 3.8642959073866763e+02 
3.8642958570554771e+02 3.8642958053977907e+02 3.8642957523798736e+02 3.8642956979648022e+02 
3.8642956421165297e+02 3.8642955847974906e+02 3.8642955259678462e+02 3.8642954655883761e+02 
3.8642954036190065e+02 3.8642953400167420e+02 3.8642952747392798e+02 3.8642952077419733e+02 
3.8642951389798048e+02 3.8642950684060833e+02 3.8642949959737479e+02 3.8642949216329811e+02 
3.8642948453341137e+02 3.8642947670250629e+02 3.8642946866531332e+02 3.8642946041641306e+02 
3.8642945195017279e+02 3.8642944326094243e+02 3.8642943434278936e+02 3.8642942518969801e+02 
3.8642941579545601e+02 3.8642940615382889e+02 3.8642939625815313e+02 3.8642938610179988e+02 
3.8642937567787868e+02 3.8642936497939058e+02 3.8642935399903945e+02 3.8642934272943018e+02 
3.8642933116296268e+02 3.8642931929177337e+02 3.8642930710785134e+02 3.8642929460298348e+02 
3.8642928176867474e+02 3.8642926859626095e+02 3.8642925507684055e+02 3.8642924120126963e+02 
3.8642922696017155e+02 3.8642921234390701e+02 3.8642919734259158e+02 3.8642918194606222e+02 
3.8642916614394295e+02 3.8642914992554830e+02 3.8642913327989618e+02 3.8642911619571896e+02 
3.8642909866148676e+02 3.8642908066530526e+02 3.8642906219505477e+02 3.8642904323820585e+02 
3.8642902378196271e+02 3.8642900381317565e+02 3.8642898331829269e+02 3.8642896228348502e+02 
3.8642894069454917e+02 3.8642891853683426e+02 3.8642889579544749e+02 3.8642887245490186e+02 
3.8642884849946341e+02 3.8642882391295217e+02 3.8642879867867146e+02 3.8642877277963493e+02 
3.8642874619828848e+02 3.8642871891667704e+02 3.8642869091629433e+02 3.8642866217827941e+02 
3.8642863268317012e+02 3.8642860241098663e+02 3.8642857134127564e+02 3.8642853945303762e+02 
3.8642850672471360e+02 3.8642847313415217e+02 3.8642843865861960e+02 3.8642840327482207e+02 
3.8642836695883130e+02 3.8642832968607490e+02 3.8642829143134514e+02 3.8642825216879100e+02 
3.8642821187181869e+02 3.8642817051322874e+02 3.8642812806497352e+02 3.8642808449840828e+02 
3.8642803978404828e+02 3.8642799389162269e+02 3.8642794679014099e+02 3.8642789844769857e+02 
3.8642784883164222e+02 3.8642779790837739e+02 3.8642774564348383e+02 3.8642769200159904e+02 
3.8642763694643531e+02 3.8642758044077010e+02 3.8642752244638217e+02 3.8642746292403763e+02 
3.8642740183347939e+02 3.8642733913336082e+02 3.8642727478133082e+02 3.8642720873379477e+02 
3.8642714094612472e+02 3.8642707137245014e+02 3.8642699996569172e+02 3.8642692667758206e+02 
3.8642685145852516e+02 3.8642677425764265e+02 3.8642669502271303e+02 3.8642661370012456e+02 
3.8642653023490635e+02 3.8642644457057662e+02 3.8642635664915616e+02 3.8642626641121882e+02 
3.8642617379566690e+02 3.8642607873990909e+02 3.8642598117959591e+02 3.8642588104873738e+02 
3.8642577827960270e+02 3.8642567280267065e+02 3.8642556454658006e+02 3.8642545343809780e+02 
3.8642533940203879e+02 3.8642522236127934e+02 3.8642510223662606e+02 3.8642497894680321e+02 
3.8642485240841745e+02 3.8642472253584685e+02 3.8642458924122406e+02 3.8642445243436646e+02 
3.8642431202272491e+02 3.8642416791128210e+02 3.8642402000255896e+02 3.8642386819644577e+02 
3.8642371239027551e+02 3.8642355247859308e+02 3.8642338835322016e+02 3.8642321990309836e+02 
3.8642304701423922e+02 3.8642286956968906e+02 3.8642268744935177e+02 3.8642250053001408e+02 
3.8642230868519408e+02 3.8642211178506966e+02 3.8642190969639807e+02 3.8642170228245817e+02 
3.8642148940287439e+02 3.8642127091359714e+02 3.8642104666676431e+02 3.8642081651063836e+02 
3.8642058028946616e+02 3.8642033784339139e+02 3.8642008900834145e+02 3.8641983361591321e+02 
3.8641957149326885e+02 3.8641930246303156e+02 3.8641902634310605e+02 3.8641874294663432e+02 
3.8641845208180831e+02 3.8641815355178414e+02 3.8641784715450200e+02 3.8641753268260021e+02 
3.8641720992323155e+02 3.8641687865793824e+02 3.8641653866251175e+02 3.8641618970681702e+02 
3.8641583155466475e+02 3.8641546396363469e+02 3.8641508668490417e+02 3.8641469946309218e+02 
3.8641430203610253e+02 3.8641389413491044e+02 3.8641347548338047e+02 3.8641304579812885e+02 
3.8641260478828144e+02 3.8641215215529155e+02 3.8641168759274302e+02 3.8641121078614202e+02 
3.8641072141268859e+02 3.8641021914108205e+02 3.8640970363128611e+02 3.8640917453427886e+02 
3.8640863149185827e+02 3.8640807413634849e+02 3.8640750209039254e+02 3.8640691496668228e+02 
3.8640631236768166e+02 3.8640569388538051e+02 3.8640505910100569e+02 3.8640440758472630e+02 
3.8640373889539848e+02 3.8640305258020953e+02 3.8640234817442371e+02 3.8640162520104519e+02 
3.8640088317049845e+02 3.8640012158027781e+02 3.8639933991463283e+02 3.8639853764421116e+02 
3.8639771422568265e+02 3.8639686910140546e+02 3.8639600169900592e+02 3.8639511143101748e+02 
3.8639419769447750e+02 3.8639325987050614e+02 3.8639229732392067e+02 3.8639130940275089e+02 
3.8639029543784471e+02 3.8638925474237857e+02 3.8638818661143353e+02 3.8638709032146181e+02 
3.8638596512984185e+02 3.8638481027436222e+02 3.8638362497268059e+02 3.8638240842183450e+02 
3.8638115979765172e+02 3.8637987825423164e+02 3.8637856292334345e+02 3.8637721291384526e+02 
3.8637582731107369e+02 3.8637440517624134e+02 3.8637294554577733e+02 3.8637144743068876e+02 
3.8636990981588207e+02 3.8636833165946121e+02 3.8636671189205839e+02 3.8636504941606154e+02 
3.8636334310490241e+02 3.8636159180227452e+02 3.8635979432135986e+02 3.8635794944400726e+02 
3.8635605591992601e+02 3.8635411246581361e+02 3.8635211776450024e+02 3.8635007046404991e+02 
3.8634796917684662e+02 3.8634581247864094e+02 3.8634359890758566e+02 3.8634132696325952e+02 
3.8633899510562117e+02 3.8633660175398467e+02 3.8633414528592999e+02 3.8633162403621844e+02 
3.8632903629564362e+02 3.8632638030987914e+02 3.8632365427829524e+02 3.8632085635271000e+02 
3.8631798463616303e+02 3.8631503718160388e+02 3.8631201199058876e+02 3.8630890701190447e+02 
3.8630572014018315e+02 3.8630244921448298e+02 3.8629909201679237e+02 3.8629564627054998e+02 
3.8629210963908179e+02 3.8628847972402104e+02 3.8628475406367568e+02 3.8628093013135680e+02 
3.8627700533366101e+02 3.8627297700870378e+02 3.8626884242432027e+02 3.8626459877620539e+02 
3.8626024318599963e+02 3.8625577269934251e+02 3.8625118428386423e+02 3.8624647482712521e+02 
3.8624164113449746e+02 3.8623667992699251e+02 3.8623158783904000e+02 3.8622636141620291e+02 
3.8622099711281493e+02 3.8621549128958787e+02 3.8620984021113048e+02 3.8620404004341543e+02 
3.8619808685116669e+02 3.8619197659519682e+02 3.8618570512965101e+02 3.8617926819920177e+02 
3.8617266143615183e+02 3.8616588035745968e+02 3.8615892036171925e+02 3.8615177672600458e+02 
3.8614444460268055e+02 3.8613691901610446e+02 3.8612919485925266e+02 3.8612126689023876e+02 
3.8611312972877187e+02 3.8610477785248793e+02 3.8609620559321064e+02 3.8608740713310044e+02 
3.8607837650070172e+02 3.8606910756689336e+02 3.8605959404072649e+02 3.8604982946515855e+02 
3.8603980721266589e+02 3.8602952048075247e+02 3.8601896228733068e+02 3.8600812546598740e+02 
3.8599700266112416e+02 3.8598558632296221e+02 3.8597386870243139e+02 3.8596184184591198e+02 
3.8594949758984347e+02 3.8593682755518790e+02 3.8592382314176052e+02 3.8591047552239144e+02 
3.8589677563695346e+02 3.8588271418622321e+02 3.8586828162558140e+02 3.8585346815855462e+02 
3.8583826373018132e+02 3.8582265802020709e+02 3.8580664043609983e+02 3.8579020010589051e+02 
3.8577332587081474e+02 3.8575600627776998e+02 3.8573822957157535e+02 3.8571998368702407e+02 
3.8570125624073728e+02 3.8568203452280085e+02 3.8566230548817924e+02 3.8564205574791674e+02 
3.8562127156010320e+02 3.8559993882060212e+02 3.8557804305354443e+02 3.8555556940157220e+02 
3.8553250261582946e+02 3.8550882704569113e+02 3.8548452662823149e+02 3.8545958487741058e+02 
3.8543398487299532e+02 3.8540770924917649e+02 3.8538074018290541e+02 3.8535305938192391e+02 
3.8532464807248431e+02 3.8529548698675757e+02 3.8526555634991274e+02 3.8523483586686586e+02 
3.8520330470868993e+02 3.8517094149867148e+02 3.8513772429801622e+02 3.8510363059118242e+02 
3.8506863727084237e+02 3.8503272062245662e+02 3.8499585630846087e+02 3.8495801935203991e+02 
3.8491918412049694e+02 3.8487932430819768e+02 3.8483841291907595e+02 3.8479642224870588e+02 
3.8475332386590912e+02 3.8470908859390579e+02 3.8466368649098530e+02 3.8461708683068946e+02 
3.8456925808149890e+02 3.8452016788600986e+02 3.8446978303958542e+02 3.8441806946847669e+02 
3.8436499220739256e+02 3.8431051537651558e+02 3.8425460215794169e+02 3.8419721477153564e+02 
3.8413831445019224e+02 3.8407786141447934e+02 3.8401581484665962e+02 3.8395213286407449e+02 
3.8388677249186964e+02 3.8381968963505761e+02 3.8375083904989583e+02 3.8368017431456843e+02 
3.8360764779915553e+02 3.8353321063487567e+02 3.8345681268258738e+02 3.8337840250053011e+02 
3.8329792731129430e+02 3.8321533296799913e+02 3.8313056391966632e+02 3.8304356317577458e+02 
3.8295427226996884e+02 3.8286263122292462e+02 3.8276857850433214e+02 3.8267205099399746e+02 
3.8257298394204082e+02 3.8247131092816579e+02 3.8236696381999855e+02 3.8225987273046906e+02 
3.8214996597421231e+02 3.8203717002299646e+02 3.8192140946012574e+02 3.8180260693383667e+02 
3.8168068310964316e+02 3.8155555662163016e+02 3.8142714402267347e+02 3.8129535973356883e+02 
3.8116011599105764e+02 3.8102132279472812e+02 3.8087888785278250e+02 3.8073271652665028e+02 
3.8058271177443413e+02 3.8042877409317703e+02 3.8027080145993102e+02 3.8010868927161852e+02 
3.7994233028367393e+02 3.7977161454745095e+02 3.7959642934638413e+02 3.7941665913089969e+02 
3.7923218545205833e+02 3.7904288689392729e+02 3.7884863900467411e+02 3.7864931422637034e+02 
3.7844478182350906e+02 3.7823490781022588e+02 3.7801955487622280e+02 3.7779858231139946e+02 
3.7757184592918389e+02 3.7733919798857829e+02 3.7710048711491197e+02 3.7685555821932053e+02 
3.7660425241695395e+02 3.7634640694392937e+02 3.7608185507304285e+02 3.7581042602825664e+02 
3.7553194489798432e+02 3.7524623254719984e+02 3.7495310552839436e+02 3.7465237599141466e+02 
3.7434385159221773e+02 3.7402733540058267e+02 3.7370262580682038e+02 3.7336951642753394e+02 
3.7302779601047752e+02 3.7267724833858244e+02 3.7231765213320159e+02 3.7194878095665507e+02 
3.7157040311414517e+02 3.7118228155513003e+02 3.7078417377424017e+02 3.7037583171184195e+02 
3.6995700165434710e+02 3.6952742413438841e+02 3.6908683383097633e+02 3.6863495946977730e+02 
3.6817152372364365e+02 3.6769624311355597e+02 3.6720882791013418e+02 3.6670898203589081e+02 
3.6619640296841072e+02 3.6567078164465630e+02 3.6513180236660332e+02 3.6457914270843452e+02 
3.6401247342552472e+02 3.6343145836546995e+02 3.6283575438142975e+02 3.6222501124806195e+02 
3.6159887158035281e+02 3.6095697075565886e+02 3.6029893683929589e+02 3.5962439051403038e+02 
3.5893294501384742e+02 3.5822420606239075e+02 3.5749777181649034e+02 3.5675323281521725e+02 
3.5599017193492818e+02 3.5520816435078262e+02 3.5440677750524713e+02 3.5358557108411924e+02 
3.5274409700063484e+02 3.5188189938825008e+02 3.5099851460271276e+02 3.5009347123407383e+02 
3.4916629012931196e+02 3.4821648442628265e+02 3.4724355959972564e+02 3.4624701352010686e+02 
3.4522633652609392e+02 3.4418101151150648e+02 3.4311051402760808e+02 3.4201431240165209e+02 
3.4089186787261548e+02 3.3974263474510303e+02 3.3856606056243299e+02 3.3736158629995202e+02 
3.3612864657966571e+02 3.3486666990730760e+02 3.3357507893300021e+02 3.3225329073670628e+02 
3.3090071713969638e+02 3.2951676504329589e+02 3.2810083679621118e+02 3.2665233059176211e+02 
3.2517064089638524e+02 3.2365515891079593e+02 3.2210527306523130e+02 3.2052036955021794e+02 
3.1889983288433069e+02 3.1724304652043645e+02 3.1554939349191858e+02 3.1381825710041318e+02 
3.1204902164657273e+02 3.1024107320539900e+02 3.0839380044766943e+02 3.0650659550898820e+02 
3.0457885490796752e+02 3.0260998051504043e+02 3.0059938057336012e+02 2.9854647077322630e+02 
2.9645067538141649e+02 2.9431142842675700e+02 2.9212817494320103e+02 2.8990037227160298e+02 
2.8762749142129366e+02 2.8530901849245629e+02 2.8294445616019146e+02 2.8053332522102835e+02 
2.7807516620248782e+02 2.7556954103615260e+02 2.7301603479450540e+02 2.7041425749160874e+02 
2.6776384594746787e+02 2.6506446571569353e+02 2.6231581307380384e+02 2.5951761707523326e+02 
2.5666964166179844e+02 2.5377168783504302e+02 2.5082359588452533e+02 2.4782524767072496e+02 
2.4477656895983574e+02 2.4167753180727590e+02 2.3852815698627268e+02 2.3532851645739376e+02 
2.3207873587436711e+02 2.2877899712098861e+02 2.2542954087332282e+02 2.2203066918081984e+02 
2.1858274805931742e+02 2.1508621008824812e+02 2.1154155700369373e+02 2.0794936227821665e+02 
2.0431027367767891e+02 2.0062501578451767e+02 1.9689439247618736e+02 1.9311928934671519e+02 
1.8930067605853827e+02 1.8543960861102161e+02 1.8153723151127537e+02 1.7759477983213230e+02 
1.7361358114139321e+02 1.6959505728572705e+02 1.6554072601190859e+02 1.6145220240743214e+02 
1.5733120014191218e+02 1.5317953249015426e+02 1.4899911311727635e+02 1.4479195660587064e+02 
1.4056017870487997e+02 1.3630599627965898e+02 1.3203172694259854e+02 1.2773978834373594e+02 
1.2343269710095657e+02 1.1911306734974011e+02 1.1478360889291922e+02 1.1044712493162405e+02 
1.0610650935949180e+02 1.0176474360333822e+02 9.7424892994836696e+01 9.3090102659335201e+01 
8.8763592909779902e+01 8.4448654135811111e+01 8.0148641180453311e+01 7.5866967199474843e+01 
7.1607097001389064e+01 6.7372539869271293e+01 6.3166841869026442e+01 5.8993577652478990e+01 
5.4856341767647542e+01 5.0758739492804004e+01 4.6704377215379033e+01 4.2696852381440820e+01 
3.8739743046308185e+01 3.4836597061836301e+01 3.0990920940985625e+01 2.7206168445411002e+01 
2.3485728946934735e+01 1.9832915618838992e+01 1.6250953517864598e+01 1.2742967622573625e+01 
9.3119708982285623e+00 5.9608524625312365e+00 2.6923659303006420e+00 -4.9088198156193225e-01 
-3.5864425048032866e+00 -6.5920354402166996e+00 -9.5055592604256436e+00 -1.2325100607337889e+01 
-1.5048943097035194e+01 -1.7675575346310641e+01 -2.0203698137550688e+01 -2.2632230642226933e+01 
-2.4960315627949541e+01 -2.7187323579868469e+01 -2.9312855674188068e+01 -3.1336745549679527e+01 
-3.3259059832297382e+01 -3.5080097378274452e+01 -3.6800387212317332e+01 -3.8420685149626998e+01 
-3.9941969103335360e+01 -4.1365433092398277e+01 -4.2692479978866402e+01 -4.3924712977570955e+01 
-4.5063925995397220e+01 -4.6112092871254490e+01 -4.7071355601341779e+01 -4.7944011647111509e+01 
-4.8732500435197025e+01 -4.9439389169248209e+01 -5.0067358082871614e+01 -5.0619185270480280e+01 
-5.1097731238612333e+01 -5.1505923324014212e+01 -5.1846740126354618e+01 -5.2123196102745737e+01 
-5.2338326468244567e+01 -5.2495172541181098e+01 -5.2596767664566393e+01 -5.2646123825068301e+01 
-5.2646219079269407e+01 -5.2599985883345710e+01 -5.2510300407190158e+01 -5.2379972897655556e+01 
-5.2211739138349486e+01 -5.2008253035654633e+01 -5.1772080342761079e+01 -5.1505693515886989e+01 
-5.1211467679925924e+01 -5.0891677664878621e+01 -5.0548496059956882e+01 -5.0183992219505747e+01 
-4.9800132144140917e+01 -4.9398779151951011e+01 -4.8981695248404925e+01 -4.8550543099808571e+01 
-4.8106888513759529e+01 -4.7652203330982644e+01 -4.7187868636040726e+01 -4.6715178199492335e+01 
-4.6235342070845775e+01 -4.5749490249822500e+01 -4.5258676372649674e+01 -4.4763881359989924e+01 
-4.4266016983318728e+01 -4.3765929316721966e+01 -4.3264402050873976e+01 -4.2762159655076893e+01 
-4.2259870381440727e+01 -4.1758149112366951e+01 -4.1257560058326568e+01 -4.0758619317419210e+01 
-4.0261797311344580e+01 -3.9767521114253476e+01 -3.9276176691557126e+01 -3.8788111065297940e+01 
-3.8303634421286219e+01 -3.7823022171074278e+01 -3.7346516979175554e+01 -3.6874330762945128e+01 
-3.6406646669416112e+01 -3.5943621030315860e+01 -3.5485385293625022e+01 -3.5032047927520864e+01 
-3.4583696290464992e+01 -3.4140398459619782e+01 -3.3702205008742723e+01 -3.3269150726216651e+01 
-3.2841256263903098e+01 -3.2418529708009054e+01 -3.2000968064067159e+01 -3.1588558649373034e+01 
-3.1181280387706000e+01 -3.0779105002802289e+01 -3.0381998108759678e+01 -2.9989920197251301e+01 
-2.9602827523044514e+01 -2.9220672890796390e+01 -2.8843406347387031e+01 -2.8470975785122732e+01 
-2.8103327461974306e+01 -2.7740406445607753e+01 -2.7382156988320062e+01 -2.7028522840128549e+01 
-2.6679447507201509e+01 -2.6334874462589273e+01 -2.5994747315850280e+01 -2.5659009947699268e+01 
-2.5327606615265186e+01 -2.5000482032968034e+01 -2.4677581433427743e+01 -2.4358850612232263e+01 
-2.4044235959830409e+01 -2.3733684483293189e+01 -2.3427143820212923e+01 -2.3124562246588951e+01 
-2.2825888680183098e+01 -2.2531072680516345e+01 -2.2240064446418259e+01 -2.1952814811827142e+01 
-2.1669275240367320e+01 -2.1389397819093876e+01 -2.1113135251690171e+01 -2.0840440851322718e+01 
-2.0571268533297861e+01 -2.0305572807620706e+01 -2.0043308771523812e+01 -1.9784432102011962e+01 
-1.9528899048451855e+01 -1.9276666425225962e+01 -1.9027691604461896e+01 -1.8781932508844179e+01 
-1.8539347604512024e+01 -1.8299895894044973e+01 -1.8063536909536900e+01 -1.7830230705758268e+01 
-1.7599937853406015e+01 -1.7372619432440285e+01 -1.7148237025507040e+01 -1.6926752711445520e+01 
-1.6708129058879525e+01 -1.6492329119891433e+01 -1.6279316423777910e+01 -1.6069054970886384e+01 
-1.5861509226530840e+01 -1.5656644114986507e+01 -1.5454425013561933e+01 -1.5254817746747678e+01 
-1.5057788580440567e+01 -1.4863304216242542e+01 -1.4671331785833164e+01 -1.4481838845414782e+01 
-1.4294793370229453e+01 -1.4110163749146681e+01 -1.3927918779321073e+01 -1.3748027660918959e+01 
-1.3570459991913182e+01 -1.3395185762945042e+01 -1.3222175352252679e+01 -1.3051399520664905e+01 
-1.2882829406659690e+01 -1.2716436521486605e+01 -1.2552192744352004e+01 -1.2390070317666630e+01 
-1.2230041842354504e+01 -1.2072080273222420e+01 -1.1916158914389234e+01 -1.1762251414774186e+01 
-1.1610331763643533e+01 -1.1460374286214648e+01 -1.1312353639316933e+01 -1.1166244807108757e+01 
-1.1022023096849727e+01 -1.0879664134727543e+01 -1.0739143861738786e+01 -1.0600438529622862e+01 
-1.0463524696848513e+01 -1.0328379224652132e+01 -1.0194979273127240e+01 -1.0063302297364563e+01 
-9.9333260436417721e+00 -9.8050285456626369e+00 -9.6783881208446338e+00 -9.5533833666545505e+00 
-9.4299931569914115e+00 -9.3081966386161010e+00 -9.1879732276271220e+00 -9.0693026059818784e+00 
-8.9521647180628641e+00 -8.8365397672882207e+00 -8.7224082127660658e+00 -8.6097507659920449e+00 
-8.4985483875895174e+00 -8.3887822840918602e+00 -8.2804339047663262e+00 -8.1734849384789321e+00 
-8.0679173105998121e+00 -7.9637131799486216e+00 -7.8608549357792503e+00 -7.7593251948036190e+00 
-7.6591067982538554e+00 -7.5601828089824128e+00 -7.4625365085996540e+00 -7.3661513946484058e+00 
-7.2710111778150086e+00 -7.1770997791763715e+00 -7.0844013274826061e+00 -6.9929001564747457e+00 
-6.9025808022371082e+00 -6.8134280005838601e+00 -6.7254266844793271e+00 -6.6385619814916375e+00 
-6.5528192112792398e+00 -6.4681838831098935e+00 -6.3846416934116830e+00 -6.3021785233557361e+00 
-6.2207804364700303e+00 -6.1404336762841476e+00 -6.0611246640043825e+00 -5.9828399962188987e+00 
-5.9055664426325132e+00 -5.8292909438307507e+00 -5.7540006090727731e+00 -5.6796827141128068e+00 
-5.6063246990497202e+00 -5.5339141662043669e+00 -5.4624388780243542e+00 -5.3918867550158609e+00 
-5.3222458737021761e+00 -5.2535044646086080e+00 -5.1856509102734067e+00 -5.1186737432843943e+00 
-5.0525616443409245e+00 -4.9873034403409449e+00 -4.9228881024926459e+00 -4.8593047444506192e+00 
-4.7965426204760195e+00 -4.7345911236205156e+00 -4.6734397839336879e+00 -4.6130782666935852e+00 
-4.5534963706601248e+00 -4.4946840263510701e+00 -4.4366312943402493e+00 -4.3793283635777849e+00 
-4.3227655497319892e+00 -4.2669332935526985e+00 -4.2118221592557328e+00 -4.1574228329282246e+00 
-4.1037261209545512e+00 -4.0507229484625835e+00 -3.9984043577900112e+00 -3.9467615069705024e+00 
-3.8957856682393461e+00 -3.8454682265584679e+00 -3.7958006781604650e+00 -3.7467746291114441e+00 
-3.6983817938924290e+00 -3.6506139939990883e+00 -3.6034631565595472e+00 -3.5569213129700565e+00 
-3.5109805975482740e+00 -3.4656332462039505e+00 -3.4208715951267781e+00 -3.3766880794911884e+00 
-3.3330752321778756e+00 -3.2900256825118430e+00 -3.2475321550167342e+00 -3.2055874681852639e+00 
-3.1641845332655194e+00 -3.1233163530629682e+00 -3.0829760207578794e+00 -3.0431567187380795e+00 
-3.0038517174467545e+00 -2.9650543742451352e+00 -2.9267581322898795e+00 -2.8889565194249487e+00 
-2.8516431470877959e+00 -2.8148117092296885e+00 -2.7784559812499645e+00 -2.7425698189440659e+00 
-2.7071471574651498e+00 -2.6721820102991178e+00 -2.6376684682528784e+00 -2.6036006984556797e+00 
-2.5699729433733416e+00 -2.5367795198352132e+00 -2.5040148180737218e+00 -2.4716733007762830e+00 
-2.4397495021494966e+00 -2.4082380269954133e+00 -2.3771335497997312e+00 -2.3464308138317742e+00 
-2.3161246302560863e+00 -2.2862098772555126e+00 -2.2566814991655959e+00 -2.2275345056201585e+00 
-2.1987639707079181e+00 -2.1703650321399985e+00 -2.1423328904281891e+00 -2.1146628080738217e+00 
-2.0873501087671209e+00 -2.0603901765968975e+00 -2.0337784552704461e+00 -2.0075104473435217e+00 
-1.9815817134602709e+00 -1.9559878716029508e+00 -1.9307245963513722e+00 -1.9057876181518885e+00 
-1.8811727225958310e+00 -1.8568757497072654e+00 -1.8328925932399442e+00 -1.8092191999833425e+00 
-1.7858515690776546e+00 -1.7627857513376404e+00 -1.7400178485852023e+00 -1.7175440129905863e+00 
-1.6953604464220866e+00 -1.6734633998041542e+00 -1.6518491724837936e+00 -1.6305141116051434e+00 
-1.6094546114921355e+00 -1.5886671130391252e+00 -1.5681481031094024e+00 -1.5478941139414493e+00 
-1.5279017225628901e+00 -1.5081675502119982e+00 -1.4886882617666763e+00 -1.4694605651808152e+00 
-1.4504812109279281e+00 -1.4317469914519734e+00 -1.4132547406252705e+00 -1.3950013332134161e+00 
-1.3769836843471130e+00 -1.3591987490008188e+00 -1.3416435214781302e+00 -1.3243150349038129e+00 
-1.3072103607223924e+00 -1.2903266082032210e+00 -1.2736609239519379e+00 -1.2572104914282369e+00 
-1.2409725304698720e+00 -1.2249442968227913e+00 -1.2091230816773595e+00 -1.1935062112105610e+00 
-1.1780910461341172e+00 -1.1628749812484409e+00 -1.1478554450023506e+00 -1.1330298990584726e+00 
-1.1183958378642562e+00 -1.1039507882285295e+00 -1.0896923089035226e+00 -1.0756179901722938e+00 
-1.0617254534414788e+00 -1.0480123508393049e+00 -1.0344763648187938e+00 -1.0211152077660905e+00 
-1.0079266216138527e+00 -9.9490837745962890e-01 -9.8205827518917577e-01 -9.6937414310462311e-01 
-9.5685383755745945e-01 -9.4449524258624773e-01 -9.3229626955902312e-01 -9.2025485682030916e-01 
-9.0836896934269373e-01 -8.9663659838290299e-01 -8.8505576114232087e-01 -8.7362450043189011e-01 
-8.6234088434134315e-01 -8.5120300591270481e-01 -8.4020898281801093e-01 -8.2935695704119206e-01 
-8.1864509456406298e-01 -8.0807158505636978e-01 -7.9763464156983954e-01 -7.8733250023618084e-01 
-7.7716341996899097e-01 -7.6712568216950017e-01 -7.5721759043612913e-01 -7.4743747027779295e-01 
-7.3778366883090729e-01 -7.2825455458005051e-01 -7.1884851708223385e-01 -7.0956396669473343e-01 
-7.0039933430643520e-01 -6.9135307107265287e-01 -6.8242364815336909e-01 -6.7360955645485743e-01 
-6.6490930637464252e-01 -6.5632142754975353e-01 -6.4784446860822886e-01 -6.3947699692383142e-01 
-6.3121759837393143e-01 -6.2306487710051428e-01 -6.1501745527428309e-01 -6.0707397286179410e-01 
-5.9923308739561365e-01 -5.9149347374743566e-01 -5.8385382390413287e-01 -5.7631284674669836e-01 
-5.6886926783204428e-01 -5.6152182917761784e-01 -5.5426928904879869e-01 -5.4711042174904323e-01 
-5.4004401741273922e-01 -5.3306888180073475e-01 -5.2618383609851027e-01 -5.1938771671695483e-01 
-5.1267937509571759e-01 -5.0605767750909791e-01 -4.9952150487444374e-01 -4.9306975256302182e-01 
-4.8670133021333767e-01 -4.8041516154685576e-01 -4.7421018418610988e-01 -4.6808534947515762e-01 
-4.6203962230235501e-01 -4.5607198092542051e-01 -4.5018141679875784e-01 -4.4436693440300951e-01 
-4.3862755107681156e-01 -4.3296229685072157e-01 -4.2737021428329153e-01 -4.2185035829925782e-01 
-4.1640179602982136e-01 -4.1102360665499049e-01 -4.0571488124796024e-01 -4.0047472262150152e-01 
-3.9530224517633450e-01 -3.9019657475145914e-01 -3.8515684847642306e-01 -3.8018221462549012e-01 
-3.7527183247369927e-01 -3.7042487215477971e-01 -3.6564051452090135e-01 -3.6091795100423685e-01 
-3.5625638348031174e-01 -3.5165502413311944e-01 -3.4711309532197854e-01 -3.4262982945010989e-01 
-3.3820446883491034e-01 
</PP_LOCAL>


<PP_NONLOCAL>
  <PP_BETA>
  1  1      Beta    L
  1189  
 -1.0189014370727141e-08  -1.0457402675206743e-08  -1.0732860582291776e-08  -1.1015574312025706e-08 
 -1.1305734989665016e-08  -1.1603538774886882e-08  -1.1909186994400825e-08  -1.2222886278053257e-08 
 -1.2544848698516985e-08  -1.2875291914660605e-08  -1.3214439318694141e-08  -1.3562520187190794e-08 
 -1.3919769836086501e-08  -1.4286429779762730e-08  -1.4662747894319260e-08  -1.5048978585148016e-08 
 -1.5445382958920752e-08  -1.5852229000107211e-08  -1.6269791752142859e-08  -1.6698353503368753e-08 
 -1.7138203977869342e-08  -1.7589640531336838e-08  -1.8052968352095370e-08  -1.8528500667419610e-08 
 -1.9016558955288647e-08  -1.9517473161717354e-08  -2.0031581923812420e-08  -2.0559232798704265e-08 
 -2.1100782498508626e-08  -2.1656597131477811e-08  -2.2227052449504081e-08  -2.2812534102141874e-08 
 -2.3413437897322041e-08  -2.4030170068933178e-08  -2.4663147551451104e-08  -2.5312798261802695e-08 
 -2.5979561388654150e-08  -2.6663887689319287e-08  -2.7366239794488819e-08  -2.8087092520986558e-08 
 -2.8826933192763823e-08  -2.9586261970348677e-08  -3.0365592188974411e-08  -3.1165450705613351e-08 
 -3.1986378255152556e-08  -3.2828929815951328e-08  -3.3693674985028001e-08  -3.4581198363129497e-08 
 -3.5492099949943592e-08  -3.6426995549722207e-08  -3.7386517187588520e-08  -3.8371313536810125e-08 
 -3.9382050357327676e-08  -4.0419410945833674e-08  -4.1484096597707542e-08  -4.2576827081118439e-08 
 -4.3698341123616311e-08  -4.4849396911539834e-08  -4.6030772602580142e-08  -4.7243266851844968e-08 
 -4.8487699351780681e-08  -4.9764911386315730e-08  -5.1075766399601503e-08  -5.2421150579733309e-08 
 -5.3801973457848349e-08  -5.5219168523003491e-08  -5.6673693853250480e-08  -5.8166532763333271e-08 
 -5.9698694469447152e-08  -6.1271214771507971e-08  -6.2885156753392668e-08  -6.4541611501625830e-08 
 -6.6241698842995758e-08  -6.7986568101601688e-08  -6.9777398875840225e-08  -7.1615401835861451e-08 
 -7.3501819542027153e-08  -7.5437927284930942e-08  -7.7425033947544518e-08  -7.9464482890072800e-08 
 -8.1557652858117925e-08  -8.3705958914765396e-08  -8.5910853397221557e-08  -8.8173826898650033e-08 
 -9.0496409275871557e-08  -9.2880170683606083e-08  -9.5326722635959644e-08  -9.7837719095869775e-08 
 -1.0041485759325059e-07  -1.0305988037258871e-07  -1.0577457557076808e-07  -1.0856077842592246e-07 
 -1.1142037251812702e-07  -1.1435529104277286e-07  -1.1736751811748366e-07  -1.2045909012345576e-07 
 -1.2363209708213378e-07  -1.2688868406814712e-07  -1.3023105265946404e-07  -1.3366146242574605e-07 
 -1.3718223245590660e-07  -1.4079574292590641e-07  -1.4450443670784662e-07  -1.4831082102144809e-07 
 -1.5221746912902996e-07  -1.5622702207513927e-07  -1.6034219047199889e-07  -1.6456575633199364e-07 
 -1.6890057494841705e-07  -1.7334957682576765e-07  -1.7791576966088367e-07  -1.8260224037626896e-07 
 -1.8741215720697525e-07  -1.9234877184245483e-07  -1.9741542162483655e-07  -2.0261553180509990e-07 
 -2.0795261785868452e-07  -2.1343028786209270e-07  -2.1905224493209563e-07  -2.2482228972918850e-07 
 -2.3074432302699258e-07  -2.3682234834933623e-07  -2.4306047467679921e-07  -2.4946291922455046e-07 
 -2.5603401029335820e-07  -2.6277819019570005e-07  -2.6970001825894268e-07  -2.7680417390763973e-07 
 -2.8409545982701190e-07  -2.9157880520976017e-07  -2.9925926908840535e-07  -3.0714204375539995e-07 
 -3.1523245827333390e-07  -3.2353598207760519e-07  -3.3205822867398009e-07  -3.4080495943356125e-07 
 -3.4978208748771479e-07  -3.5899568172559031e-07  -3.6845197089695193e-07  -3.7815734782306843e-07 
 -3.8811837371853518e-07  -3.9834178262692896e-07  -4.0883448597330810e-07  -4.1960357723663102e-07 
 -4.3065633674524681e-07  -4.4200023659871250e-07  -4.5364294571925101e-07  -4.6559233503627125e-07 
 -4.7785648280745662e-07  -4.9044368008001629e-07  -5.0336243629579378e-07  -5.1662148504401857e-07 
 -5.3022978996559732e-07  -5.4419655081292038e-07  -5.5853120966930855e-07  -5.7324345733227235e-07 
 -5.8834323986491761e-07  -6.0384076531993431e-07  -6.1974651064068886e-07  -6.3607122874411078e-07 
 -6.5282595579014478e-07  -6.7002201864269575e-07  -6.8767104252710245e-07  -7.0578495888931709e-07 
 -7.2437601346210954e-07  -7.4345677454374302e-07  -7.6304014149472777e-07  -7.8313935345838309e-07 
 -8.0376799831111530e-07  -8.2494002184845390e-07  -8.4666973721307717e-07  -8.6897183457115904e-07 
 -8.9186139104362401e-07  -9.1535388089900111e-07  -9.3946518601477457e-07  -9.6421160661429474e-07 
 -9.8960987228652164e-07  -1.0156771532960432e-06  -1.0424310721910176e-06  -1.0698897157168829e-06 
 -1.0980716470439007e-06  -1.1269959183167772e-06  -1.1566820835348869e-06  -1.1871502117717442e-06 
 -1.2184209007427317e-06  -1.2505152907302198e-06  -1.2834550788754701e-06  -1.3172625338470450e-06 
 -1.3519605108955828e-06  -1.3875724673051606e-06  -1.4241224782516527e-06  -1.4616352530788547e-06 
 -1.5001361520033116e-06  -1.5396512032592185e-06  -1.5802071206949195e-06  -1.6218313218329501e-06 
 -1.6645519464058000e-06  -1.7083978753799627e-06  -1.7533987504810890e-06  -1.7995849942335014e-06 
 -1.8469878305275514e-06  -1.8956393057287902e-06  -1.9455723103432052e-06  -1.9968206012531135e-06 
 -2.0494188245388653e-06  -2.1034025389016532e-06  -2.1588082397033782e-06  -2.2156733836397449e-06 
 -2.2740364140633072e-06  -2.3339367869736089e-06  -2.3954149976919099e-06  -2.4585126082386412e-06 
 -2.5232722754319999e-06  -2.5897377797267647e-06  -2.6579540548127685e-06  -2.7279672179930923e-06 
 -2.7998246013624793e-06  -2.8735747838070623e-06  -2.9492676238470972e-06  -3.0269542933447637e-06 
 -3.1066873121000604e-06  -3.1885205833578891e-06  -3.2725094302506660e-06  -3.3587106332008184e-06 
 -3.4471824683085984e-06  -3.5379847467512121e-06  -3.6311788552198026e-06  -3.7268277974216428e-06 
 -3.8249962366757317e-06  -3.9257505396304509e-06  -4.0291588211328977e-06  -4.1352909902803312e-06 
 -4.2442187976847307e-06  -4.3560158839825070e-06  -4.4707578296222895e-06  -4.5885222059642286e-06 
 -4.7093886277256308e-06  -4.8334388068082894e-06  -4.9607566075438865e-06  -5.0914281033950215e-06 
 -5.2255416351500948e-06  -5.3631878706514776e-06  -5.5044598660974328e-06  -5.6494531289592929e-06 
 -5.7982656825565225e-06  -5.9509981323332658e-06  -6.1077537338815495e-06  -6.2686384627569124e-06 
 -6.4337610861340741e-06  -6.6032332363509914e-06  -6.7771694863912265e-06  -6.9556874273559203e-06 
 -7.1389077479777096e-06  -7.3269543162306134e-06  -7.5199542630912625e-06  -7.7180380685081046e-06 
 -7.9213396496370992e-06  -8.1299964514034486e-06  -8.3441495394508990e-06  -8.5639436955413117e-06 
 -8.7895275154692726e-06  -9.0210535095576710e-06  -9.2586782058020720e-06  -9.5025622557334215e-06 
 -9.7528705430702061e-06  -1.0009772295232812e-05  -1.0273441197795008e-05  -1.0544055511948726e-05 
 -1.0821798195060486e-05  -1.1106857024399744e-05  -1.1399424724121354e-05  -1.1699699095586170e-05 
 -1.2007883151106743e-05  -1.2324185251206811e-05  -1.2648819245485934e-05  -1.2982004617184031e-05 
 -1.3323966631542583e-05  -1.3674936488062658e-05  -1.4035151476764039e-05  -1.4404855138551060e-05 
 -1.4784297429796713e-05  -1.5173734891257550e-05  -1.5573430821436558e-05  -1.5983655454514435e-05 
 -1.6404686142972183e-05  -1.6836807545031451e-05  -1.7280311817042487e-05  -1.7735498810951828e-05 
 -1.8202676276986051e-05  -1.8682160071690015e-05  -1.9174274371472665e-05  -1.9679351891947648e-05 
 -2.0197734113514739e-05  -2.0729771512429522e-05  -2.1275823797821126e-05  -2.1836260154946267e-05 
 -2.2411459494854942e-05  -2.3001810710634782e-05  -2.3607712940409860e-05  -2.4229575837269528e-05 
 -2.4867819846312266e-05  -2.5522876488990566e-05  -2.6195188654950747e-05  -2.6885210901563673e-05 
 -2.7593409761351069e-05  -2.8320264057514481e-05  -2.9066265227780520e-05  -2.9831917656782613e-05 
 -3.0617739017203615e-05  -3.1424260619910441e-05  -3.2252027773318505e-05  -3.3101600152228451e-05 
 -3.3973552176386051e-05  -3.4868473399020870e-05  -3.5786968905627800e-05  -3.6729659723260600e-05 
 -3.7697183240615825e-05  -3.8690193639191254e-05  -3.9709362335811110e-05  -4.0755378436817858e-05 
 -4.1828949204238444e-05  -4.2930800534241663e-05  -4.4061677448209607e-05  -4.5222344596756859e-05 
 -4.6413586777039458e-05  -4.7636209463703966e-05  -4.8891039353835989e-05  -5.0178924926279331e-05 
 -5.1500737015703009e-05  -5.2857369401807211e-05  -5.4249739414067025e-05  -5.5678788552423646e-05 
 -5.7145483124345809e-05  -5.8650814898691104e-05  -6.0195801776813130e-05  -6.1781488481369121e-05 
 -6.3408947263294429e-05  -6.5079278627425377e-05  -6.6793612077261443e-05  -6.8553106879373765e-05 
 -7.0358952847978030e-05  -7.2212371150203499e-05  -7.4114615132609064e-05  -7.6066971169500572e-05 
 -7.8070759533633378e-05  -8.0127335289886269e-05  -8.2238089212515557e-05  -8.4404448726613037e-05 
 -8.6627878874408413e-05  -8.8909883307067828e-05  -9.1252005302672147e-05  -9.3655828811056865e-05 
 -9.6122979526231596e-05  -9.8655125987103694e-05  -1.0125398070725884e-04  -1.0392130133456214e-04 
 -1.0665889184137470e-04  -1.0946860374618951e-04  -1.1235233736752397e-04  -1.1531204311091638e-04 
 -1.1834972278991004e-04  -1.2146743098191684e-04  -1.2466727641989039e-04  -1.2795142342075195e-04 
 -1.3132209335154770e-04  -1.3478156613432824e-04  -1.3833218179078714e-04  -1.4197634202770267e-04 
 -1.4571651186426755e-04  -1.4955522130241807e-04  -1.5349506704129956e-04  -1.5753871423703994e-04 
 -1.6168889830903249e-04  -1.6594842679395938e-04  -1.7032018124882702e-04  -1.7480711920430731e-04 
 -1.7941227616972324e-04  -1.8413876769104876e-04  -1.8898979146333015e-04  -1.9396862949897376e-04 
 -1.9907865035338201e-04  -2.0432331140946342e-04  -2.0970616122257800e-04  -2.1523084192752733e-04 
 -2.2090109170923319e-04  -2.2672074733880304e-04  -2.3269374677671833e-04  -2.3882413184492948e-04 
 -2.4511605096969329e-04  -2.5157376199703611e-04  -2.5820163508276855e-04  -2.6500415565904934e-04 
 -2.7198592747952019e-04  -2.7915167574512132e-04  -2.8650625031272835e-04  -2.9405462898881597e-04 
 -3.0180192091042336e-04  -3.0975337001574251e-04  -3.1791435860672486e-04  -3.2629041100615974e-04 
 -3.3488719731174818e-04  -3.4371053724975890e-04  -3.5276640413093463e-04  -3.6206092891136985e-04 
 -3.7160040436117782e-04  -3.8139128934382242e-04  -3.9144021320907784e-04  -4.0175398030265576e-04 
 -4.1233957459562988e-04  -4.2320416443685849e-04  -4.3435510743170696e-04  -4.4579995545045544e-04 
 -4.5754645976986901e-04  -4.6960257635150462e-04  -4.8197647126042468e-04  -4.9467652622809722e-04 
 -5.0771134436333385e-04  -5.2108975601528680e-04  -5.3482082479254533e-04  -5.4891385374257950e-04 
 -5.6337839169582054e-04  -5.7822423977882311e-04  -5.9346145810106933e-04  -6.0910037262010329e-04 
 -6.2515158218979258e-04  -6.4162596579668367e-04  -6.5853468998953004e-04  -6.7588921650720110e-04 
 -6.9370131011036395e-04  -7.1198304662244019e-04  -7.3074682118551856e-04  -7.5000535673703942e-04 
 -7.6977171271326887e-04  -7.9005929398568212e-04  -8.1088186003663040e-04  -8.3225353438076168e-04 
 -8.5418881423891336e-04  -8.7670258047134301e-04  -8.9981010777735412e-04  -9.2352707516862517e-04 
 -9.4786957672368015e-04  -9.7285413263119920e-04  -9.9849770053009042e-04  -1.0248176871544040e-03 
 -1.0518319602915212e-03  -1.0795588610621252e-03  -1.1080172165308568e-03  -1.1372263526567433e-03 
 -1.1672061075927102e-03  -1.1979768453438280e-03  -1.2295594697942041e-03  -1.2619754391126473e-03 
 -1.2952467805476325e-03  -1.3293961056222983e-03  -1.3644466257405920e-03  -1.4004221682159415e-03 
 -1.4373471927342260e-03  -1.4752468082630857e-03  -1.5141467904200229e-03  -1.5540735993120997e-03 
 -1.5950543978603487e-03  -1.6371170706225254e-03  -1.6802902431280889e-03  -1.7246033017398077e-03 
 -1.7700864140567584e-03  -1.8167705498739748e-03  -1.8646875027143858e-03  -1.9138699119491914e-03 
 -1.9643512855233411e-03  -2.0161660233031726e-03  -2.0693494410638997e-03  -2.1239377951350661e-03 
 -2.1799683077227431e-03  -2.2374791929276423e-03  -2.2965096834791270e-03  -2.3571000582054951e-03 
 -2.4192916702616197e-03  -2.4831269761357837e-03  -2.5486495654579340e-03  -2.6159041916326009e-03 
 -2.6849368033201671e-03  -2.7557945767910756e-03  -2.8285259491782253e-03  -2.9031806526536733e-03 
 -2.9798097495564685e-03  -3.0584656684994331e-03  -3.1392022414833739e-03  -3.2220747420483664e-03 
 -3.3071399244923453e-03  -3.3944560641886294e-03  -3.4840829990345486e-03  -3.5760821720646819e-03 
 -3.6705166752632858e-03  -3.7674512946113091e-03  -3.8669525564048791e-03  -3.9690887748831316e-03 
 -4.0739301012045377e-03  -4.1815485738121334e-03  -4.2920181702293956e-03  -4.4054148603298766e-03 
 -4.5218166611251127e-03  -4.6413036931167361e-03  -4.7639582382603737e-03  -4.8898647995903252e-03 
 -5.0191101625557321e-03  -5.1517834581206300e-03  -5.2879762276821637e-03  -5.4277824898625801e-03 
 -5.5712988092332678e-03  -5.7186243670303170e-03  -5.8698610339235650e-03  -6.0251134449030687e-03 
 -6.1844890763490005e-03  -6.3480983253535019e-03  -6.5160545913650189e-03  -6.6884743602284398e-03 
 -6.8654772906966560e-03  -7.0471863034917617e-03  -7.2337276729970970e-03  -7.4252311216637798e-03 
 -7.6218299172187299e-03  -7.8236609727637945e-03  -8.0308649498590928e-03  -8.2435863646868560e-03 
 -8.4619736973953873e-03  -8.6861795047262907e-03  -8.9163605360320849e-03  -9.1526778527945361e-03 
 -9.3952969517587803e-03  -9.6443878918015674e-03  -9.9001254246570969e-03  -1.0162689129627476e-02 
 -1.0432263552410267e-02  -1.0709038348179637e-02  -1.0993208429063088e-02  -1.1284974116160737e-02 
 -1.1584541296259351e-02  -1.1892121583399083e-02  -1.2207932485456449e-02  -1.2532197575913215e-02 
 -1.2865146670986967e-02  -1.3207016012305759e-02  -1.3558048455315551e-02  -1.3918493663616511e-02 
 -1.4288608309431400e-02  -1.4668656280416314e-02  -1.5058908893032246e-02  -1.5459645112704312e-02 
 -1.5871151781002246e-02  -1.6293723850087014e-02  -1.6727664624674485e-02  -1.7173286011778779e-02 
 -1.7630908778506073e-02  -1.8100862818180199e-02  -1.8583487425091538e-02  -1.9079131578171742e-02 
 -1.9588154233907022e-02  -2.0110924628815405e-02  -2.0647822591823961e-02  -2.1199238866895533e-02 
 -2.1765575446265575e-02  -2.2347245914664440e-02  -2.2944675804912551e-02  -2.3558302965290930e-02 
 -2.4188577939102895e-02  -2.4835964356857997e-02  -2.5500939341524993e-02  -2.6183993927315283e-02 
 -2.6885633492475126e-02  -2.7606378206580809e-02  -2.8346763492849453e-02  -2.9107340505992785e-02 
 -2.9888676626162416e-02  -3.0691355969551082e-02  -3.1515979916232624e-02  -3.2363167655845709e-02 
 -3.3233556751741160e-02  -3.4127803724236919e-02  -3.5046584653640779e-02  -3.5990595803724504e-02 
 -3.6960554266351892e-02  -3.7957198627983767e-02  -3.8981289658805048e-02  -4.0033611025238260e-02 
 -4.1114970026630858e-02  -4.2226198356921860e-02  -4.3368152892116492e-02  -4.4541716504416261e-02 
 -4.5747798903871588e-02  -4.6987337508444749e-02  -4.8261298343388472e-02  -4.9570676970864230e-02 
 -5.0916499450738312e-02  -5.2299823333515134e-02  -5.3721738686372485e-02  -5.5183369153286012e-02 
 -5.6685873050229992e-02  -5.8230444496458630e-02  -5.9818314582871450e-02  -6.1450752578469846e-02 
 -6.3129067175912920e-02  -6.4854607777173154e-02  -6.6628765820283598e-02  -6.8452976148154779e-02 
 -7.0328718420417324e-02  -7.2257518569223897e-02  -7.4240950299905184e-02  -7.6280636637340318e-02 
 -7.8378251518845962e-02  -8.0535521434335872e-02  -8.2754227114425663e-02  -8.5036205267083942e-02 
 -8.7383350363329865e-02  -8.9797616472371999e-02  -9.2281019146459115e-02  -9.4835637355570518e-02 
 -9.7463615471910361e-02  -1.0016716530399675e-01  -1.0294856817991958e-01  -1.0581017707912355e-01 
 -1.0875441881180434e-01  -1.1178379624472755e-01  -1.1490089057194981e-01  -1.1810836362857614e-01 
 -1.2140896024527899e-01  -1.2480551064087854e-01  -1.2830093284978561e-01  -1.3189823518058461e-01 
 -1.3560051870143408e-01  -1.3941097974731645e-01  -1.4333291244345187e-01  -1.4736971123839948e-01 
 -1.5152487343952109e-01  -1.5580200174252160e-01  -1.6020480674575407e-01  -1.6473710943885336e-01 
 -1.6940284365401861e-01  -1.7420605846692333e-01  -1.7915092053277223e-01  -1.8424171634141873e-01 
 -1.8948285437373458e-01  -1.9487886713953095e-01  -2.0043441307529752e-01  -2.0615427827780636e-01 
 -2.1204337804723850e-01  -2.1810675821090286e-01  -2.2434959619581418e-01  -2.3077720181539629e-01 
 -2.3739501773231655e-01  -2.4420861955597120e-01  -2.5122371552938610e-01  -2.5844614575626645e-01 
 -2.6588188091461729e-01  -2.7353702039873456e-01  -2.8141778982644100e-01  -2.8953053784316740e-01 
 -2.9788173214889330e-01  -3.0647795466800176e-01  -3.1532589577579012e-01  -3.2443234748870431e-01 
 -3.3380419551830814e-01  -3.4344841008157079e-01  -3.5337203535225481e-01  -3.6358217743002363e-01 
 -3.7408599069532050e-01  -3.8489066240927122e-01  -3.9600339540857293e-01  -4.0743138873593254e-01 
 -4.1918181603682841e-01  -4.3126180154345711e-01  -4.4367839345665422e-01  -4.5643853452643363e-01 
 -4.6954902962168016e-01  -4.8301651006958668e-01  -4.9684739453568461e-01  -5.1104784620607135e-01 
 -5.2562372602469498e-01  -5.4058054173072101e-01  -5.5592339243405053e-01  -5.7165690846156159e-01 
 -5.8778518620258069e-01  -6.0431171768010217e-01  -6.2123931457448278e-01  -6.3857002642942096e-01 
 -6.5630505277622919e-01  -6.7444464892243094e-01  -6.9298802516514124e-01  -7.1193323920895213e-01 
 -7.3127708159323079e-01  -7.5101495396522400e-01  -7.7114074007422406e-01  -7.9164666940915029e-01 
 -8.1252317345804093e-01  -8.3375873463438566e-01  -8.5533972799273239e-01  -8.7725025594592021e-01 
 -8.9947197629966880e-01  -9.2198392403806528e-01  -9.4476232742723931e-01  -9.6778041915501645e-01 
 -9.9100824339269966e-01  -1.0144124598526048e+00  -1.0379561461220099e+00  -1.0615985997818083e+00 
 -1.0852951420666941e+00  -1.1089969250934095e+00  -1.1326507449741372e+00  -1.1561988634432321e+00 
 -1.1795788409556212e+00  -1.2027233845631575e+00  -1.2255602142378976e+00  -1.2480119516862813e+00 
 -1.2699960360802613e+00  -1.2914246715164768e+00  -1.3122048113951024e+00  -1.3322381852790783e+00 
 -1.3514213741422691e+00  -1.3696459402318129e+00  -1.3867986180423104e+00  -1.4027615731146501e+00 
 -1.4174127355136985e+00  -1.4306262148904316e+00  -1.4422728039755630e+00  -1.4522205771640051e+00 
 -1.4603355905103614e+00  -1.4664826889426941e+00  -1.4705264257926545e+00  -1.4723320988105926e+00 
 -1.4717669056635432e+00  -1.4687012204793521e+00  -1.4630099912852865e+00  -1.4545742561770876e+00 
 -1.4432827737360769e+00  -1.4290337605824317e+00  -1.4117367260158045e+00  -1.3913143904635656e+00 
 -1.3677046709541789e+00  -1.3408627130967403e+00  -1.3107629451259712e+00  -1.2774011255324258e+00 
 -1.2407963517213620e+00  -1.2009929931323040e+00  -1.1580625084204614e+00  -1.1121051027871647e+00 
 -1.0632511784985237e+00  -1.0116625292135857e+00  -9.5753322712849120e-01  -9.0109015131026782e-01 
 -8.4259310611782512e-01  -7.8233448045972742e-01  -7.2063840196609263e-01  -6.5785934508291477e-01 
 -5.9438015871917727e-01  -5.3060948743595038e-01  -4.6697857025364004e-01  -4.0393741290349505e-01 
 -3.4195034263331803e-01  -2.8149096930466777e-01  -2.2303659223737751e-01  -1.6706210875956068e-01 
 -1.1403349735099789e-01  -6.4400965225071438e-02  -1.8591866743272831e-02  2.2996485266018517e-02 
 6.0003978906422346e-02  9.2114684534200394e-02  1.1906349923459873e-01  1.4064228874221685e-01 
 1.5670535778875672e-01  1.6717408081963259e-01  1.7204053086419296e-01  1.7136995564535051e-01 
 1.6530196723470511e-01  1.5405033497243778e-01  1.3790130096422001e-01  1.1721037286290553e-01 
 9.2397589036667144e-02  6.3941295387757849e-02  3.2370519413320621e-02  -1.7439262815828664e-03 
 -3.7799433903512529e-02  -7.5172465517935549e-02  -1.1323003932483172e-01  -1.5134155492767370e-01 
 -1.8889065567319360e-01  -2.2528681616191154e-01  -2.5997634347396997e-01  -2.9245249186434630e-01 
 -3.2226441262907796e-01  -3.4902469314695039e-01  -3.7241528102732541e-01  -3.9219163975161886e-01 
 -4.0818503967864339e-01  -4.2030295075815233e-01  -4.2852756811854847e-01  -4.3291256558609476e-01 
 -4.3357823148183144e-01  -4.3070519212538361e-01  -4.2452696846157045e-01  -4.1532163848445341e-01 
 -4.0340289276350538e-01  -3.8911077385808190e-01  -3.7280237080759854e-01  -3.5484275713652785e-01 
 -3.3559639203001673e-01  -3.1541920698824549e-01  -2.9465155559849532e-01  -2.7361216566500357e-01 
 -2.5259319168122574e-01  -2.3185642255308084e-01  -2.1163065666443784e-01  -1.9211021565650355e-01 
 -1.7345453140612627e-01  -1.5578870910926343e-01  -1.3920494422975985e-01  -1.2376465305392589e-01 
 -1.0950116596053111e-01  -9.6422829110604763e-02  -8.4516363555032545e-02  -7.3750339919033639e-02 
 -6.4078640794243857e-02  -5.5443800560530068e-02  -4.7780132316136405e-02  -4.1016572688288767e-02 
 -3.5079196380876858e-02  -2.9893372394772473e-02  -2.5385552107157212e-02  -2.1484695210760525e-02 
 -1.8123352494083408e-02  -1.5238434400661215e-02  -1.2771701243424168e-02  -1.0670015033112611e-02 
 -8.8853944024851316e-03  -7.3749134542841106e-03  -6.1004829721286709e-03  -5.0285487493639267e-03 
 -4.1297373113901208e-03  -3.3784743233763307e-03  -2.7525959872885426e-03  -2.2329689001836270e-03 
 -1.8031294475360055e-03  -1.4489499641480790e-03  -1.1583356912824208e-03  -9.2095401389083020e-04 
 -7.2799555315275239e-04  -5.7196535920186326e-04  -4.4650161868475179e-04  -3.4621887006167041e-04 
 -2.6657261360048170e-04  -2.0374232299162623e-04  -1.5453013218290595e-04  -1.1627281741095992e-04 
 -8.6765067151537776e-05  -6.4192393765911165e-05  -4.7072364009082607e-05  -3.4203097509792881e-05 
 -2.4618197791940616e-05  -1.7547441400173594e-05  -1.2382663807393931e-05  -8.6483549823904513e-06 
 -5.9765230633068265e-06  -4.0854106112601183e-06  -2.7616634493795686e-06  -1.8455631284593056e-06 
 -1.2189457332308964e-06  -7.9544492237379061e-07  -5.1271686837677844e-07  -3.2632969976351460e-07 
 -2.0502881307015620e-07  -1.2712124427163603e-07  -7.7755221313420711e-08  -4.6903997853657331e-08 
 -2.7894393411768664e-08  -1.6349545890439863e-08  -9.4412166568022953e-09  -5.3694790409531410e-09 
 -3.0065142959375174e-09  -1.6567714343645997e-09  -8.9818842176530400e-10  -4.7886311927803436e-10 
 -2.5097103060145000e-10  -1.2924950892344791e-10  -6.5380579236365712e-11  -3.2470894580245239e-11 
 -1.5826405330435230e-11  -7.5668904528493344e-12  -3.5470364979881592e-12  -1.6298242622107688e-12 
 -7.3339316172516701e-13  -3.2313640223771775e-13  -1.3942868830878636e-13  -5.8746143940321728e-14 
 -2.4143278075619539e-14  -9.6566166604759862e-15  -3.9051912179765667e-15  -1.4417472994044265e-15 
 -5.0328815589366914e-16  -1.8248146222142996e-16  -8.2597240146443539e-17  0.0000000000000000e+00 
 0.0000000000000000e+00  0.0000000000000000e+00  0.0000000000000000e+00  0.0000000000000000e+00 
 0.0000000000000000e+00  0.0000000000000000e+00  0.0000000000000000e+00  0.0000000000000000e+00 
 0.0000000000000000e+00  0.0000000000000000e+00  0.0000000000000000e+00  0.0000000000000000e+00 
 0.0000000000000000e+00  0.0000000000000000e+00  0.0000000000000000e+00  0.0000000000000000e+00 
 0.0000000000000000e+00  0.0000000000000000e+00  0.0000000000000000e+00  0.0000000000000000e+00 
 0.0000000000000000e+00  0.0000000000000000e+00  0.0000000000000000e+00  0.0000000000000000e+00 
 0.0000000000000000e+00  0.0000000000000000e+00  0.0000000000000000e+00  0.0000000000000000e+00 
 0.0000000000000000e+00  0.0000000000000000e+00  0.0000000000000000e+00  0.0000000000000000e+00 
 0.0000000000000000e+00  0.0000000000000000e+00  0.0000000000000000e+00  0.0000000000000000e+00 
 0.0000000000000000e+00  0.0000000000000000e+00  0.0000000000000000e+00  0.0000000000000000e+00 
 0.0000000000000000e+00  0.0000000000000000e+00  0.0000000000000000e+00  0.0000000000000000e+00 
 0.0000000000000000e+00  0.0000000000000000e+00  0.0000000000000000e+00  0.0000000000000000e+00 
 0.0000000000000000e+00  0.0000000000000000e+00  0.0000000000000000e+00  0.0000000000000000e+00 
 0.0000000000000000e+00  0.0000000000000000e+00  0.0000000000000000e+00  0.0000000000000000e+00 
 0.0000000000000000e+00  0.0000000000000000e+00  0.0000000000000000e+00  0.0000000000000000e+00 
 0.0000000000000000e+00  0.0000000000000000e+00  0.0000000000000000e+00  0.0000000000000000e+00 
 0.0000000000000000e+00  0.0000000000000000e+00  0.0000000000000000e+00  0.0000000000000000e+00 
 0.0000000000000000e+00  0.0000000000000000e+00  0.0000000000000000e+00  0.0000000000000000e+00 
 0.0000000000000000e+00  0.0000000000000000e+00  0.0000000000000000e+00  0.0000000000000000e+00 
 0.0000000000000000e+00  0.0000000000000000e+00  0.0000000000000000e+00  0.0000000000000000e+00 
 0.0000000000000000e+00  0.0000000000000000e+00  0.0000000000000000e+00  0.0000000000000000e+00 
 0.0000000000000000e+00  0.0000000000000000e+00  0.0000000000000000e+00  0.0000000000000000e+00 
 0.0000000000000000e+00  0.0000000000000000e+00  0.0000000000000000e+00  0.0000000000000000e+00 
 0.0000000000000000e+00  0.0000000000000000e+00  0.0000000000000000e+00  0.0000000000000000e+00 
 0.0000000000000000e+00  0.0000000000000000e+00  0.0000000000000000e+00  0.0000000000000000e+00 
 0.0000000000000000e+00  0.0000000000000000e+00  0.0000000000000000e+00  0.0000000000000000e+00 
 0.0000000000000000e+00  0.0000000000000000e+00  0.0000000000000000e+00  0.0000000000000000e+00 
 0.0000000000000000e+00  0.0000000000000000e+00  0.0000000000000000e+00  0.0000000000000000e+00 
 0.0000000000000000e+00  0.0000000000000000e+00  0.0000000000000000e+00  0.0000000000000000e+00 
 0.0000000000000000e+00  0.0000000000000000e+00  0.0000000000000000e+00  0.0000000000000000e+00 
 0.0000000000000000e+00  0.0000000000000000e+00  0.0000000000000000e+00  0.0000000000000000e+00 
 0.0000000000000000e+00  0.0000000000000000e+00  0.0000000000000000e+00  0.0000000000000000e+00 
 0.0000000000000000e+00  0.0000000000000000e+00  0.0000000000000000e+00  0.0000000000000000e+00 
 0.0000000000000000e+00  0.0000000000000000e+00  0.0000000000000000e+00  0.0000000000000000e+00 
 0.0000000000000000e+00  0.0000000000000000e+00  0.0000000000000000e+00  0.0000000000000000e+00 
 0.0000000000000000e+00  0.0000000000000000e+00  0.0000000000000000e+00  0.0000000000000000e+00 
 0.0000000000000000e+00  0.0000000000000000e+00  0.0000000000000000e+00  0.0000000000000000e+00 
 0.0000000000000000e+00  0.0000000000000000e+00  0.0000000000000000e+00  0.0000000000000000e+00 
 0.0000000000000000e+00  0.0000000000000000e+00  0.0000000000000000e+00  0.0000000000000000e+00 
 0.0000000000000000e+00  0.0000000000000000e+00  0.0000000000000000e+00  0.0000000000000000e+00 
 0.0000000000000000e+00  0.0000000000000000e+00  0.0000000000000000e+00  0.0000000000000000e+00 
 0.0000000000000000e+00  0.0000000000000000e+00  0.0000000000000000e+00  0.0000000000000000e+00 
 0.0000000000000000e+00  0.0000000000000000e+00  0.0000000000000000e+00  0.0000000000000000e+00 
 0.0000000000000000e+00  0.0000000000000000e+00  0.0000000000000000e+00  0.0000000000000000e+00 
 0.0000000000000000e+00  0.0000000000000000e+00  0.0000000000000000e+00  0.0000000000000000e+00 
 0.0000000000000000e+00  0.0000000000000000e+00  0.0000000000000000e+00  0.0000000000000000e+00 
 0.0000000000000000e+00  0.0000000000000000e+00  0.0000000000000000e+00  0.0000000000000000e+00 
 0.0000000000000000e+00  0.0000000000000000e+00  0.0000000000000000e+00  0.0000000000000000e+00 
 0.0000000000000000e+00  0.0000000000000000e+00  0.0000000000000000e+00  0.0000000000000000e+00 
 0.0000000000000000e+00  0.0000000000000000e+00  0.0000000000000000e+00  0.0000000000000000e+00 
 0.0000000000000000e+00  0.0000000000000000e+00  0.0000000000000000e+00  0.0000000000000000e+00 
 0.0000000000000000e+00  0.0000000000000000e+00  0.0000000000000000e+00  0.0000000000000000e+00 
 0.0000000000000000e+00  0.0000000000000000e+00  0.0000000000000000e+00  0.0000000000000000e+00 
 0.0000000000000000e+00  0.0000000000000000e+00  0.0000000000000000e+00  0.0000000000000000e+00 
 0.0000000000000000e+00  0.0000000000000000e+00  0.0000000000000000e+00  0.0000000000000000e+00 
 0.0000000000000000e+00  0.0000000000000000e+00  0.0000000000000000e+00  0.0000000000000000e+00 
 0.0000000000000000e+00  0.0000000000000000e+00  0.0000000000000000e+00  0.0000000000000000e+00 
 0.0000000000000000e+00  0.0000000000000000e+00  0.0000000000000000e+00  0.0000000000000000e+00 
 0.0000000000000000e+00  0.0000000000000000e+00  0.0000000000000000e+00  0.0000000000000000e+00 
 0.0000000000000000e+00  0.0000000000000000e+00  0.0000000000000000e+00  0.0000000000000000e+00 
 0.0000000000000000e+00  0.0000000000000000e+00  0.0000000000000000e+00  0.0000000000000000e+00 
 0.0000000000000000e+00  0.0000000000000000e+00  0.0000000000000000e+00  0.0000000000000000e+00 
 0.0000000000000000e+00  0.0000000000000000e+00  0.0000000000000000e+00  0.0000000000000000e+00 
 0.0000000000000000e+00  0.0000000000000000e+00  0.0000000000000000e+00  0.0000000000000000e+00 
 0.0000000000000000e+00  0.0000000000000000e+00  0.0000000000000000e+00  0.0000000000000000e+00 
 0.0000000000000000e+00  0.0000000000000000e+00  0.0000000000000000e+00  0.0000000000000000e+00 
 0.0000000000000000e+00  0.0000000000000000e+00  0.0000000000000000e+00  0.0000000000000000e+00 
 0.0000000000000000e+00  0.0000000000000000e+00  0.0000000000000000e+00  0.0000000000000000e+00 
 0.0000000000000000e+00  0.0000000000000000e+00  0.0000000000000000e+00  0.0000000000000000e+00 
 0.0000000000000000e+00  0.0000000000000000e+00  0.0000000000000000e+00  0.0000000000000000e+00 
 0.0000000000000000e+00  0.0000000000000000e+00  0.0000000000000000e+00  0.0000000000000000e+00 
 0.0000000000000000e+00  0.0000000000000000e+00  0.0000000000000000e+00  0.0000000000000000e+00 
 0.0000000000000000e+00 
  </PP_BETA>
  <PP_BETA>
  2  1      Beta    L
  1189  
 -5.7528739829039244e-09  -5.9044101407041446e-09  -6.0599379046644957e-09  -6.2195624174789930e-09 
 -6.3833915914001050e-09  -6.5515361811913827e-09  -6.7241098590021047e-09  -6.9012292912138467e-09 
 -7.0830142173114311e-09  -7.2695875308314516e-09  -7.4610753624429171e-09  -7.6576071652164633e-09 
 -7.8593158021394969e-09  -8.0663376359367204e-09  -8.2788126212564894e-09  -8.4968843992855321e-09 
 -8.7207003948558444e-09  -8.9504119161095175e-09  -9.1861742567888140e-09  -9.4281468012206958e-09 
 -9.6764931320666856e-09  -9.9313811409109655e-09  -1.0192983141761630e-08  -1.0461475987541330e-08 
 -1.0737041189646789e-08  -1.1019865040657359e-08  -1.1310138740275900e-08  -1.1608058524587194e-08 
 -1.1913825798720883e-08  -1.2227647273009110e-08  -1.2549735102730702e-08  -1.2880307031536045e-08 
 -1.3219586538650243e-08  -1.3567802989953678e-08  -1.3925191793041914e-08  -1.4291994556370454e-08 
 -1.4668459252591118e-08  -1.5054840386191163e-08  -1.5451399165547966e-08  -1.5858403679515951e-08 
 -1.6276129078664943e-08  -1.6704857761292239e-08  -1.7144879564334987e-08  -1.7596491959310895e-08 
 -1.8060000253420331e-08  -1.8535717795945724e-08  -1.9023966190087691e-08  -1.9525075510381140e-08 
 -2.0039384525838148e-08  -2.0567240928969014e-08  -2.1109001570835601e-08  -2.1665032702296222e-08 
 -2.2235710221605476e-08  -2.2821419928535749e-08  -2.3422557785192619e-08  -2.4039530183700513e-08 
 -2.4672754220939326e-08  -2.5322657980517890e-08  -2.5989680822175006e-08  -2.6674273678803339e-08 
 -2.7376899361297455e-08  -2.8098032871431769e-08  -2.8838161722980090e-08  -2.9597786271293251e-08 
 -3.0377420051559057e-08  -3.1177590125971353e-08  -3.1998837440044745e-08  -3.2841717188314188e-08 
 -3.3706799189668171e-08  -3.4594668272567877e-08  -3.5505924670413895e-08  -3.6441184427327223e-08 
 -3.7401079814618459e-08  -3.8386259758227952e-08  -3.9397390277424225e-08  -4.0435154935059451e-08 
 -4.1500255299683380e-08  -4.2593411419831210e-08  -4.3715362310804262e-08  -4.4866866454272549e-08 
 -4.6048702311037726e-08  -4.7261668847302717e-08  -4.8506586074803669e-08  -4.9784295605169494e-08 
 -5.1095661218884051e-08  -5.2441569449234947e-08  -5.3822930181644491e-08  -5.5240677268787031e-08 
 -5.6695769161910112e-08  -5.8189189558784363e-08  -5.9721948068720862e-08  -6.1295080895106878e-08 
 -6.2909651535919165e-08  -6.4566751502689869e-08  -6.6267501058410728e-08  -6.8013049974874062e-08 
 -6.9804578309963753e-08  -7.1643297205419830e-08  -7.3530449705617248e-08  -7.5467311597912736e-08 
 -7.7455192275126157e-08  -7.9495435620741704e-08  -8.1589420917424646e-08  -8.3738563779471226e-08 
 -8.5944317109818196e-08  -8.8208172082262867e-08  -9.0531659149553381e-08  -9.2916349078036912e-08 
 -9.5363854009556602e-08  -9.7875828551324938e-08  -1.0045397089450085e-07  -1.0310002396223536e-07 
 -1.0581577658795492e-07  -1.0860306472468320e-07  -1.1146377268621811e-07  -1.1439983442100154e-07 
 -1.1741323481954437e-07  -1.2050601105629092e-07  -1.2368025396682998e-07  -1.2693810946138056e-07 
 -1.3028177997551344e-07  -1.3371352595908416e-07  -1.3723566740438656e-07  -1.4085058541455878e-07 
 -1.4456072381330544e-07  -1.4836859079701763e-07  -1.5227676063041347e-07  -1.5628787538684474e-07 
 -1.6040464673444194e-07  -1.6462985776931193e-07  -1.6896636489702126e-07  -1.7341709976364000e-07 
 -1.7798507123765183e-07  -1.8267336744407102e-07  -1.8748515785213773e-07  -1.9242369541800635e-07 
 -1.9749231878387618e-07  -2.0269445453504579e-07  -2.0803361951642595e-07  -2.1351342321006548e-07 
 -2.1913757017531114e-07  -2.2490986255323628e-07  -2.3083420263704409e-07  -2.3691459551017759e-07 
 -2.4315515175391729e-07  -2.4956009022630261e-07  -2.5613374091425308e-07  -2.6288054786081635e-07 
 -2.6980507216952271e-07  -2.7691199508788019e-07  -2.8420612117208908e-07  -2.9169238153512169e-07 
 -2.9937583718035784e-07  -3.0726168242303200e-07  -3.1535524840180824e-07  -3.2366200668285080e-07 
 -3.3218757295882885e-07  -3.4093771084536375e-07  -3.4991833577747158e-07  -3.5913551900864611e-07 
 -3.6859549171528323e-07  -3.7830464920921721e-07  -3.8826955526122459e-07  -3.9849694653840947e-07 
 -4.0899373715847856e-07  -4.1976702336397822e-07  -4.3082408831965985e-07  -4.4217240703621107e-07 
 -4.5381965142368453e-07  -4.6577369547803959e-07  -4.7804262060430659e-07  -4.9063472107996581e-07 
 -5.0355850966224179e-07  -5.1682272334309686e-07  -5.3043632925582523e-07  -5.4440853073722556e-07 
 -5.5874877354946651e-07  -5.7346675226584170e-07  -5.8857241682472545e-07  -6.0407597925618625e-07 
 -6.1998792058576892e-07  -6.3631899792014273e-07  -6.5308025171939448e-07  -6.7028301326087531e-07 
 -6.8793891229966218e-07  -7.0605988493081209e-07  -7.2465818165869935e-07  -7.4374637567893466e-07 
 -7.6333737137841874e-07  -7.8344441305931481e-07  -8.0408109389281622e-07  -8.2526136510877385e-07 
 -8.4699954542737994e-07  -8.6931033073931320e-07  -8.9220880404085819e-07  -9.1571044563073425e-07 
 -9.3983114357553177e-07  -9.6458720445081381e-07  -9.8999536436515820e-07  -1.0160728002745921e-06 
 -1.0428371415950628e-06  -1.0703064821207957e-06  -1.0984993922566184e-06  -1.1274349315724699e-06 
 -1.1571326616886608e-06  -1.1876126595004998e-06  -1.2188955307513366e-06  -1.2510024239630868e-06 
 -1.2839550447337417e-06  -1.3177756704115008e-06  -1.3524871651554247e-06  -1.3881129953928305e-06 
 -1.4246772456838582e-06  -1.4622046350039310e-06  -1.5007205334551308e-06  -1.5402509794177914e-06 
 -1.5808226971538805e-06  -1.6224631148740890e-06  -1.6652003832808721e-06  -1.7090633945998934e-06 
 -1.7540818021128800e-06  -1.8002860402049097e-06  -1.8477073449398886e-06  -1.8963777751779603e-06 
 -1.9463302342492256e-06  -1.9975984921983956e-06  -2.0502172086154262e-06  -2.1042219560675493e-06 
 -2.1596492441485983e-06  -2.2165365441618179e-06  -2.2749223144529384e-06  -2.3348460264105462e-06 
 -2.3963481911514548e-06  -2.4594703869089678e-06  -2.5242552871427604e-06  -2.5907466893891810e-06 
 -2.6589895448716626e-06  -2.7290299888911828e-06  -2.8009153720173540e-06  -2.8746942921012622e-06 
 -2.9504166271317200e-06  -3.0281335689571503e-06  -3.1078976578959595e-06  -3.1897628182587825e-06 
 -3.2737843948067500e-06  -3.3600191901703256e-06  -3.4485255032542195e-06  -3.5393631686542247e-06 
 -3.6325935971128834e-06  -3.7282798170411992e-06  -3.8264865171346764e-06  -3.9272800901125453e-06 
 -4.0307286776097586e-06  -4.1369022162523156e-06  -4.2458724849470269e-06  -4.3577131534178545e-06 
 -4.4724998320216986e-06  -4.5903101228773864e-06  -4.7112236723424624e-06  -4.8353222248733124e-06 
 -4.9626896783050462e-06  -5.0934121405884014e-06  -5.2275779880220380e-06  -5.3652779250193102e-06 
 -5.5066050454497884e-06  -5.6516548955965628e-06  -5.8005255387715681e-06  -5.9533176216319498e-06 
 -6.1101344422417546e-06  -6.2710820199241300e-06  -6.4362691669505470e-06  -6.6058075621143618e-06 
 -6.7798118262378911e-06  -6.9583995996629397e-06  -7.1416916217765290e-06  -7.3298118126250423e-06 
 -7.5228873566716250e-06  -7.7210487887532848e-06  -7.9244300822964492e-06  -8.1331687398507816e-06 
 -8.3474058860039957e-06  -8.5672863627412991e-06  -8.7929588273156216e-06  -9.0245758526964381e-06 
 -9.2622940306667055e-06  -9.5062740776391819e-06  -9.7566809432653713e-06  -1.0013683921911855e-05 
 -1.0277456767080495e-05  -1.0548177808851277e-05  -1.0826030074433440e-05  -1.1111201411987592e-05 
 -1.1403884617970397e-05  -1.1704277567576601e-05  -1.2012583348538414e-05  -1.2329010398444574e-05 
 -1.2653772645678153e-05  -1.2987089654067430e-05  -1.3329186771348655e-05  -1.3680295281540356e-05 
 -1.4040652561332801e-05  -1.4410502240598273e-05  -1.4790094367130979e-05  -1.5179685575727534e-05 
 -1.5579539261723256e-05  -1.5989925759101047e-05  -1.6411122523293671e-05  -1.6843414318803263e-05 
 -1.7287093411764664e-05  -1.7742459767583503e-05  -1.8209821253782117e-05  -1.8689493848191260e-05 
 -1.9181801852627975e-05  -1.9687078112204615e-05  -2.0205664240417475e-05  -2.0737910850167055e-05 
 -2.1284177790866635e-05  -2.1844834391799926e-05  -2.2420259711891836e-05  -2.3010842796062050e-05 
 -2.3616982938334725e-05  -2.4239089951882764e-05  -2.4877584446189028e-05  -2.5532898111512215e-05 
 -2.6205474010850689e-05  -2.6895766879600996e-05  -2.7604243433114953e-05  -2.8331382682362565e-05 
 -2.9077676257915683e-05  -2.9843628742470630e-05  -3.0629758012136432e-05  -3.1436595586718197e-05 
 -3.2264686989234368e-05  -3.3114592114910375e-05  -3.3986885609899457e-05  -3.4882157259986502e-05 
 -3.5801012389538727e-05  -3.6744072270973602e-05  -3.7711974545020595e-05  -3.8705373652063313e-05 
 -3.9724941274852171e-05  -4.0771366792889125e-05  -4.1845357748792656e-05  -4.2947640326957040e-05 
 -4.4078959844833559e-05  -4.5240081257163603e-05  -4.6431789673507726e-05  -4.7654890889420288e-05 
 -4.8910211931631449e-05  -5.0198601617602527e-05  -5.1520931129840354e-05  -5.2878094605353659e-05 
 -5.4271009740655876e-05  -5.5700618412722478e-05  -5.7167887316325487e-05  -5.8673808618176499e-05 
 -6.0219400628322645e-05  -6.1805708489251135e-05  -6.3433804883170531e-05  -6.5104790757947178e-05 
 -6.6819796072191984e-05  -6.8579980560001748e-05  -7.0386534515874216e-05  -7.2240679600331481e-05 
 -7.4143669666797450e-05  -7.6096791610290540e-05  -7.8101366238510645e-05  -8.0158749165909471e-05 
 -8.2270331731353158e-05  -8.4437541940001113e-05  -8.6661845430039807e-05  -8.8944746464930579e-05 
 -9.1287788951844957e-05  -9.3692557486979049e-05  -9.6160678428461305e-05  -9.8693820997579218e-05 
 -1.0129369840907708e-04  -1.0396206903129308e-04  -1.0670073757692389e-04  -1.0951155632523104e-04 
 -1.1239642637651566e-04  -1.1535729893972073e-04  -1.1839617665403448e-04  -1.2151511494539775e-04 
 -1.2471622341883568e-04  -1.2800166728756820e-04  -1.3137366883986745e-04  -1.3483450894466583e-04 
 -1.3838652859693955e-04  -1.4203213050392440e-04  -1.4577378071324029e-04  -1.4961401028404153e-04 
 -1.5355541700233006e-04  -1.5760066714160307e-04  -1.6175249727003733e-04  -1.6601371610544500e-04 
 -1.7038720641926908e-04  -1.7487592699091524e-04  -1.7948291461376207e-04  -1.8421128615421788e-04 
 -1.8906424066523171e-04  -1.9404506155570655e-04  -1.9915711881730039e-04  -2.0440387131013334e-04 
 -2.0978886910897533e-04  -2.1531575591151415e-04  -2.2098827151035823e-04  -2.2681025433046438e-04 
 -2.3278564403373940e-04  -2.3891848419259015e-04  -2.4521292503426633e-04  -2.5167322625787772e-04 
 -2.5830375992601609e-04  -2.6510901343297638e-04  -2.7209359255160972e-04  -2.7926222456090883e-04 
 -2.8661976145647519e-04  -2.9417118324607730e-04  -3.0192160133256911e-04  -3.0987626198650188e-04 
 -3.1804054991081866e-04  -3.2641999190009325e-04  -3.3502026059683312e-04  -3.4384717834744856e-04 
 -3.5290672116053678e-04  -3.6220502277023014e-04  -3.7174837880741120e-04  -3.8154325108167794e-04 
 -3.9159627197702675e-04  -4.0191424896429825e-04  -4.1250416923351095e-04  -4.2337320444929181e-04 
 -4.3452871563271254e-04  -4.4597825817290811e-04  -4.5772958697197686e-04  -4.6979066172671632e-04 
 -4.8216965235089662e-04  -4.9487494454181886e-04  -5.0791514549505909e-04  -5.2129908977137189e-04 
 -5.3503584531984982e-04  -5.4913471966153875e-04  -5.6360526623785165e-04  -5.7845729092818551e-04 
 -5.9370085874135023e-04  -6.0934630068544852e-04  -6.2540422082106551e-04  -6.4188550350269746e-04 
 -6.5880132081351473e-04  -6.7616314019867182e-04  -6.9398273230257459e-04  -7.1227217901557657e-04 
 -7.3104388173582087e-04  -7.5031056985204567e-04  -7.7008530945333427e-04  -7.9038151227199993e-04 
 -8.1121294486591713e-04  -8.3259373804682576e-04  -8.5453839656127759e-04  -8.7706180903114421e-04 
 -9.0017925816070622e-04  -9.2390643121765701e-04  -9.4825943079544046e-04  -9.7325478586464658e-04 
 -9.9890946312134496e-04  -1.0252408786405041e-03  -1.0522669098428250e-03  -1.0800059077836026e-03 
 -1.1084767097724478e-03  -1.1376986523329393e-03  -1.1676915845115674e-03  -1.1984758815455770e-03 
 -1.2300724588995891e-03  -1.2625027866811599e-03  -1.2957889044457615e-03  -1.3299534364019175e-03 
 -1.3650196070275412e-03  -1.4010112571089302e-03  -1.4379528602140351e-03  -1.4758695396121253e-03 
 -1.5147870856522063e-03  -1.5547319736129645e-03  -1.5957313820373522e-03  -1.6378132115653229e-03 
 -1.6810061042786067e-03  -1.7253394635718528e-03  -1.7708434745648081e-03  -1.8175491250707664e-03 
 -1.8654882271367597e-03  -1.9146934391716720e-03  -1.9651982886786969e-03  -2.0170371956091913e-03 
 -2.0702454963554395e-03  -2.1248594684003170e-03  -2.1809163556424428e-03  -2.2384543944159127e-03 
 -2.2975128402243005e-03  -2.3581319952091580e-03  -2.4203532363738975e-03  -2.4842190445845355e-03 
 -2.5497730343694283e-03  -2.6170599845407351e-03  -2.6861258696611531e-03  -2.7570178923800644e-03 
 -2.8297845166639127e-03  -2.9044755019465825e-03  -2.9811419382261605e-03  -3.0598362821351584e-03 
 -3.1406123940124855e-03  -3.2235255760058009e-03  -3.3086326112341320e-03  -3.3959918040414360e-03 
 -3.4856630213725855e-03  -3.5777077353044296e-03  -3.6721890667653760e-03  -3.7691718304781198e-03 
 -3.8687225811610449e-03  -3.9709096610250835e-03  -4.0758032486036917e-03  -4.1834754089550676e-03 
 -4.2940001452765929e-03  -4.4074534519729725e-03  -4.5239133692205882e-03  -4.6434600390721304e-03 
 -4.7661757631466172e-03  -4.8921450619514488e-03  -5.0214547358847167e-03  -5.1541939279669781e-03 
 -5.2904541883538351e-03  -5.4303295406815033e-03  -5.5739165502999123e-03  -5.7213143944487331e-03 
 -5.8726249344340526e-03  -6.0279527898647062e-03  -6.1874054150092648e-03  -6.3510931773365252e-03 
 -6.5191294383039299e-03  -6.6916306364606954e-03  -6.8687163729339055e-03  -7.0505094993682993e-03 
 -7.2371362083921394e-03  -7.4287261266840132e-03  -7.6254124107171415e-03  -7.8273318452604275e-03 
 -8.0346249447174577e-03  -8.2474360573868109e-03  -8.4659134727298122e-03  -8.6902095317338106e-03 
 -8.9204807404614870e-03  -9.1568878868796867e-03  -9.3995961610627479e-03  -9.6487752788688326e-03 
 -9.9045996091896259e-03  -1.0167248304876451e-02  -1.0436905437448532e-02  -1.0713760135691759e-02 
 -1.0998006728258200e-02  -1.1289844890380337e-02  -1.1589479794815352e-02  -1.1897122267138065e-02 
 -1.2212988945503022e-02  -1.2537302444999303e-02  -1.2870291526723114e-02  -1.3212191271696188e-02 
 -1.3563243259759944e-02  -1.3923695753576720e-02  -1.4293803887872703e-02  -1.4673829864057280e-02 
 -1.5064043150356072e-02  -1.5464720687595589e-02  -1.5876147100779225e-02  -1.6298614916593686e-02 
 -1.6732424786986787e-02  -1.7177885718956617e-02  -1.7635315310691475e-02  -1.8105039994199934e-02 
 -1.8587395284567876e-02  -1.9082726035978104e-02  -1.9591386704624313e-02  -2.0113741618649005e-02 
 -2.0650165255229256e-02  -2.1201042524929537e-02  -2.1766769063434836e-02  -2.2347751530768137e-02 
 -2.2944407918090073e-02  -2.3557167862165947e-02  -2.4186472967575055e-02  -2.4832777136723060e-02 
 -2.5496546907703470e-02  -2.6178261800035935e-02  -2.6878414668290291e-02  -2.7597512063583431e-02 
 -2.8336074602908594e-02  -2.9094637346233326e-02  -2.9873750181266208e-02  -3.0673978215761875e-02 
 -3.1495902177191358e-02  -3.2340118819566159e-02  -3.3207241337151715e-02  -3.4097899784757198e-02 
 -3.5012741504227812e-02  -3.5952431556702497e-02  -3.6917653160126546e-02  -3.7909108131433528e-02 
 -3.8927517332720041e-02  -3.9973621120645925e-02  -4.1048179798184557e-02  -4.2151974067735229e-02 
 -4.3285805484481868e-02  -4.4450496908746577e-02  -4.5646892955931599e-02  -4.6875860442481446e-02 
 -4.8138288826113138e-02  -4.9435090638364980e-02  -5.0767201907298547e-02  -5.2135582567951602e-02 
 -5.3541216857880033e-02  -5.4985113694850284e-02  -5.6468307033430747e-02  -5.7991856196901927e-02 
 -5.9556846180537332e-02  -6.1164387921914545e-02  -6.2815618533480000e-02  -6.4511701492129883e-02 
 -6.6253826780052094e-02  -6.8043210970528692e-02  -6.9881097251792604e-02  -7.1768755381382957e-02 
 -7.3707481562736973e-02  -7.5698598234990422e-02  -7.7743453766125722e-02  -7.9843422038711934e-02 
 -8.1999901916503984e-02  -8.4214316579119430e-02  -8.6488112710866344e-02  -8.8822759528573159e-02 
 -9.1219747631937700e-02  -9.3680587658475672e-02  -9.6206808723609039e-02  -9.8799956624756352e-02 
 -1.0146159178649621e-01  -1.0419328692193525e-01  -1.0699662438333019e-01  -1.0987319317276958e-01 
 -1.1282458558132019e-01  -1.1585239342245504e-01  -1.1895820382280407e-01  -1.2214359453030811e-01 
 -1.2541012869666560e-01  -1.2875934908756370e-01  -1.3219277167055091e-01  -1.3571187852652314e-01 
 -1.3931811002666014e-01  -1.4301285621224480e-01  -1.4679744731011196e-01  -1.5067314331149759e-01 
 -1.5464112253679083e-01  -1.5870246910310820e-01  -1.6285815920570823e-01  -1.6710904611806351e-01 
 -1.7145584380884762e-01  -1.7589910906724779e-01  -1.8043922202081702e-01  -1.8507636492258386e-01 
 -1.8981049907632117e-01  -1.9464133976079934e-01  -1.9956832900545929e-01  -2.0459060606136820e-01 
 -2.0970697540250535e-01  -2.1491587208347809e-01  -2.2021532427073401e-01  -2.2560291275526415e-01 
 -2.3107572724578537e-01  -2.3663031923258065e-01  -2.4226265120360546e-01  -2.4796804198637490e-01 
 -2.5374110798160215e-01  -2.5957570004786434e-01  -2.6546483579079122e-01  -2.7140062700586720e-01 
 -2.7737420202095919e-01  -2.8337562268370126e-01  -2.8939379574002139e-01  -2.9541637835401968e-01 
 -3.0142967752640237e-01  -3.0741854317933187e-01  -3.1336625469054713e-01  -3.1925440067935101e-01 
 -3.2506275187255995e-01  -3.3076912691033089e-01  -3.3634925099085333e-01  -3.4177660730023668e-01 
 -3.4702228123036216e-01  -3.5205479745435725e-01  -3.5683995000753732e-01  -3.6134062561271274e-01 
 -3.6551662059375706e-01  -3.6932445184170853e-01  -3.7271716243490838e-01  -3.7564412267015640e-01 
 -3.7805082743701440e-01  -3.7987869106380945e-01  -3.8106484098279375e-01  -3.8154191180481145e-01 
 -3.8123784166178093e-01  -3.8007567296945199e-01  -3.7797336008392030e-01  -3.7484358667381645e-01 
 -3.7059359600596148e-01  -3.6512503774519056e-01  -3.5833383529787194e-01  -3.5011007818176498e-01 
 -3.4033794437940912e-01  -3.2889565812494542e-01  -3.1565548907987201e-01  -3.0048379936610004e-01 
 -2.8324114543668005e-01  -2.6378244226700426e-01  -2.4195719783035433e-01  -2.1760982626877851e-01 
 -1.9058004856770161e-01  -1.6070338987304775e-01  -1.2781178283270903e-01  -9.1734286477682864e-02 
 -5.2297930157045591e-02  -9.3286918777896882e-03  3.7347379953652317e-02  8.7902892968586319e-02 
 1.4250767786456828e-01  2.0132718955961032e-01  2.6452073745050347e-01  3.3223954155355762e-01 
 4.0462461349224177e-01  4.8180446389560599e-01  5.6389264080669266e-01  6.5098510718547387e-01 
 7.4315746953262163e-01  8.4046207405230455e-01  9.4292499159459453e-01  1.0505429178344432e+00 
 1.1632800206994154e+00  1.2810647728754756e+00  1.4037868132000357e+00  1.5312938867693593e+00 
 1.6633889194949154e+00  1.7998272884670066e+00  1.9403143546284587e+00  2.0845033287120560e+00 
 2.2319935449259845e+00  2.3823292192457961e+00  2.5349987701588699e+00  2.6894347790848698e+00 
 2.8450146652649817e+00  3.0010621455029316e+00  3.1568495426236005e+00  3.3116009978035637e+00 
 3.4644966309857930e+00  3.6146776804258027e+00  3.7612526370808745e+00  3.9033043721353131e+00 
 4.0398982365697949e+00  4.1700910904749655e+00  4.2929411969469742e+00  4.4075188910844583e+00 
 4.5129179090831482e+00  4.6082672360173049e+00  4.6927433040414854e+00  4.7655823460323132e+00 
 4.8260926839203471e+00  4.8736667072041131e+00  4.9077922767604880e+00  4.9280632737384620e+00 
 4.9341890049501629e+00  4.9260021767258619e+00  4.9034651604684401e+00  4.8666742964213396e+00 
 4.8158620179508222e+00  4.7513966264549294e+00  4.6737796053541283e+00  4.5836404281557810e+00 
 4.4817288874194530e+00  4.3689050454476357e+00  4.2461269805773734e+00  4.1144365721405123e+00 
 3.9749436298561753e+00  3.8288087273028455e+00  3.6772251422244073e+00  3.5214003372152898e+00 
 3.3625374317549115e+00  3.2018171201126853e+00  3.0403804793154139e+00  2.8793130875101922e+00 
 2.7196308361226409e+00  2.5622677695430087e+00  2.4080662238499002e+00  2.2577694616804274e+00 
 2.1120169150598014e+00  1.9713420548295484e+00  1.8361728093902627e+00  1.7068343635810270e+00 
 1.5835540888680337e+00  1.4664682956201989e+00  1.3556304107751203e+00  1.2510202892891611e+00 
 1.1525541860183084e+00  1.0600950557136197e+00  9.7346283098370090e-01  8.9244436487795553e-01 
 8.1680276897436643e-01  7.4628592631070190e-01  6.8063401065519347e-01  6.1958589763886263e-01 
 5.6288440713228016e-01  5.1028036786165409e-01  4.6153554258958518e-01  4.1642449342129439e-01 
 3.7473550046894205e-01  3.3627067220684548e-01  3.0084540188126424e-01  2.6828733132699012e-01 
 2.3843498201082594e-01  2.1113620401249533e-01  1.8624657824702595e-01  1.6362788703658429e-01 
 1.4314674477733647e-01  1.2467345554710699e-01  1.0808113960139640e-01  9.3245147168269926e-02 
 8.0042756899767489e-02  6.8353138609840144e-02  5.8057546067235226e-02  4.9039695862382639e-02 
 4.1186282699825619e-02  3.4387579614638682e-02  2.8538073113908460e-02  2.3537087512791988e-02 
 1.9289359092955653e-02  1.5705528464205837e-02  1.2702527979342746e-02  1.0203849624607880e-02 
 8.1396869579922742e-03  6.4469519822047926e-03  5.0691740219688929e-03  3.9562925480016347e-03 
 3.0643593872430857e-03  2.3551679033844888e-03  1.7958276315453772e-03  1.3583026655619242e-03 
 1.0189310233020845e-03  7.5794047093016327e-04  5.5897408594460208e-04  4.0863638408672194e-04 
 2.9606830619108364e-04  2.1255690663655452e-04  1.5118332064434527e-04  1.0651059490592180e-04 
 7.4311293686301380e-05  5.1333461002504723e-05  3.5102525502610621e-05  2.3756055602409329e-05 
 1.5907873268009149e-05  1.0537872456796628e-05  6.9039152811569348e-06  4.4723495451569755e-06 
 2.8639615892807511e-06  1.8125101279358505e-06  1.1333480638870518e-06  7.0000425482530861e-07 
 4.2694748789059075e-07  2.5707714332658280e-07  1.5277184755076408e-07  8.9574916902594212e-08 
 5.1803811892380419e-08  2.9541650134974520e-08  1.6606090793629216e-08  9.1985198344858704e-09 
 5.0192718861816327e-09  2.6970320207443170e-09  1.4265947888293785e-09  7.4255139368144391e-10 
 3.8019035497064298e-10  1.9140734819025442e-10  9.4716370463374270e-11  4.6050179559776778e-11 
 2.1987761217961206e-11  1.0306480221017079e-11  4.7405151070405103e-12  2.1384671947896284e-12 
 9.4567883096354408e-13  4.0974388092461136e-13  1.7384838728490203e-13  7.2326167301262883e-14 
 2.9404078506373309e-14  1.1843623651686942e-14  4.5156664115195332e-15  1.6948475440916811e-15 
 6.9028763253172666e-16  1.5795722050910962e-16  0.0000000000000000e+00  0.0000000000000000e+00 
 0.0000000000000000e+00  0.0000000000000000e+00  0.0000000000000000e+00  0.0000000000000000e+00 
 0.0000000000000000e+00  0.0000000000000000e+00  0.0000000000000000e+00  0.0000000000000000e+00 
 0.0000000000000000e+00  0.0000000000000000e+00  0.0000000000000000e+00  0.0000000000000000e+00 
 0.0000000000000000e+00  0.0000000000000000e+00  0.0000000000000000e+00  0.0000000000000000e+00 
 0.0000000000000000e+00  0.0000000000000000e+00  0.0000000000000000e+00  0.0000000000000000e+00 
 0.0000000000000000e+00  0.0000000000000000e+00  0.0000000000000000e+00  0.0000000000000000e+00 
 0.0000000000000000e+00  0.0000000000000000e+00  0.0000000000000000e+00  0.0000000000000000e+00 
 0.0000000000000000e+00  0.0000000000000000e+00  0.0000000000000000e+00  0.0000000000000000e+00 
 0.0000000000000000e+00  0.0000000000000000e+00  0.0000000000000000e+00  0.0000000000000000e+00 
 0.0000000000000000e+00  0.0000000000000000e+00  0.0000000000000000e+00  0.0000000000000000e+00 
 0.0000000000000000e+00  0.0000000000000000e+00  0.0000000000000000e+00  0.0000000000000000e+00 
 0.0000000000000000e+00  0.0000000000000000e+00  0.0000000000000000e+00  0.0000000000000000e+00 
 0.0000000000000000e+00  0.0000000000000000e+00  0.0000000000000000e+00  0.0000000000000000e+00 
 0.0000000000000000e+00  0.0000000000000000e+00  0.0000000000000000e+00  0.0000000000000000e+00 
 0.0000000000000000e+00  0.0000000000000000e+00  0.0000000000000000e+00  0.0000000000000000e+00 
 0.0000000000000000e+00  0.0000000000000000e+00  0.0000000000000000e+00  0.0000000000000000e+00 
 0.0000000000000000e+00  0.0000000000000000e+00  0.0000000000000000e+00  0.0000000000000000e+00 
 0.0000000000000000e+00  0.0000000000000000e+00  0.0000000000000000e+00  0.0000000000000000e+00 
 0.0000000000000000e+00  0.0000000000000000e+00  0.0000000000000000e+00  0.0000000000000000e+00 
 0.0000000000000000e+00  0.0000000000000000e+00  0.0000000000000000e+00  0.0000000000000000e+00 
 0.0000000000000000e+00  0.0000000000000000e+00  0.0000000000000000e+00  0.0000000000000000e+00 
 0.0000000000000000e+00  0.0000000000000000e+00  0.0000000000000000e+00  0.0000000000000000e+00 
 0.0000000000000000e+00  0.0000000000000000e+00  0.0000000000000000e+00  0.0000000000000000e+00 
 0.0000000000000000e+00  0.0000000000000000e+00  0.0000000000000000e+00  0.0000000000000000e+00 
 0.0000000000000000e+00  0.0000000000000000e+00  0.0000000000000000e+00  0.0000000000000000e+00 
 0.0000000000000000e+00  0.0000000000000000e+00  0.0000000000000000e+00  0.0000000000000000e+00 
 0.0000000000000000e+00  0.0000000000000000e+00  0.0000000000000000e+00  0.0000000000000000e+00 
 0.0000000000000000e+00  0.0000000000000000e+00  0.0000000000000000e+00  0.0000000000000000e+00 
 0.0000000000000000e+00  0.0000000000000000e+00  0.0000000000000000e+00  0.0000000000000000e+00 
 0.0000000000000000e+00  0.0000000000000000e+00  0.0000000000000000e+00  0.0000000000000000e+00 
 0.0000000000000000e+00  0.0000000000000000e+00  0.0000000000000000e+00  0.0000000000000000e+00 
 0.0000000000000000e+00  0.0000000000000000e+00  0.0000000000000000e+00  0.0000000000000000e+00 
 0.0000000000000000e+00  0.0000000000000000e+00  0.0000000000000000e+00  0.0000000000000000e+00 
 0.0000000000000000e+00  0.0000000000000000e+00  0.0000000000000000e+00  0.0000000000000000e+00 
 0.0000000000000000e+00  0.0000000000000000e+00  0.0000000000000000e+00  0.0000000000000000e+00 
 0.0000000000000000e+00  0.0000000000000000e+00  0.0000000000000000e+00  0.0000000000000000e+00 
 0.0000000000000000e+00  0.0000000000000000e+00  0.0000000000000000e+00  0.0000000000000000e+00 
 0.0000000000000000e+00  0.0000000000000000e+00  0.0000000000000000e+00  0.0000000000000000e+00 
 0.0000000000000000e+00  0.0000000000000000e+00  0.0000000000000000e+00  0.0000000000000000e+00 
 0.0000000000000000e+00  0.0000000000000000e+00  0.0000000000000000e+00  0.0000000000000000e+00 
 0.0000000000000000e+00  0.0000000000000000e+00  0.0000000000000000e+00  0.0000000000000000e+00 
 0.0000000000000000e+00  0.0000000000000000e+00  0.0000000000000000e+00  0.0000000000000000e+00 
 0.0000000000000000e+00  0.0000000000000000e+00  0.0000000000000000e+00  0.0000000000000000e+00 
 0.0000000000000000e+00  0.0000000000000000e+00  0.0000000000000000e+00  0.0000000000000000e+00 
 0.0000000000000000e+00  0.0000000000000000e+00  0.0000000000000000e+00  0.0000000000000000e+00 
 0.0000000000000000e+00  0.0000000000000000e+00  0.0000000000000000e+00  0.0000000000000000e+00 
 0.0000000000000000e+00  0.0000000000000000e+00  0.0000000000000000e+00  0.0000000000000000e+00 
 0.0000000000000000e+00  0.0000000000000000e+00  0.0000000000000000e+00  0.0000000000000000e+00 
 0.0000000000000000e+00  0.0000000000000000e+00  0.0000000000000000e+00  0.0000000000000000e+00 
 0.0000000000000000e+00  0.0000000000000000e+00  0.0000000000000000e+00  0.0000000000000000e+00 
 0.0000000000000000e+00  0.0000000000000000e+00  0.0000000000000000e+00  0.0000000000000000e+00 
 0.0000000000000000e+00  0.0000000000000000e+00  0.0000000000000000e+00  0.0000000000000000e+00 
 0.0000000000000000e+00  0.0000000000000000e+00  0.0000000000000000e+00  0.0000000000000000e+00 
 0.0000000000000000e+00  0.0000000000000000e+00  0.0000000000000000e+00  0.0000000000000000e+00 
 0.0000000000000000e+00  0.0000000000000000e+00  0.0000000000000000e+00  0.0000000000000000e+00 
 0.0000000000000000e+00  0.0000000000000000e+00  0.0000000000000000e+00  0.0000000000000000e+00 
 0.0000000000000000e+00  0.0000000000000000e+00  0.0000000000000000e+00  0.0000000000000000e+00 
 0.0000000000000000e+00  0.0000000000000000e+00  0.0000000000000000e+00  0.0000000000000000e+00 
 0.0000000000000000e+00  0.0000000000000000e+00  0.0000000000000000e+00  0.0000000000000000e+00 
 0.0000000000000000e+00  0.0000000000000000e+00  0.0000000000000000e+00  0.0000000000000000e+00 
 0.0000000000000000e+00  0.0000000000000000e+00  0.0000000000000000e+00  0.0000000000000000e+00 
 0.0000000000000000e+00  0.0000000000000000e+00  0.0000000000000000e+00  0.0000000000000000e+00 
 0.0000000000000000e+00  0.0000000000000000e+00  0.0000000000000000e+00  0.0000000000000000e+00 
 0.0000000000000000e+00  0.0000000000000000e+00  0.0000000000000000e+00  0.0000000000000000e+00 
 0.0000000000000000e+00  0.0000000000000000e+00  0.0000000000000000e+00  0.0000000000000000e+00 
 0.0000000000000000e+00  0.0000000000000000e+00  0.0000000000000000e+00  0.0000000000000000e+00 
 0.0000000000000000e+00  0.0000000000000000e+00  0.0000000000000000e+00  0.0000000000000000e+00 
 0.0000000000000000e+00  0.0000000000000000e+00  0.0000000000000000e+00  0.0000000000000000e+00 
 0.0000000000000000e+00  0.0000000000000000e+00  0.0000000000000000e+00  0.0000000000000000e+00 
 0.0000000000000000e+00  0.0000000000000000e+00  0.0000000000000000e+00  0.0000000000000000e+00 
 0.0000000000000000e+00  0.0000000000000000e+00  0.0000000000000000e+00  0.0000000000000000e+00 
 0.0000000000000000e+00  0.0000000000000000e+00  0.0000000000000000e+00  0.0000000000000000e+00 
 0.0000000000000000e+00 
  </PP_BETA>
  <PP_BETA>
  3  2      Beta    L
  1189  
 -4.3302431569671154e-12  -4.5024590209315267e-12  -4.6815239930725380e-12  -4.8677104657320115e-12 
 -5.0613016644268094e-12  -5.2625920786893500e-12  -5.4718879100430115e-12  -5.6895075377935932e-12 
 -5.9157820033456148e-12  -6.1510555137801146e-12  -6.3956859654599179e-12  -6.6500454884589989e-12 
 -6.9145210126440204e-12  -7.1895148562692343e-12  -7.4754453379800646e-12  -7.7727474131563857e-12 
 -8.0818733355634624e-12  -8.4032933453170730e-12  -8.7374963842093332e-12  -9.0849908394833902e-12 
 -9.4463053171883673e-12  -9.8219894462909976e-12  -1.0212614714767232e-11  -1.0618775338945497e-11 
 -1.1041089167424298e-11  -1.1480198620938890e-11  -1.1936771669607052e-11  -1.2411502849040322e-11 
 -1.2905114316866424e-11  -1.3418356951270173e-11  -1.3952011493223881e-11  -1.4506889734144734e-11 
 -1.5083835750785916e-11  -1.5683727189240042e-11  -1.6307476600007800e-11  -1.6956032826163125e-11 
 -1.7630382446726262e-11  -1.8331551277440494e-11  -1.9060605931235452e-11  -1.9818655440750877e-11 
 -2.0606852945388796e-11  -2.1426397445460656e-11  -2.2278535626097808e-11  -2.3164563753699582e-11 
 -2.4085829647804125e-11  -2.5043734731381535e-11  -2.6039736162668031e-11  -2.7075349051784245e-11 
 -2.8152148765509438e-11  -2.9271773323717684e-11  -3.0435925891121648e-11  -3.1646377368113756e-11 
 -3.2904969084646933e-11  -3.4213615601251774e-11  -3.5574307621451732e-11  -3.6989115020006448e-11 
 -3.8460189991589740e-11  -3.9989770324691847e-11  -4.1580182805726567e-11  -4.3233846758521190e-11 
 -4.4953277724573848e-11  -4.6741091289676009e-11  -4.8600007062722039e-11  -5.0532852812757508e-11 
 -5.2542568770560316e-11  -5.4632212101297191e-11  -5.6804961555060339e-11  -5.9064122302357755e-11 
 -6.1413130961913738e-11  -6.3855560828426756e-11  -6.6395127308238279e-11  -6.9035693571180508e-11 
 -7.1781276427200487e-11  -7.4636052436701173e-11  -7.7604364263892298e-11  -8.0690727282818474e-11 
 -8.3899836446110871e-11  -8.7236573426913129e-11  -9.0706014044844850e-11  -9.4313435987299108e-11 
 -9.8064326837819278e-11  -1.0196439242376868e-10  -1.0601956549599081e-10  -1.1023601475366322e-10 
 -1.1462015422807493e-10  -1.1917865303960017e-10  -1.2391844554271229e-10  -1.2884674187446854e-10 
 -1.3397103892251441e-10  -1.3929913172928937e-10  -1.4483912534978355e-10  -1.5059944718088341e-10 
 -1.5658885978106040e-10  -1.6281647419990495e-10  -1.6929176383778244e-10  -1.7602457885669322e-10 
 -1.8302516116426001e-10  -1.9030415999363547e-10  -1.9787264810302900e-10  -2.0574213861949643e-10 
 -2.1392460255261562e-10  -2.2243248700468802e-10  -2.3127873410516909e-10  -2.4047680069812875e-10 
 -2.5004067881269207e-10  -2.5998491694759793e-10  -2.7032464220225371e-10  -2.8107558328795472e-10 
 -2.9225409445426598e-10  -3.0387718036697153e-10  -3.1596252197542685e-10  -3.2852850340867062e-10 
 -3.4159423994120578e-10  -3.5517960707099096e-10  -3.6930527075387898e-10  -3.8399271884049136e-10 
 -3.9926429376335023e-10  -4.1514322652399231e-10  -4.3165367203176891e-10  -4.4882074584807950e-10 
 -4.6667056239194465e-10  -4.8523027466502967e-10  -5.0452811555654893e-10  -5.2459344079088493e-10 
 -5.4545677358325396e-10  -5.6714985107134593e-10  -5.8970567259356936e-10  -6.1315854988734579e-10 
 -6.3754415928380942e-10  -6.6289959597831459e-10  -6.8926343045930262e-10  -7.1667576718136865e-10 
 -7.4517830557178229e-10  -7.7481440346326501e-10  -8.0562914304951127e-10  -8.3766939946379193e-10 
 -8.7098391208495637e-10  -9.0562335867930348e-10  -9.4164043249110665e-10  -9.7908992239906018e-10 
 -1.0180287962605802e-09  -1.0585162875707416e-09  -1.1006139855676772e-09  -1.1443859289215077e-09 
 -1.1898987031493121e-09  -1.2372215419043334e-09  -1.2864264322935008e-09  -1.3375882243834619e-09 
 -1.3907847450617242e-09  -1.4460969164260848e-09  -1.5036088788824696e-09  -1.5634081191384072e-09 
 -1.6255856032868644e-09  -1.6902359151828597e-09  -1.7574574003233904e-09  -1.8273523154494963e-09 
 -1.9000269840980690e-09  -1.9755919583399989e-09  -2.0541621869507280e-09  -2.1358571902689832e-09 
 -2.2208012420097265e-09  -2.3091235583078492e-09  -2.4009584942802254e-09  -2.4964457484050856e-09 
 -2.5957305750296390e-09  -2.6989640053291926e-09  -2.8063030770538976e-09  -2.9179110734125902e-09 
 -3.0339577714571303e-09  -3.1546197003450608e-09  -3.2800804098734646e-09  -3.4105307496924837e-09 
 -3.5461691596232655e-09  -3.6872019715219273e-09  -3.8338437231487698e-09  -3.9863174845201192e-09 
 -4.1448551972393246e-09  -4.3096980273230287e-09  -4.4810967320594236e-09  -4.6593120414565957e-09 
 -4.8446150548611554e-09  -5.0372876533504948e-09  -5.2376229285260158e-09  -5.4459256283595447e-09 
 -5.6625126207711910e-09  -5.8877133756438281e-09  -6.1218704660073662e-09  -6.3653400891552687e-09 
 -6.6184926084859904e-09  -6.8817131168935522e-09  -7.1554020225642994e-09  -7.4399756580709134e-09 
 -7.7358669136902010e-09  -8.0435258959080684e-09  -8.3634206121133489e-09  -8.6960376825220419e-09 
 -9.0418830804148793e-09  -9.4014829018142596e-09  -9.7753841657713836e-09  -1.0164155646480868e-08 
 -1.0568388738488719e-08  -1.0988698356309696e-08  -1.1425723869822602e-08  -1.1880130076866320e-08 
 -1.2352608214516059e-08  -1.2843877010578207e-08  -1.3354683776903183e-08  -1.3885805546179366e-08 
 -1.4438050253937476e-08  -1.5012257967563232e-08  -1.5609302164187931e-08  -1.6230091059400743e-08 
 -1.6875568988803918e-08  -1.7546717844512429e-08  -1.8244558568783157e-08  -1.8970152707045734e-08 
 -1.9724604022697319e-08  -2.0509060176117646e-08  -2.1324714470458479e-08  -2.2172807666862826e-08 
 -2.3054629871875548e-08  -2.3971522499915634e-08  -2.4924880313796320e-08  -2.5916153546396014e-08 
 -2.6946850106707935e-08  -2.8018537873624093e-08  -2.9132847080942655e-08  -3.0291472797226551e-08 
 -3.1496177504285836e-08  -3.2748793778205751e-08  -3.4051227076998717e-08  -3.5405458639120960e-08 
 -3.6813548497262487e-08  -3.8277638611994894e-08  -3.9799956130044305e-08  -4.1382816772144781e-08 
 -4.3028628355626712e-08  -4.4739894457097937e-08  -4.6519218220789704e-08  -4.8369306318360363e-08 
 -5.0292973066180624e-08  -5.2293144706363502e-08  -5.4372863858051839e-08  -5.6535294145734332e-08 
 -5.8783725011631411e-08  -6.1121576719471724e-08  -6.3552405557271816e-08  -6.6079909247033871e-08 
 -6.8707932569591567e-08  -7.1440473213161974e-08  -7.4281687854500621e-08  -7.7235898481913074e-08 
 -8.0307598969741278e-08  -8.3501461914329046e-08  -8.6822345741866583e-08  -9.0275302098927773e-08 
 -9.3865583536946028e-08  -9.7598651502318242e-08  -1.0148018464429389e-07  -1.0551608745328833e-07 
 -1.0971249924275965e-07  -1.1407580348831359e-07  -1.1861263753823933e-07  -1.2332990271024506e-07 
 -1.2823477478974494e-07  -1.3333471494566135e-07  -1.3863748108033194e-07  -1.4415113963077470e-07 
 -1.4988407783924221e-07  -1.5584501651170744e-07  -1.6204302328366413e-07  -1.6848752641338871e-07 
 -1.7518832912361569e-07  -1.8215562451340636e-07  -1.8940001106286499e-07  -1.9693250875425472e-07 
 -2.0476457583401144e-07  -2.1290812624113416e-07  -2.2137554772845178e-07  -2.3017972070433098e-07 
 -2.3933403782349665e-07  -2.4885242435678114e-07  -2.5874935937081595e-07  -2.6903989774991636e-07 
 -2.7973969309369454e-07  -2.9086502152527171e-07  -3.0243280644634592e-07  -3.1446064427681035e-07 
 -3.2696683121811132e-07  -3.3997039108109444e-07  -3.5349110422088523e-07  -3.6754953762548348e-07 
 -3.8216707620955761e-07  -3.9736595534447375e-07  -4.1316929467933050e-07  -4.2960113330675903e-07 
 -4.4668646632713993e-07  -4.6445128286683393e-07  -4.8292260560824537e-07  -5.0212853189183430e-07 
 -5.2209827645258086e-07  -5.4286221585589468e-07  -5.6445193470054302e-07  -5.8690027365885545e-07 
 -6.1024137942726413e-07  -6.3451075666313497e-07  -6.5974532198686738e-07  -6.8598346013138318e-07 
 -7.1326508232438607e-07  -7.4163168699216609e-07  -7.7112642287726095e-07  -8.0179415466594171e-07 
 -8.3368153122532377e-07  -8.6683705655385151e-07  -9.0131116355304443e-07  -9.3715629073267688e-07 
 -9.7442696196601208e-07  -1.0131798694163733e-06  -1.0534739597611180e-06  -1.0953705238441306e-06 
 -1.1389332898931295e-06  -1.1842285204435282e-06  -1.2313251131162016e-06  -1.2802947054023739e-06 
 -1.3312117836149444e-06  -1.3841537961718817e-06  -1.4392012713839200e-06  -1.4964379399256074e-06 
 -1.5559508621759061e-06  -1.6178305606219235e-06  -1.6821711575270542e-06  -1.7490705180727960e-06 
 -1.8186303991918543e-06  -1.8909566043187577e-06  -1.9661591442932317e-06  -2.0443524046608873e-06 
 -2.1256553196255513e-06  -2.2101915529176165e-06  -2.2980896858533326e-06  -2.3894834128708720e-06 
 -2.4845117448403591e-06  -2.5833192204568533e-06  -2.6860561260375895e-06  -2.7928787240574639e-06 
 -2.9039494907701435e-06  -3.0194373632758646e-06  -3.1395179964113847e-06  -3.2643740298524694e-06 
 -3.3941953658348201e-06  -3.5291794579153588e-06  -3.6695316112127727e-06  -3.8154652945833853e-06 
 -3.9672024652067623e-06  -4.1249739060741648e-06  -4.2890195768926040e-06  -4.4595889789376266e-06 
 -4.6369415344090819e-06  -4.8213469808661832e-06  -5.0130857813410819e-06  -5.2124495507538312e-06 
 -5.4197414992765764e-06  -5.6352768933203233e-06  -5.8593835348444740e-06  -6.0924022597171372e-06 
 -6.3346874558830763e-06  -6.5866076021261469e-06  -6.8485458282445608e-06  -7.1209004974894354e-06 
 -7.4040858121511545e-06  -7.6985324432130509e-06  -8.0046881850283659e-06  -8.3230186360145233e-06 
 -8.6540079063980811e-06  -8.9981593540847637e-06  -9.3559963497716903e-06  -9.7280630724631161e-06 
 -1.0114925336597197e-05  -1.0517171452039113e-05  -1.0935413118245724e-05  -1.1370286353958786e-05 
 -1.1822452463837354e-05  -1.2292599043496289e-05  -1.2781441024475620e-05  -1.3289721760726290e-05 
 -1.3818214158260416e-05  -1.4367721849679865e-05  -1.4939080415364475e-05  -1.5533158653172341e-05 
 -1.6150859898577754e-05  -1.6793123397248586e-05  -1.7460925732144735e-05  -1.8155282307301232e-05 
 -1.8877248890545559e-05  -1.9627923217488139e-05  -2.0408446659217061e-05  -2.1220005956224958e-05 
 -2.2063835021195776e-05  -2.2941216813383449e-05  -2.3853485287422555e-05  -2.4802027419523589e-05 
 -2.5788285314122356e-05  -2.6813758394174577e-05  -2.7880005678413283e-05  -2.8988648149017178e-05 
 -3.0141371213275903e-05  -3.1339927262978667e-05  -3.2586138335401242e-05  -3.3881898879918872e-05 
 -3.5229178634432588e-05  -3.6630025615961385e-05  -3.8086569229925580e-05  -3.9601023502825001e-05 
 -4.1175690443201728e-05  -4.2812963535970882e-05  -4.4515331375403080e-05  -4.6285381442251593e-05 
 -4.8125804030733910e-05  -5.0039396331303422e-05  -5.2029066675380284e-05  -5.4097838948455723e-05 
 -5.6248857178235815e-05  -5.8485390304754885e-05  -6.0810837139661251e-05  -6.3228731522163453e-05 
 -6.5742747679419010e-05  -6.8356705799456309e-05  -7.1074577825037591e-05  -7.3900493477203647e-05 
 -7.6838746517584754e-05  -7.9893801258920638e-05  -8.3070299333604401e-05  -8.6373066730450045e-05 
 -8.9807121110288996e-05  -9.3377679411412666e-05  -9.7090165756317682e-05  -1.0095021967165592e-04 
 -1.0496370463376336e-04  -1.0913671695262552e-04  -1.1347559500764506e-04  -1.1798692884910012e-04 
 -1.2267757017972884e-04  -1.2755464273144130e-04  -1.3262555305275134e-04  -1.3789800172312754e-04 
 -1.4337999501110561e-04  -1.4907985699365558e-04  -1.5500624215499220e-04  -1.6116814848372187e-04 
 -1.6757493108796493e-04  -1.7423631634885556e-04  -1.8116241663362732e-04  -1.8836374559031294e-04 
 -1.9585123404695527e-04  -2.0363624653911843e-04  -2.1173059849041606e-04  -2.2014657407174162e-04 
 -2.2889694476588496e-04  -2.3799498866526204e-04  -2.4745451053156340e-04  -2.5728986264725339e-04 
 -2.6751596649001065e-04  -2.7814833526241866e-04  -2.8920309731046359e-04  -3.0069702046570698e-04 
 -3.1264753734735112e-04  -3.2507277166182556e-04  -3.3799156553897551e-04  -3.5142350794545540e-04 
 -3.6538896421750068e-04  -3.7990910675688057e-04  -3.9500594693553582e-04  -4.1070236825615526e-04 
 -4.2702216081778009e-04  -4.4399005713740961e-04  -4.6163176938055427e-04  -4.7997402805572049e-04 
 -4.9904462222992094e-04  -5.1887244132451640e-04  -5.3948751855295107e-04  -5.6092107606432750e-04 
 -5.8320557185920609e-04  -6.0637474854656189e-04  -6.3046368401346723e-04  -6.5550884408181113e-04 
 -6.8154813722919082e-04  -7.0862097145406755e-04  -7.3676831336831671e-04  -7.6603274960348046e-04 
 -7.9645855062028732e-04  -8.2809173701443655e-04  -8.6098014841513013e-04  -8.9517351507652080e-04 
 -9.3072353226601658e-04  -9.6768393755729807e-04  -1.0061105911399857e-03  -1.0460615592620898e-03 
 -1.0875972009257591e-03  -1.1307802579613370e-03  -1.1756759486094409e-03  -1.2223520647456217e-03 
 -1.2708790728871565e-03  -1.3213302191267731e-03  -1.3737816381434425e-03  -1.4283124664459690e-03 
 -1.4850049600108588e-03  -1.5439446164819349e-03  -1.6052203021053233e-03  -1.6689243835798049e-03 
 -1.7351528650091915e-03  -1.8040055301501380e-03  -1.8755860901559338e-03  -1.9500023370240883e-03 
 -2.0273663029630679e-03  -2.1077944259013754e-03  -2.1914077213701965e-03  -2.2783319609991767e-03 
 -2.3686978578735004e-03  -2.4626412590093320e-03  -2.5603033452138092e-03  -2.6618308386053414e-03 
 -2.7673762180796097e-03  -2.8770979430168494e-03  -2.9911606855363487e-03  -3.1097355716148160e-03 
 -3.2330004313963412e-03  -3.3611400590330192e-03  -3.4943464824071270e-03  -3.6328192430977210e-03 
 -3.7767656869670614e-03  -3.9264012657550043e-03  -4.0819498500827582e-03  -4.2436440542808450e-03 
 -4.4117255734701733e-03  -4.5864455333393334e-03  -4.7680648530760011e-03  -4.9568546219254349e-03 
 -5.1530964898645216e-03  -5.3570830728957583e-03  -5.5691183734818449e-03  -5.7895182166582838e-03 
 -6.0186107023784425e-03  -6.2567366746631723e-03  -6.5042502081447814e-03  -6.7615191126136768e-03 
 -7.0289254561945935e-03  -7.3068661077983687e-03  -7.5957532995147960e-03  -7.8960152096318806e-03 
 -8.2080965669869416e-03  -8.5324592773757119e-03  -8.8695830727662725e-03  -9.2199661840859475e-03 
 -9.5841260383708084e-03  -9.9625999810889869e-03  -1.0355946024471149e-02  -1.0764743622703705e-02 
 -1.1189594474862443e-02  -1.1631123356487111e-02  -1.2089978980719843e-02  -1.2566834889953150e-02 
 -1.3062390378955598e-02  -1.3577371450466376e-02  -1.4112531804271789e-02  -1.4668653860799644e-02 
 -1.5246549820289163e-02  -1.5847062758615731e-02  -1.6471067760871358e-02  -1.7119473093822102e-02 
 -1.7793221418383992e-02  -1.8493291043278324e-02  -1.9220697221045604e-02  -1.9976493487614756e-02 
 -2.0761773046640813e-02  -2.1577670199838941e-02  -2.2425361824556039e-02  -2.3306068899833554e-02 
 -2.4221058082224051e-02  -2.5171643332632845e-02  -2.6159187595460695e-02  -2.7185104531326859e-02 
 -2.8250860304651636e-02  -2.9357975427374294e-02  -3.0508026660075890e-02  -3.1702648971765578e-02 
 -3.2943537559575006e-02  -3.4232449929585740e-02  -3.5571208039990657e-02  -3.6961700507760882e-02 
 -3.8405884879954007e-02  -3.9905789970757943e-02  -4.1463518265315434e-02  -4.3081248391318792e-02 
 -4.4761237659298320e-02  -4.6505824672457050e-02  -4.8317432006818997e-02  -5.0198568962367025e-02 
 -5.2151834385741239e-02  -5.4179919564953563e-02  -5.6285611196444034e-02  -5.8471794424662923e-02 
 -6.0741455954204854e-02  -6.3097687234347333e-02  -6.5543687715655774e-02  -6.8082768178108891e-02 
 -7.0718354129968519e-02  -7.3453989276370521e-02  -7.6293339056339601e-02  -7.9240194246636239e-02 
 -8.2298474630522034e-02  -8.5472232729181363e-02  -8.8765657593158145e-02  -9.2183078650758254e-02 
 -9.5728969609926051e-02  -9.9407952409623759e-02  -1.0322480121623005e-01  -1.0718444645991637e-01 
 -1.1129197890536228e-01  -1.1555265375052950e-01  -1.1997189474652127e-01  -1.2455529833081283e-01 
 -1.2930863776534349e-01  -1.3423786727010617e-01  -1.3934912614195910e-01  -1.4464874284740414e-01 
 -1.5014323907703317e-01  -1.5583933374822623e-01  -1.6174394694149258e-01  -1.6786420375457300e-01 
 -1.7420743805706743e-01  -1.8078119612690505e-01  -1.8759324014843651e-01  -1.9465155155029132e-01 
 -2.0196433415940568e-01  -2.0954001714577583e-01  -2.1738725773053125e-01  -2.2551494362784547e-01 
 -2.3393219518898967e-01  -2.4264836721450767e-01  -2.5167305039801258e-01  -2.6101607236249641e-01 
 -2.7068749824728144e-01  -2.8069763080082444e-01  -2.9105700993151623e-01  -3.0177641166537000e-01 
 -3.1286684645608726e-01  -3.2433955678939613e-01  -3.3620601401978489e-01  -3.4847791437379577e-01 
 -3.6116717404988868e-01  -3.7428592334053168e-01  -3.8784649969763157e-01  -4.0186143965765025e-01 
 -4.1634346953779783e-01  -4.3130549480951574e-01  -4.4676058805008473e-01  -4.6272197536760257e-01 
 -4.7920302118877267e-01  -4.9621721129295876e-01  -5.1377813396975003e-01  -5.3189945917090897e-01 
 -5.5059491552099915e-01  -5.6987826504427663e-01  -5.8976327545853446e-01  -6.1026368987960822e-01 
 -6.3139319377311920e-01  -6.5316537898287841e-01  -6.7559370465812629e-01  -6.9869145489459661e-01 
 -7.2247169289719437e-01  -7.4694721146503473e-01  -7.7213047959268333e-01  -7.9803358497477062e-01 
 -8.2466817219482735e-01  -8.5204537637325384e-01  -8.8017575204392984e-01  -9.0906919702421785e-01 
 -9.3873487103909503e-01  -9.6918110885712028e-01  -1.0004153276939343e+00  -1.0324439286383267e+00 
 -1.0652721918566852e+00  -1.0989041653341942e+00  -1.1333425469156291e+00  -1.1685885594154084e+00 
 -1.2046418185758863e+00  -1.2415001936651755e+00  -1.2791596605213775e+00  -1.3176141468693632e+00 
 -1.3568553697597550e+00  -1.3968726650078145e+00  -1.4376528085432294e+00  -1.4791798296208216e+00 
 -1.5214348158874877e+00  -1.5643957103530999e+00  -1.6080371003729772e+00  -1.6523299988180833e+00 
 -1.6972416176865841e+00  -1.7427351344979380e+00  -1.7887694519090749e+00  -1.8352989511021169e+00 
 -1.8822732396156021e+00  -1.9296368944270175e+00  -1.9773292012444892e+00  -2.0252838911306852e+00 
 -2.0734288757629464e+00  -2.1216859828313233e+00  -2.1699706932910043e+00  -2.2181918824182425e+00 
 -2.2662515668695540e+00  -2.3140446602129892e+00  -2.3614587396872859e+00  -2.4083738272498354e+00 
 -2.4546621882960684e+00  -2.5001881517710531e+00  -2.5448079557458261e+00  -2.5883696228952164e+00 
 -2.6307128706869167e+00  -2.6716690614701282e+00  -2.7110611980315840e+00  -2.7487039705617851e+00 
 -2.7844038613382849e+00  -2.8179593137784438e+00  -2.8491609728320859e+00  -2.8777920039651583e+00 
 -2.9036284982168561e+00  -2.9264399709820568e+00  -2.9459899622636962e+00  -2.9620367461399209e+00 
 -2.9743341570811475e+00  -2.9826325405140066e+00  -2.9866798346419592e+00  -2.9862227899768250e+00 
 -2.9810083322880825e+00  -2.9707850737182095e+00  -2.9553049756196357e+00  -2.9343251652234428e+00 
 -2.9076099065327763e+00  -2.8749327238305580e+00  -2.8360786738904800e+00  -2.7908467603768985e+00 
 -2.7390524810147268e+00  -2.6805304949147262e+00  -2.6151373939725353e+00  -2.5427545585529661e+00 
 -2.4632910737685441e+00  -2.3766866786215215e+00  -2.2829147161730696e+00  -2.1819850488195951e+00 
 -2.0739468987906728e+00  -1.9588915702488616e+00  -1.8369550059801887e+00  -1.7083201287379153e+00 
 -1.5732189149536027e+00  -1.4319341468657591e+00  -1.2848007882276815e+00  -1.1322069287150796e+00 
 -9.7459424301025144e-01  -8.1245791232483433e-01  -6.4634595885136403e-01  -4.7685794731653919e-01 
 -3.0464301246166259e-01  -1.3039717693632824e-01  4.5140069166624282e-02  2.2118994796613800e-01 
 3.9693934416098814e-01  5.7154652674643391e-01  7.4414763001283546e-01  9.1386386701043909e-01 
 1.0798094317040385e+00  1.2411000268243153e+00  1.3968619331216745e+00  1.5462415128050502e+00 
 1.6884150162212226e+00  1.8225985374882481e+00  1.9480579433385445e+00  2.0641185815133034e+00 
 2.1701745622928477e+00  2.2656974004790569e+00  2.3502438062327946e+00  2.4234624219283223e+00 
 2.4850993184082339e+00  2.5350020870830994e+00  2.5731223933259924e+00  2.5995168905252952e+00 
 2.6143464318827419e+00  2.6178735574643661e+00  2.6104582760351076e+00  2.5925522037862976e+00 
 2.5646911642521735e+00  2.5274863946909214e+00  2.4816145432695191e+00  2.4278066778057905e+00 
 2.3668365595518384e+00  2.2995084628895452e+00  2.2266448413466784e+00  2.1490741488639724e+00 
 2.0676191196463680e+00  1.9830857883511379e+00  1.8962534952872281e+00  1.8078660719845361e+00 
 1.7186243475236391e+00  1.6291800629461104e+00  1.5401311796733050e+00  1.4520186623319824e+00 
 1.3653245855404834e+00  1.2804715222105938e+00  1.1978231008989293e+00  1.1176856013982857e+00 
 1.0403104436213411e+00  9.6589741335880264e-01  8.9459846157518996e-01  8.2652191213033344e-01 
 7.6173691649687714e-01  7.0027800314962840e-01  6.4214958339797668e-01  5.8733029372465129e-01 
 5.3577707611585779e-01  4.8742892119214026e-01  4.4221022290021000e-01  4.0003371687755257e-01 
 3.6080299626085471e-01  3.2441461777290453e-01  2.9075982671658107e-01  2.5972594160177159e-01 
 2.3119744735225778e-01  2.0505685043651622e-01  1.8118535009631709e-01  1.5946337753585563e-01 
 1.3977105003147913e-01  1.2198858005992208e-01  1.0599667138401936e-01  9.1676925238112952e-02 
 7.8912270931469089e-02  6.7587426872326925e-02  5.7589390644019016e-02  4.8807950665133965e-02 
 4.1136207342290246e-02  3.4471088568716536e-02  2.8713842917799621e-02  2.3770493819984806e-02 
 1.9552239210188994e-02  1.5975783355357161e-02  1.2963590548823116e-02  1.0444053809787733e-02 
 8.3515753798458631e-03  6.6265594135977244e-03  5.2153206043273545e-03  4.0699153970765543e-03 
 3.1479047997830761e-03  2.4120595367771551e-03  1.8300193718134665e-03  1.3739188788338306e-03 
 1.0199918083960507e-03  7.4816556556411037e-04  5.4165627758236839e-04  3.8657359206937462e-04 
 2.7154281670092666e-04  1.8735039063295602e-04  1.2661705831278950e-04  8.3501572096886289e-05 
 5.3436346720011088e-05  3.2895261747915778e-05  1.9192789566864640e-05  1.0312823312963260e-05 
 4.7649894412311606e-06  1.4658396999691310e-06  -3.5789432095551324e-07  -1.2468608589365759e-06 
 -1.5702754037980446e-06  -1.5733932044196972e-06  -1.4137018269461085e-06  -1.1880063590723794e-06 
 -9.5229817261950646e-07  -7.3601524466776430e-07  -5.5203093956456479e-07  -4.0345830286878716e-07 
 -2.8813446030082010e-07  -2.0145724514059724e-07  -1.3808447978132680e-07  -9.2873987089908796e-08 
 -6.1336905207858432e-08  -3.9795121477922487e-08  -2.5371839330210582e-08  -1.5898989646302373e-08 
 -9.7931504737355916e-09  -5.9294797978002038e-09  -3.5288305532817124e-09  -2.0640502647255869e-09 
 -1.1863719514060694e-09  -6.6996263725526770e-10  -3.7163164186325566e-10  -2.0244141003941141e-10 
 -1.0826471250557036e-10  -5.6825523160072289e-11  -2.9263599573401925e-11  -1.4779414711724598e-11 
 -7.3189974783383741e-12  -3.5519833925947063e-12  -1.6882347455989541e-12  -7.8619060229942311e-13 
 -3.5791903289418368e-13  -1.5970259204096218e-13  -6.9661135830107824e-14  -2.9490025567202424e-14 
 -1.2629216379599851e-14  -5.1521041755140646e-15  -2.2368510789624517e-15  -7.0083359037216509e-16 
 -3.2910513495570687e-16  0.0000000000000000e+00  0.0000000000000000e+00  0.0000000000000000e+00 
 0.0000000000000000e+00  0.0000000000000000e+00  0.0000000000000000e+00  0.0000000000000000e+00 
 0.0000000000000000e+00  0.0000000000000000e+00  0.0000000000000000e+00  0.0000000000000000e+00 
 0.0000000000000000e+00  0.0000000000000000e+00  0.0000000000000000e+00  0.0000000000000000e+00 
 0.0000000000000000e+00  0.0000000000000000e+00  0.0000000000000000e+00  0.0000000000000000e+00 
 0.0000000000000000e+00  0.0000000000000000e+00  0.0000000000000000e+00  0.0000000000000000e+00 
 0.0000000000000000e+00  0.0000000000000000e+00  0.0000000000000000e+00  0.0000000000000000e+00 
 0.0000000000000000e+00  0.0000000000000000e+00  0.0000000000000000e+00  0.0000000000000000e+00 
 0.0000000000000000e+00  0.0000000000000000e+00  0.0000000000000000e+00  0.0000000000000000e+00 
 0.0000000000000000e+00  0.0000000000000000e+00  0.0000000000000000e+00  0.0000000000000000e+00 
 0.0000000000000000e+00  0.0000000000000000e+00  0.0000000000000000e+00  0.0000000000000000e+00 
 0.0000000000000000e+00  0.0000000000000000e+00  0.0000000000000000e+00  0.0000000000000000e+00 
 0.0000000000000000e+00  0.0000000000000000e+00  0.0000000000000000e+00  0.0000000000000000e+00 
 0.0000000000000000e+00  0.0000000000000000e+00  0.0000000000000000e+00  0.0000000000000000e+00 
 0.0000000000000000e+00  0.0000000000000000e+00  0.0000000000000000e+00  0.0000000000000000e+00 
 0.0000000000000000e+00  0.0000000000000000e+00  0.0000000000000000e+00  0.0000000000000000e+00 
 0.0000000000000000e+00  0.0000000000000000e+00  0.0000000000000000e+00  0.0000000000000000e+00 
 0.0000000000000000e+00  0.0000000000000000e+00  0.0000000000000000e+00  0.0000000000000000e+00 
 0.0000000000000000e+00  0.0000000000000000e+00  0.0000000000000000e+00  0.0000000000000000e+00 
 0.0000000000000000e+00  0.0000000000000000e+00  0.0000000000000000e+00  0.0000000000000000e+00 
 0.0000000000000000e+00  0.0000000000000000e+00  0.0000000000000000e+00  0.0000000000000000e+00 
 0.0000000000000000e+00  0.0000000000000000e+00  0.0000000000000000e+00  0.0000000000000000e+00 
 0.0000000000000000e+00  0.0000000000000000e+00  0.0000000000000000e+00  0.0000000000000000e+00 
 0.0000000000000000e+00  0.0000000000000000e+00  0.0000000000000000e+00  0.0000000000000000e+00 
 0.0000000000000000e+00  0.0000000000000000e+00  0.0000000000000000e+00  0.0000000000000000e+00 
 0.0000000000000000e+00  0.0000000000000000e+00  0.0000000000000000e+00  0.0000000000000000e+00 
 0.0000000000000000e+00  0.0000000000000000e+00  0.0000000000000000e+00  0.0000000000000000e+00 
 0.0000000000000000e+00  0.0000000000000000e+00  0.0000000000000000e+00  0.0000000000000000e+00 
 0.0000000000000000e+00  0.0000000000000000e+00  0.0000000000000000e+00  0.0000000000000000e+00 
 0.0000000000000000e+00  0.0000000000000000e+00  0.0000000000000000e+00  0.0000000000000000e+00 
 0.0000000000000000e+00  0.0000000000000000e+00  0.0000000000000000e+00  0.0000000000000000e+00 
 0.0000000000000000e+00  0.0000000000000000e+00  0.0000000000000000e+00  0.0000000000000000e+00 
 0.0000000000000000e+00  0.0000000000000000e+00  0.0000000000000000e+00  0.0000000000000000e+00 
 0.0000000000000000e+00  0.0000000000000000e+00  0.0000000000000000e+00  0.0000000000000000e+00 
 0.0000000000000000e+00  0.0000000000000000e+00  0.0000000000000000e+00  0.0000000000000000e+00 
 0.0000000000000000e+00  0.0000000000000000e+00  0.0000000000000000e+00  0.0000000000000000e+00 
 0.0000000000000000e+00  0.0000000000000000e+00  0.0000000000000000e+00  0.0000000000000000e+00 
 0.0000000000000000e+00  0.0000000000000000e+00  0.0000000000000000e+00  0.0000000000000000e+00 
 0.0000000000000000e+00  0.0000000000000000e+00  0.0000000000000000e+00  0.0000000000000000e+00 
 0.0000000000000000e+00  0.0000000000000000e+00  0.0000000000000000e+00  0.0000000000000000e+00 
 0.0000000000000000e+00  0.0000000000000000e+00  0.0000000000000000e+00  0.0000000000000000e+00 
 0.0000000000000000e+00  0.0000000000000000e+00  0.0000000000000000e+00  0.0000000000000000e+00 
 0.0000000000000000e+00  0.0000000000000000e+00  0.0000000000000000e+00  0.0000000000000000e+00 
 0.0000000000000000e+00  0.0000000000000000e+00  0.0000000000000000e+00  0.0000000000000000e+00 
 0.0000000000000000e+00  0.0000000000000000e+00  0.0000000000000000e+00  0.0000000000000000e+00 
 0.0000000000000000e+00  0.0000000000000000e+00  0.0000000000000000e+00  0.0000000000000000e+00 
 0.0000000000000000e+00  0.0000000000000000e+00  0.0000000000000000e+00  0.0000000000000000e+00 
 0.0000000000000000e+00  0.0000000000000000e+00  0.0000000000000000e+00  0.0000000000000000e+00 
 0.0000000000000000e+00  0.0000000000000000e+00  0.0000000000000000e+00  0.0000000000000000e+00 
 0.0000000000000000e+00  0.0000000000000000e+00  0.0000000000000000e+00  0.0000000000000000e+00 
 0.0000000000000000e+00  0.0000000000000000e+00  0.0000000000000000e+00  0.0000000000000000e+00 
 0.0000000000000000e+00  0.0000000000000000e+00  0.0000000000000000e+00  0.0000000000000000e+00 
 0.0000000000000000e+00  0.0000000000000000e+00  0.0000000000000000e+00  0.0000000000000000e+00 
 0.0000000000000000e+00  0.0000000000000000e+00  0.0000000000000000e+00  0.0000000000000000e+00 
 0.0000000000000000e+00  0.0000000000000000e+00  0.0000000000000000e+00  0.0000000000000000e+00 
 0.0000000000000000e+00  0.0000000000000000e+00  0.0000000000000000e+00  0.0000000000000000e+00 
 0.0000000000000000e+00  0.0000000000000000e+00  0.0000000000000000e+00  0.0000000000000000e+00 
 0.0000000000000000e+00  0.0000000000000000e+00  0.0000000000000000e+00  0.0000000000000000e+00 
 0.0000000000000000e+00  0.0000000000000000e+00  0.0000000000000000e+00  0.0000000000000000e+00 
 0.0000000000000000e+00  0.0000000000000000e+00  0.0000000000000000e+00  0.0000000000000000e+00 
 0.0000000000000000e+00  0.0000000000000000e+00  0.0000000000000000e+00  0.0000000000000000e+00 
 0.0000000000000000e+00  0.0000000000000000e+00  0.0000000000000000e+00  0.0000000000000000e+00 
 0.0000000000000000e+00  0.0000000000000000e+00  0.0000000000000000e+00  0.0000000000000000e+00 
 0.0000000000000000e+00  0.0000000000000000e+00  0.0000000000000000e+00  0.0000000000000000e+00 
 0.0000000000000000e+00  0.0000000000000000e+00  0.0000000000000000e+00  0.0000000000000000e+00 
 0.0000000000000000e+00  0.0000000000000000e+00  0.0000000000000000e+00  0.0000000000000000e+00 
 0.0000000000000000e+00  0.0000000000000000e+00  0.0000000000000000e+00  0.0000000000000000e+00 
 0.0000000000000000e+00  0.0000000000000000e+00  0.0000000000000000e+00  0.0000000000000000e+00 
 0.0000000000000000e+00  0.0000000000000000e+00  0.0000000000000000e+00  0.0000000000000000e+00 
 0.0000000000000000e+00  0.0000000000000000e+00  0.0000000000000000e+00  0.0000000000000000e+00 
 0.0000000000000000e+00 
  </PP_BETA>
  <PP_BETA>
  4  2      Beta    L
  1189  
 -3.8253558796919823e-12  -3.9774921325238606e-12  -4.1356789176884348e-12  -4.3001568677803167e-12 
 -4.4711761854686296e-12  -4.6489970241034525e-12  -4.8338898834592563e-12  -5.0261360212171487e-12 
 -5.2260278808120082e-12  -5.4338695362953373e-12  -5.6499771548904672e-12  -5.8746794779438412e-12 
 -6.1083183210039452e-12  -6.3512490937886474e-12  -6.6038413408318349e-12  -6.8664793036318904e-12 
 -7.1395625051570286e-12  -7.4235063575967250e-12  -7.7187427942837036e-12  -8.0257209267477660e-12 
 -8.3449077279009488e-12  -8.6767887423933104e-12  -9.0218688252199108e-12  -9.3806729097024925e-12 
 -9.7537468060142443e-12  -1.0141658031462197e-11  -1.0544996673790410e-11  -1.0964376288817111e-11 
 -1.1400434833771298e-11  -1.1853835637748566e-11  -1.2325268410762494e-11  -1.2815450292926420e-11 
 -1.3325126945361658e-11  -1.3855073684491825e-11  -1.4406096661448331e-11  -1.4979034088381600e-11 
 -1.5574757513543225e-11  -1.6194173147078697e-11  -1.6838223239547572e-11  -1.7507887515268127e-11 
 -1.8204184662666674e-11  -1.8928173883898844e-11  -1.9680956506100118e-11  -2.0463677656716459e-11 
 -2.1277528005463671e-11  -2.2123745575565357e-11  -2.3003617627024636e-11  -2.3918482614794467e-11 
 -2.4869732224825375e-11  -2.5858813491087712e-11  -2.6887230996789035e-11  -2.7956549163134691e-11 
 -2.9068394629113830e-11  -3.0224458725930327e-11  -3.1426500049843206e-11  -3.2676347137330091e-11 
 -3.3975901246643229e-11  -3.5327139249989108e-11  -3.6732116640731736e-11  -3.8192970660193541e-11 
 -3.9711923548810984e-11  -4.1291285926589665e-11  -4.2933460308002221e-11  -4.4640944756674990e-11 
 -4.6416336685423735e-11  -4.8262336807418009e-11  -5.0181753244485779e-11  -5.2177505798806762e-11 
 -5.4252630394493601e-11  -5.6410283695816044e-11  -5.8653747909094845e-11  -6.0986435775568786e-11 
 -6.3411895762830387e-11  -6.5933817462727935e-11  -6.8556037203943745e-11  -7.1282543887788316e-11 
 -7.4117485056085883e-11  -7.7065173200383027e-11  -8.0130092322077674e-11  -8.3316904753447076e-11 
 -8.6630458249951384e-11  -9.0075793364601629e-11  -9.3658151115609595e-11  -9.7382980958983809e-11 
 -1.0125594907819933e-10  -1.0528294700355147e-10  -1.0947010057430570e-10  -1.1382377925727539e-10 
 -1.1835060583600512e-10  -1.2305746648529604e-10  -1.2795152124640046e-10  -1.3304021491881973e-10 
 -1.3833128838527379e-10  -1.4383279038706992e-10  -1.4955308976778368e-10  -1.5550088820387616e-10 
 -1.6168523344161425e-10  -1.6811553306042928e-10  -1.7480156878364996e-10  -1.8175351135838100e-10 
 -1.8898193602716002e-10  -1.9649783861493046e-10  -2.0431265225579978e-10  -2.1243826478502945e-10 
 -2.2088703682271091e-10  -2.2967182057663938e-10  -2.3880597939298370e-10  -2.4830340808449941e-10 
 -2.5817855406719861e-10  -2.6844643933764050e-10  -2.7912268332426332e-10  -2.9022352664752788e-10 
 -3.0176585582501063e-10  -3.1376722895902986e-10  -3.2624590244588045e-10  -3.3922085874730718e-10 
 -3.5271183526645982e-10  -3.6673935437225991e-10  -3.8132475461785002e-10  -3.9649022320061195e-10 
 -4.1225882971313649e-10  -4.2865456123648448e-10  -4.4570235882911927e-10  -4.6342815546702206e-10 
 -4.8185891549270264e-10  -5.0102267563311331e-10  -5.2094858764886181e-10  -5.4166696267960450e-10 
 -5.6320931735307284e-10  -5.8560842172787690e-10  -6.0889834914301372e-10  -6.3311452804991066e-10 
 -6.5829379590585341e-10  -6.8447445521077917e-10  -7.1169633177267144e-10  -7.4000083529019866e-10 
 -7.6943102234474932e-10  -8.0003166189768305e-10  -8.3184930339243940e-10  -8.6493234756508970e-10 
 -8.9933112007106191e-10  -9.3509794804001785e-10  -9.7228723967536022e-10  -1.0109555670194415e-09 
 -1.0511617520103730e-09  -1.0929669559613536e-09  -1.1364347725986255e-09  -1.1816313247995828e-09 
 -1.2286253651781981e-09  -1.2774883806707638e-09  -1.3282947012810559e-09  -1.3811216131503319e-09 
 -1.4360494761241639e-09  -1.4931618459949487e-09  -1.5525456016060545e-09  -1.6142910770109420e-09 
 -1.6784921988883015e-09  -1.7452466294222448e-09  -1.8146559148648932e-09  -1.8868256400073497e-09 
 -1.9618655887940422e-09  -2.0398899113247540e-09  -2.1210172974983806e-09  -2.2053711575625680e-09 
 -2.2930798098438646e-09  -2.3842766759439600e-09  -2.4791004836989589e-09  -2.5776954782104101e-09 
 -2.6802116412690887e-09  -2.7868049195053616e-09  -2.8976374616131525e-09  -3.0128778650083768e-09 
 -3.1327014322970592e-09  -3.2572904379432798e-09  -3.3868344055425755e-09  -3.5215303961225794e-09 
 -3.6615833079094765e-09  -3.8072061880162624e-09  -3.9586205565268933e-09  -4.1160567434694117e-09 
 -4.2797542391905365e-09  -4.4499620586647653e-09  -4.6269391202921535e-09  -4.8109546397609430e-09 
 -5.0022885395742454e-09  -5.2012318748636910e-09  -5.4080872761377659e-09  -5.6231694096383792e-09 
 -5.8468054560058931e-09  -6.0793356079807805e-09  -6.3211135878989778e-09  -6.5725071857681404e-09 
 -6.8338988187432602e-09  -7.1056861128527879e-09  -7.3882825078600667e-09  -7.6821178861802274e-09 
 -7.9876392268092025e-09  -8.3053112852596123e-09  -8.6356173005377840e-09  -8.9790597302373554e-09 
 -9.3361610148676501e-09  -9.7074643725794487e-09  -1.0093534625497167e-08  -1.0494959058914257e-08 
 -1.0912348314658946e-08  -1.1346337319989178e-08  -1.1797586253429814e-08  -1.2266781549021127e-08 
 -1.2754636940506456e-08  -1.3261894547047133e-08  -1.3789326002116330e-08  -1.4337733627289089e-08 
 -1.4907951652713922e-08  -1.5500847486122603e-08  -1.6117323032308363e-08  -1.6758316065079816e-08 
 -1.7424801653777313e-08  -1.8117793646521823e-08  -1.8838346212452537e-08  -1.9587555445298972e-08 
 -2.0366561030727320e-08  -2.1176547979996450e-08  -2.2018748432561795e-08  -2.2894443530368133e-08 
 -2.3804965366682772e-08  -2.4751699012433774e-08  -2.5736084623135041e-08  -2.6759619629603567e-08 
 -2.7823861015801109e-08  -2.8930427687265244e-08  -3.0081002933732418e-08  -3.1277336989699008e-08 
 -3.2521249696815704e-08  -3.3814633272164313e-08  -3.5159455186629138e-08  -3.6557761157740208e-08 
 -3.8011678261541672e-08  -3.9523418168218947e-08  -4.1095280506406418e-08  -4.2729656361293680e-08 
 -4.4429031911851303e-08  -4.6195992212709663e-08  -4.8033225126443357e-08  -4.9943525412243681e-08 
 -5.1929798977198893e-08  -5.3995067296649579e-08  -5.6142472010344197e-08  -5.8375279701386616e-08 
 -6.0696886865246578e-08  -6.3110825076392329e-08  -6.5620766360406088e-08  -6.8230528779756064e-08 
 -7.0944082241722500e-08  -7.3765554537314699e-08  -7.6699237620367530e-08  -7.9749594136368935e-08 
 -8.2921264210954359e-08  -8.6219072508393446e-08  -8.9648035570809618e-08  -9.3213369449296839e-08 
 -9.6920497638542166e-08  -1.0077505932702403e-07  -1.0478291797533411e-07  -1.0895017023566872e-07 
 -1.1328315522605262e-07  -1.1778846417339614e-07  -1.2247295044004245e-07  -1.2734373994904535e-07 
 -1.3240824202401832e-07  -1.3767416066002429e-07  -1.4314950624262747e-07  -1.4884260773290694e-07 
 -1.5476212533693949e-07  -1.6091706367899318e-07  -1.6731678549844340e-07  -1.7397102589121784e-07 
 -1.8088990711741312e-07  -1.8808395399758857e-07  -1.9556410992114977e-07  -2.0334175349117090e-07 
 -2.1142871583098433e-07  -2.1983729857887823e-07  -2.2858029259829852e-07  -2.3767099743204562e-07 
 -2.4712324153009192e-07  -2.5695140328182373e-07  -2.6717043288473656e-07  -2.7779587508288533e-07 
 -2.8884389280970687e-07  -3.0033129177121250e-07  -3.1227554600713835e-07  -3.2469482447128538e-07 
 -3.3760801867653705e-07  -3.5103477143196651e-07  -3.6499550672042064e-07  -3.7951146076407072e-07 
 -3.9460471432532630e-07  -4.1029822629222503e-07  -4.2661586859937855e-07  -4.4358246253757670e-07 
 -4.6122381650726979e-07  -4.7956676527334004e-07  -4.9863921078085862e-07  -5.1847016459389331e-07 
 -5.3908979202190669e-07  -5.6052945800084332e-07  -5.8282177479867716e-07  -6.0600065161795821e-07 
 -6.3010134617079268e-07  -6.5516051830467068e-07  -6.8121628576069713e-07  -7.0830828214899832e-07 
 -7.3647771722946760e-07  -7.6576743958950569e-07  -7.9622200181406036e-07  -8.2788772824705315e-07 
 -8.6081278544722575e-07  -8.9504725544553574e-07  -9.3064321191547636e-07  -9.6765479937214022e-07 
 -1.0061383155204346e-06  -1.0461522968776576e-06  -1.0877576078006035e-06  -1.1310175330525546e-06 
 -1.1759978740508836e-06  -1.2227670489416021e-06  -1.2713961966529887e-06  -1.3219592850864781e-06 
 -1.3745332236092956e-06  -1.4291979800198376e-06  -1.4860367021636175e-06  -1.5451358443846318e-06 
 -1.6065852990043799e-06  -1.6704785330283939e-06  -1.7369127302880779e-06  -1.8059889392339051e-06 
 -1.8778122266046436e-06  -1.9524918372061474e-06  -2.0301413600425879e-06  -2.1108789010526202e-06 
 -2.1948272627130210e-06  -2.2821141307827494e-06  -2.3728722684712709e-06  -2.4672397183261866e-06 
 -2.5653600121470342e-06  -2.6673823892442064e-06  -2.7734620233746954e-06  -2.8837602586994966e-06 
 -2.9984448551212377e-06  -3.1176902433747741e-06  -3.2416777902584407e-06  -3.3705960744088513e-06 
 -3.5046411730383342e-06  -3.6440169600705929e-06  -3.7889354161275818e-06  -3.9396169508384959e-06 
 -4.0962907379605496e-06  -4.2591950638205998e-06  -4.4285776896069661e-06  -4.6046962280616873e-06 
 -4.7878185351454865e-06  -4.9782231172702594e-06  -5.1761995547176507e-06  -5.3820489418867603e-06 
 -5.5960843450396250e-06  -5.8186312782395246e-06  -6.0500281982050316e-06  -6.2906270188310248e-06 
 -6.5407936461581107e-06  -6.8009085346026133e-06  -7.0713672652916977e-06  -7.3525811473816256e-06 
 -7.6449778432720558e-06  -7.9490020186654333e-06  -8.2651160184582882e-06  -8.5938005694903360e-06 
 -8.9355555112179887e-06  -9.2909005554212514e-06  -9.6603760760968700e-06  -1.0044543930736543e-05 
 -1.0443988314236207e-05  -1.0859316646732240e-05  -1.1291160496711472e-05  -1.1740176540795591e-05 
 -1.2207047561655771e-05  -1.2692483485571425e-05  -1.3197222461206668e-05  -1.3722031981240733e-05 
 -1.4267710048553282e-05  -1.4835086388733037e-05  -1.5425023710748251e-05  -1.6038419017690433e-05 
 -1.6676204969578275e-05  -1.7339351300288014e-05  -1.8028866290757510e-05  -1.8745798300697059e-05 
 -1.9491237361128308e-05  -2.0266316830164120e-05  -2.1072215114538457e-05  -2.1910157459494315e-05 
 -2.2781417809740904e-05  -2.3687320744299070e-05  -2.4629243488165124e-05  -2.5608618003839275e-05 
 -2.6626933165885776e-05  -2.7685737021816665e-05  -2.8786639142721718e-05  -2.9931313067202376e-05 
 -3.1121498842308216e-05  -3.2359005665320656e-05  -3.3645714630380907e-05  -3.4983581584117095e-05 
 -3.6374640094589435e-05  -3.7821004538043500e-05  -3.9324873308138876e-05  -4.0888532152504725e-05 
 -4.2514357641665726e-05  -4.4204820775580963e-05  -4.5962490733245148e-05  -4.7790038771017194e-05 
 -4.9690242275564384e-05  -5.1665988977542703e-05  -5.3720281332375894e-05  -5.5856241074746512e-05 
 -5.8077113953672622e-05  -6.0386274655316320e-05  -6.2787231920949791e-05  -6.5283633867799400e-05 
 -6.7879273520791362e-05  -7.0578094563538844e-05  -7.3384197317239412e-05  -7.6301844956491521e-05 
 -7.9335469971396149e-05  -8.2489680885674613e-05  -8.5769269240920477e-05  -8.9179216857497638e-05 
 -9.2724703383013186e-05  -9.6411114139720647e-05  -1.0024404828265765e-04  -1.0422932728078443e-04 
 -1.0837300373387122e-04  -1.1268137053838374e-04  -1.1716097041613659e-04  -1.2181860582002164e-04 
 -1.2666134923168396e-04  -1.3169655386659595e-04  -1.3693186480259073e-04  -1.4237523054854071e-04 
 -1.4803491507052390e-04  -1.5391951029349526e-04  -1.6003794909719184e-04  -1.6639951882572434e-04 
 -1.7301387533107525e-04  -1.7989105757151052e-04  -1.8704150278673034e-04  -1.9447606227244156e-04 
 -2.0220601777791312e-04  -2.1024309855099946e-04  -2.1859949905606642e-04  -2.2728789739125078e-04 
 -2.3632147443250468e-04  -2.4571393373295494e-04  -2.5547952220720562e-04  -2.6563305163137120e-04 
 -2.7618992099081902e-04  -2.8716613970884296e-04  -2.9857835179077606e-04  -3.1044386091938850e-04 
 -3.2278065653880726e-04  -3.3560744096562895e-04  -3.4894365756739972e-04  -3.6280952005018186e-04 
 -3.7722604289854229e-04  -3.9221507301296586e-04  -4.0779932259143374e-04  -4.2400240330370498e-04 
 -4.4084886180870494e-04  -4.5836421666737090e-04  -4.7657499670529941e-04  -4.9550878088164133e-04 
 -5.1519423972284288e-04  -5.3566117838207809e-04  -5.5694058138754370e-04  -5.7906465914520772e-04 
 -6.0206689626408959e-04  -6.2598210177476643e-04  -6.5084646131446813e-04  -6.7669759135493884e-04 
 -7.0357459555210502e-04  -7.3151812329962020e-04  -7.6057043057143681e-04  -7.9077544314179059e-04 
 -8.2217882227432818e-04  -8.5482803297554089e-04  -8.8877241491128233e-04  -9.2406325608883854e-04 
 -9.6075386941087940e-04  -9.9889967221159447e-04  -1.0385582688894437e-03  -1.0797895367552445e-03 
 -1.1226557152187000e-03  -1.1672214984411106e-03  -1.2135541315866976e-03  -1.2617235108099184e-03 
 -1.3118022871211978e-03  -1.3638659742787919e-03  -1.4179930608599104e-03  -1.4742651266698443e-03 
 -1.5327669636537125e-03  -1.5935867014813846e-03  -1.6568159379824227e-03  -1.7225498746142778e-03 
 -1.7908874571536384e-03  -1.8619315218076917e-03  -1.9357889469491629e-03  -2.0125708106863188e-03 
 -2.0923925544866924e-03  -2.1753741530811306e-03  -2.2616402908827667e-03  -2.3513205451639635e-03 
 -2.4445495762427292e-03  -2.5414673249390934e-03  -2.6422192175709872e-03  -2.7469563787686536e-03 
 -2.8558358523963108e-03  -2.9690208308797558e-03  -3.0866808932490187e-03  -3.2089922522156571e-03 
 -3.3361380106153439e-03  -3.4683084275575200e-03  -3.6057011946356082e-03  -3.7485217225630084e-03 
 -3.8969834386124733e-03  -4.0513080952489476e-03  -4.2117260903588765e-03  -4.3784767994922520e-03 
 -4.5518089205472314e-03  -4.7319808313411394e-03  -4.9192609605258836e-03  -5.1139281723205539e-03 
 -5.3162721655488198e-03  -5.5265938874842491e-03  -5.7452059630221401e-03  -5.9724331397126703e-03 
 -6.2086127492063537e-03  -6.4540951856796305e-03  -6.7092444018252897e-03  -6.9744384230098532e-03 
 -7.2500698802175634e-03  -7.5365465624187087e-03  -7.8342919890179892e-03  -8.1437460030572527e-03 
 -8.4653653858656440e-03  -8.7996244938688840e-03  -9.1470159182888509e-03  -9.5080511684836576e-03 
 -9.8832613796979267e-03  -1.0273198046012432e-02  -1.0678433779301992e-02  -1.1099563095029959e-02 
 -1.1537203225727160e-02  -1.1991994963022983e-02  -1.2464603529115204e-02  -1.2955719478584732e-02 
 -1.3466059631480115e-02  -1.3996368038615228e-02  -1.4547416980041906e-02  -1.5120007997676710e-02 
 -1.5714972963078121e-02  -1.6333175181386866e-02  -1.6975510532457525e-02  -1.7642908650224068e-02 
 -1.8336334141355624e-02  -1.9056787844270930e-02  -1.9805308129590637e-02  -2.0582972243116535e-02 
 -2.1390897692433585e-02  -2.2230243678237050e-02  -2.3102212571490078e-02  -2.4008051437518500e-02 
 -2.4949053608148287e-02  -2.5926560302986405e-02  -2.6941962300938919e-02  -2.7996701663048816e-02 
 -2.9092273507721724e-02  -3.0230227839388543e-02  -3.1412171431631282e-02  -3.2639769765769350e-02 
 -3.3914749025871008e-02  -3.5238898151114625e-02  -3.6614070946379265e-02  -3.8042188251891894e-02 
 -3.9525240172697977e-02  -4.1065288368656271e-02  -4.2664468405580441e-02  -4.4324992168066651e-02 
 -4.6049150334449354e-02  -4.7839314914222768e-02  -4.9697941848147090e-02  -5.1627573671128336e-02 
 -5.3630842237819061e-02  -5.5710471510727590e-02  -5.7869280410451619e-02  -6.0110185727463454e-02 
 -6.2436205094665576e-02  -6.4850460019711842e-02  -6.7356178975841882e-02  -6.9956700549710885e-02 
 -7.2655476644405123e-02  -7.5456075735521252e-02  -7.8362186177844156e-02  -8.1377619559791781e-02 
 -8.4506314102396243e-02  -8.7752338099160665e-02  -9.1119893392668613e-02  -9.4613318883323291e-02 
 -9.8237094065057082e-02  -1.0199584258227461e-01  -1.0589433580167247e-01  -1.0993749639191375e-01 
 -1.1413040190342097e-01  -1.1847828833978707e-01  -1.2298655371148665e-01  -1.2766076156169157e-01 
 -1.3250664445306198e-01  -1.3753010740338170e-01  -1.4273723125684179e-01  -1.4813427597663564e-01 
 -1.5372768384331875e-01  -1.5952408254209191e-01  -1.6553028812079204e-01  -1.7175330779891324e-01 
 -1.7820034260642517e-01  -1.8487878982950465e-01  -1.9179624523854572e-01  -1.9896050507195445e-01 
 -2.0637956774726279e-01  -2.1406163526901650e-01  -2.2201511430067775e-01  -2.3024861686545553e-01 
 -2.3877096063850745e-01  -2.4759116879035611e-01  -2.5671846933861592e-01  -2.6616229396223179e-01 
 -2.7593227622938710e-01  -2.8603824918702797e-01  -2.9649024225658344e-01  -3.0729847737692412e-01 
 -3.1847336433188694e-01  -3.3002549519580732e-01  -3.4196563782643069e-01  -3.5430472833031884e-01 
 -3.6705386242142463e-01  -3.8022428558888249e-01  -3.9382738198523459e-01  -4.0787466194131206e-01 
 -4.2237774800877781e-01  -4.3734835942597106e-01  -4.5279829489710749e-01  -4.6873941356916726e-01 
 -4.8518361408487404e-01  -5.0214281158412677e-01  -5.1962891252001719e-01  -5.3765378714925394e-01 
 -5.5622923955035497e-01  -5.7536697501648393e-01  -5.9507856466319620e-01  -6.1537540708481586e-01 
 -6.3626868688657323e-01  -6.5776932991314407e-01  -6.7988795498787546e-01  -7.0263482197077298e-01 
 -7.2601977593740485e-01  -7.5005218727528444e-01  -7.7474088748910563e-01  -8.0009410050157959e-01 
 -8.2611936923260409e-01  -8.5282347723630325e-01  -8.8021236517313650e-01  -9.0829104189311394e-01 
 -9.3706348990615795e-01  -9.6653256501723328e-01  -9.9669988990705949e-01  -1.0275657414444264e+00 
 -1.0591289315235322e+00  -1.0913866812296842e+00  -1.1243344881495403e+00  -1.1579659866580452e+00 
 -1.1922728010339285e+00  -1.2272443912792992e+00  -1.2628678915471381e+00  -1.2991279411137922e+00 
 -1.3360065078724022e+00  -1.3734827043683004e+00  -1.4115325964491707e+00  -1.4501290046621627e+00 
 -1.4892412985975523e+00  -1.5288351844549160e+00  -1.5688724861938592e+00  -1.6093109207278107e+00 
 -1.6501038677272053e+00  -1.6912001347182681e+00  -1.7325437182964527e+00  -1.7740735624202231e+00 
 -1.8157233149119594e+00  -1.8574210834693234e+00  -1.8990891926827562e+00  -1.9406439437638456e+00 
 -1.9819953789152756e+00  -2.0230470525164161e+00  -2.0636958115592754e+00  -2.1038315880476155e+00 
 -2.1433372063665423e+00  -2.1820882089408689e+00  -2.2199527038256419e+00  -2.2567912382107518e+00 
 -2.2924567021703854e+00  -2.3267942673447060e+00  -2.3596413656015782e+00  -2.3908277130859439e+00 
 -2.4201753854179677e+00  -2.4474989501418869e+00  -2.4726056628476822e+00  -2.4952957336787973e+00 
 -2.5153626711902319e+00  -2.5325937107217005e+00  -2.5467703345864385e+00  -2.5576688914337660e+00 
 -2.5650613221065308e+00  -2.5687159991662174e+00  -2.5683986869797151e+00  -2.5638736288344841e+00 
 -2.5549047669509055e+00  -2.5412571004736035e+00  -2.5226981855250341e+00  -2.4989997801765038e+00 
 -2.4699396357145700e+00  -2.4353034338390600e+00  -2.3948868674102943e+00  -2.3484978600592337e+00 
 -2.2959589173833335e+00  -2.2371095995785919e+00  -2.1718091022180301e+00  -2.0999389285038221e+00 
 -2.0214056327296830e+00  -1.9361436109405492e+00  -1.8441179109289503e+00  -1.7453270298359944e+00 
 -1.6398056638138869e+00  -1.5276273705540782e+00  -1.4089071020886850e+00  -1.2838035622403965e+00 
 -1.1525213405271924e+00  -1.0153127723181778e+00  -8.7247947366674639e-01  -7.2437349858334099e-01 
 -5.7139806659958625e-01  -4.1400780935179449e-01  -2.5270848659590173e-01  -8.8056124579516643e-02 
 7.9344466927877208e-02  2.4884183835026880e-01  4.1974073885731517e-01  5.9130567736809603e-01 
 7.6276522578049477e-01  9.3331707474638081e-01  1.1021338409692896e+00  1.2683696114909724e+00 
 1.4311671945409952e+00  1.5896660281527415e+00  1.7430106770176148e+00  1.8903598253668603e+00 
 2.0308956498096316e+00  2.1638334321653816e+00  2.2884312498770760e+00  2.4039995622201582e+00 
 2.5099104958328460e+00  2.6056066244224589e+00  2.6906090357347914e+00  2.7645244843670120e+00 
 2.8270514416130790e+00  2.8779848727242836e+00  2.9172195969703822e+00  2.9447521158000440e+00 
 2.9606808282784276e+00  2.9652045898701096e+00  2.9586196095987645e+00  2.9413147207623496e+00 
 2.9137651009238694e+00  2.8765245571808822e+00  2.8302165322016428e+00  2.7755240246244095e+00 
 2.7131786532217808e+00  2.6439491260645624e+00  2.5686294010819117e+00  2.4880268393168805e+00 
 2.4029506531007567e+00  2.3142009357679232e+00  2.2225585273322390e+00  2.1287759247385281e+00 
 2.0335693927779448e+00  1.9376123807522900e+00  1.8415302402120388e+00  1.7458963601421496e+00 
 1.6512295703456310e+00  1.5579927971851042e+00  1.4665928778827730e+00  1.3773814209651478e+00 
 1.2906565853839218e+00  1.2066656374132805e+00  1.1256081348421820e+00  1.0476395830270173e+00 
 9.7287540758596469e-01  9.0139509411097773e-01  8.3324635604324604e-01  7.6844920720692833e-01 
 7.0699983450633885e-01  6.4887418783628859e-01  5.9403122710396683e-01  5.4241578918901889e-01 
 4.9396105953773844e-01  4.4859065291761457e-01  4.0622032486772075e-01  3.6675934901839563e-01 
 3.3011160540542545e-01  2.9617643108759795e-01  2.6484928692139836e-01  2.3602229356734533e-01 
 2.0958468615666853e-01  1.8542323110060530e-01  1.6342264090121136e-01  1.4346601416926691e-01 
 1.2543531899900989e-01  1.0921192896249622e-01  9.4677212764438426e-02  8.1713171440385521e-02 
 7.0203111171216429e-02  6.0032335501466076e-02  5.1088838051017930e-02  4.3263975664545158e-02 
 3.6453102227942499e-02  3.0556144906780942e-02  2.5478107089562198e-02  2.1129485582287402e-02 
 1.7426593324251605e-02  1.4291782811282410e-02  1.1653569278443396e-02  9.4466562999238907e-03 
 7.6118696425441657e-03  6.0960078421176582e-03  4.8516199837912713e-03  3.8367225319805511e-03 
 3.0144677833557421e-03  2.3527766527348636e-03  1.8239481184155729e-03  1.4042568377134201e-03 
 1.0735492950843008e-03  8.1484746390143175e-04  6.1396744683679075e-04  4.5915899647808308e-04 
 3.4077028601923792e-04  2.5094085449874190e-04  1.8332435343358444e-04  1.3284158384842872e-04 
 9.5463368692365894e-05  6.8022051800737670e-05  4.8049848338591351e-05  3.3641879314667410e-05 
 2.3341486060926167e-05  1.6045316290294411e-05  1.0925678598133933e-05  7.3677520901907997e-06 
 4.9193904680541081e-06  3.2514542434600052e-06  2.1268233201257840e-06  1.3764703446090176e-06 
 8.8120114932931748e-07  5.5788383032223546e-07  3.4918644993454072e-07  2.1602136905700898e-07 
 1.3205016580253652e-07  7.9736562086892128e-08  4.7546859665455600e-08  2.7989646021532167e-08 
 1.6260929363024884e-08  9.3201448439352366e-09  5.2684350120626029e-09  2.9360944365048570e-09 
 1.6126133952495441e-09  8.7257160392877901e-10  4.6495912838040225e-10  2.4389268956995884e-10 
 1.2588560744809929e-10  6.3908969937544648e-11  3.1897698919768260e-11  1.5645800899980786e-11 
 7.5375370468720267e-12  3.5650276082722650e-12  1.6555741052581878e-12  7.5365064393225145e-13 
 3.3614328628727850e-13  1.4718388393106695e-13  6.3069157772834808e-14  2.6594197545750785e-14 
 1.0694431409038491e-14  4.3867033192543879e-15  1.6541491759213079e-15  7.7908602264645758e-16 
 3.6665424425941440e-16  0.0000000000000000e+00  0.0000000000000000e+00  0.0000000000000000e+00 
 0.0000000000000000e+00  0.0000000000000000e+00  0.0000000000000000e+00  0.0000000000000000e+00 
 0.0000000000000000e+00  0.0000000000000000e+00  0.0000000000000000e+00  0.0000000000000000e+00 
 0.0000000000000000e+00  0.0000000000000000e+00  0.0000000000000000e+00  0.0000000000000000e+00 
 0.0000000000000000e+00  0.0000000000000000e+00  0.0000000000000000e+00  0.0000000000000000e+00 
 0.0000000000000000e+00  0.0000000000000000e+00  0.0000000000000000e+00  0.0000000000000000e+00 
 0.0000000000000000e+00  0.0000000000000000e+00  0.0000000000000000e+00  0.0000000000000000e+00 
 0.0000000000000000e+00  0.0000000000000000e+00  0.0000000000000000e+00  0.0000000000000000e+00 
 0.0000000000000000e+00  0.0000000000000000e+00  0.0000000000000000e+00  0.0000000000000000e+00 
 0.0000000000000000e+00  0.0000000000000000e+00  0.0000000000000000e+00  0.0000000000000000e+00 
 0.0000000000000000e+00  0.0000000000000000e+00  0.0000000000000000e+00  0.0000000000000000e+00 
 0.0000000000000000e+00  0.0000000000000000e+00  0.0000000000000000e+00  0.0000000000000000e+00 
 0.0000000000000000e+00  0.0000000000000000e+00  0.0000000000000000e+00  0.0000000000000000e+00 
 0.0000000000000000e+00  0.0000000000000000e+00  0.0000000000000000e+00  0.0000000000000000e+00 
 0.0000000000000000e+00  0.0000000000000000e+00  0.0000000000000000e+00  0.0000000000000000e+00 
 0.0000000000000000e+00  0.0000000000000000e+00  0.0000000000000000e+00  0.0000000000000000e+00 
 0.0000000000000000e+00  0.0000000000000000e+00  0.0000000000000000e+00  0.0000000000000000e+00 
 0.0000000000000000e+00  0.0000000000000000e+00  0.0000000000000000e+00  0.0000000000000000e+00 
 0.0000000000000000e+00  0.0000000000000000e+00  0.0000000000000000e+00  0.0000000000000000e+00 
 0.0000000000000000e+00  0.0000000000000000e+00  0.0000000000000000e+00  0.0000000000000000e+00 
 0.0000000000000000e+00  0.0000000000000000e+00  0.0000000000000000e+00  0.0000000000000000e+00 
 0.0000000000000000e+00  0.0000000000000000e+00  0.0000000000000000e+00  0.0000000000000000e+00 
 0.0000000000000000e+00  0.0000000000000000e+00  0.0000000000000000e+00  0.0000000000000000e+00 
 0.0000000000000000e+00  0.0000000000000000e+00  0.0000000000000000e+00  0.0000000000000000e+00 
 0.0000000000000000e+00  0.0000000000000000e+00  0.0000000000000000e+00  0.0000000000000000e+00 
 0.0000000000000000e+00  0.0000000000000000e+00  0.0000000000000000e+00  0.0000000000000000e+00 
 0.0000000000000000e+00  0.0000000000000000e+00  0.0000000000000000e+00  0.0000000000000000e+00 
 0.0000000000000000e+00  0.0000000000000000e+00  0.0000000000000000e+00  0.0000000000000000e+00 
 0.0000000000000000e+00  0.0000000000000000e+00  0.0000000000000000e+00  0.0000000000000000e+00 
 0.0000000000000000e+00  0.0000000000000000e+00  0.0000000000000000e+00  0.0000000000000000e+00 
 0.0000000000000000e+00  0.0000000000000000e+00  0.0000000000000000e+00  0.0000000000000000e+00 
 0.0000000000000000e+00  0.0000000000000000e+00  0.0000000000000000e+00  0.0000000000000000e+00 
 0.0000000000000000e+00  0.0000000000000000e+00  0.0000000000000000e+00  0.0000000000000000e+00 
 0.0000000000000000e+00  0.0000000000000000e+00  0.0000000000000000e+00  0.0000000000000000e+00 
 0.0000000000000000e+00  0.0000000000000000e+00  0.0000000000000000e+00  0.0000000000000000e+00 
 0.0000000000000000e+00  0.0000000000000000e+00  0.0000000000000000e+00  0.0000000000000000e+00 
 0.0000000000000000e+00  0.0000000000000000e+00  0.0000000000000000e+00  0.0000000000000000e+00 
 0.0000000000000000e+00  0.0000000000000000e+00  0.0000000000000000e+00  0.0000000000000000e+00 
 0.0000000000000000e+00  0.0000000000000000e+00  0.0000000000000000e+00  0.0000000000000000e+00 
 0.0000000000000000e+00  0.0000000000000000e+00  0.0000000000000000e+00  0.0000000000000000e+00 
 0.0000000000000000e+00  0.0000000000000000e+00  0.0000000000000000e+00  0.0000000000000000e+00 
 0.0000000000000000e+00  0.0000000000000000e+00  0.0000000000000000e+00  0.0000000000000000e+00 
 0.0000000000000000e+00  0.0000000000000000e+00  0.0000000000000000e+00  0.0000000000000000e+00 
 0.0000000000000000e+00  0.0000000000000000e+00  0.0000000000000000e+00  0.0000000000000000e+00 
 0.0000000000000000e+00  0.0000000000000000e+00  0.0000000000000000e+00  0.0000000000000000e+00 
 0.0000000000000000e+00  0.0000000000000000e+00  0.0000000000000000e+00  0.0000000000000000e+00 
 0.0000000000000000e+00  0.0000000000000000e+00  0.0000000000000000e+00  0.0000000000000000e+00 
 0.0000000000000000e+00  0.0000000000000000e+00  0.0000000000000000e+00  0.0000000000000000e+00 
 0.0000000000000000e+00  0.0000000000000000e+00  0.0000000000000000e+00  0.0000000000000000e+00 
 0.0000000000000000e+00  0.0000000000000000e+00  0.0000000000000000e+00  0.0000000000000000e+00 
 0.0000000000000000e+00  0.0000000000000000e+00  0.0000000000000000e+00  0.0000000000000000e+00 
 0.0000000000000000e+00  0.0000000000000000e+00  0.0000000000000000e+00  0.0000000000000000e+00 
 0.0000000000000000e+00  0.0000000000000000e+00  0.0000000000000000e+00  0.0000000000000000e+00 
 0.0000000000000000e+00  0.0000000000000000e+00  0.0000000000000000e+00  0.0000000000000000e+00 
 0.0000000000000000e+00  0.0000000000000000e+00  0.0000000000000000e+00  0.0000000000000000e+00 
 0.0000000000000000e+00  0.0000000000000000e+00  0.0000000000000000e+00  0.0000000000000000e+00 
 0.0000000000000000e+00  0.0000000000000000e+00  0.0000000000000000e+00  0.0000000000000000e+00 
 0.0000000000000000e+00  0.0000000000000000e+00  0.0000000000000000e+00  0.0000000000000000e+00 
 0.0000000000000000e+00  0.0000000000000000e+00  0.0000000000000000e+00  0.0000000000000000e+00 
 0.0000000000000000e+00  0.0000000000000000e+00  0.0000000000000000e+00  0.0000000000000000e+00 
 0.0000000000000000e+00  0.0000000000000000e+00  0.0000000000000000e+00  0.0000000000000000e+00 
 0.0000000000000000e+00  0.0000000000000000e+00  0.0000000000000000e+00  0.0000000000000000e+00 
 0.0000000000000000e+00  0.0000000000000000e+00  0.0000000000000000e+00  0.0000000000000000e+00 
 0.0000000000000000e+00  0.0000000000000000e+00  0.0000000000000000e+00  0.0000000000000000e+00 
 0.0000000000000000e+00  0.0000000000000000e+00  0.0000000000000000e+00  0.0000000000000000e+00 
 0.0000000000000000e+00  0.0000000000000000e+00  0.0000000000000000e+00  0.0000000000000000e+00 
 0.0000000000000000e+00  0.0000000000000000e+00  0.0000000000000000e+00  0.0000000000000000e+00 
 0.0000000000000000e+00  0.0000000000000000e+00  0.0000000000000000e+00  0.0000000000000000e+00 
 0.0000000000000000e+00  0.0000000000000000e+00  0.0000000000000000e+00  0.0000000000000000e+00 
 0.0000000000000000e+00  0.0000000000000000e+00  0.0000000000000000e+00  0.0000000000000000e+00 
 0.0000000000000000e+00 
  </PP_BETA>
  <PP_DIJ>
 4   Number of nonzero Dij
 1 1 -6.9021672295071328e+00 
 2 2 1.0531996539143100e+00 
 3 3 2.2437525678039454e+00 
 4 4 1.8998487647745677e+00 
  </PP_DIJ>
</PP_NONLOCAL>
<PP_PSWFC>
S    0   2.00          Wavefunction
 4.1966571051923300e-07  4.2515698110820463e-07  4.3072010426162549e-07  4.3635602016145331e-07 
 4.4206568129182899e-07  4.4785005260005032e-07  4.5371011165965172e-07  4.5964684883561830e-07 
 4.6566126745176126e-07  4.7175438396028389e-07  4.7792722811356583e-07  4.8418084313819578e-07 
 4.9051628591128124e-07  4.9693462713906449e-07  5.0343695153787780e-07  5.1002435801746385e-07 
 5.1669795986669710e-07  5.2345888494173407e-07  5.3030827585662674e-07  5.3724729017642896e-07 
 5.4427710061283010e-07  5.5139889522234958e-07  5.5861387760712334e-07  5.6592326711831829e-07 
 5.7332829906220952e-07  5.8083022490895154e-07  5.8843031250408424e-07  5.9612984628280498e-07 
 6.0393012748704444e-07  6.1183247438538281e-07  6.1983822249584518e-07  6.2794872481161044e-07 
 6.3616535202967457e-07  6.4448949278250590e-07  6.5292255387273224e-07  6.6146596051089800e-07 
 6.7012115655633265e-07  6.7888960476117213e-07  6.8777278701757199e-07  6.9677220460815665e-07 
 7.0588937845974460e-07  7.1512584940039534e-07  7.2448317841981820e-07  7.3396294693319053e-07 
 7.4356675704842601e-07  7.5329623183694239e-07  7.6315301560797132e-07  7.7313877418645789e-07 
 7.8325519519459626e-07  7.9350398833705005e-07  8.0388688568990580e-07  8.1440564199340364e-07 
 8.2506203494850567e-07  8.3585786551733708e-07  8.4679495822756463e-07  8.5787516148075607e-07 
 8.6910034786477517e-07  8.8047241447026313e-07  8.9199328321126376e-07  9.0366490115004296e-07 
 9.1548924082615930e-07  9.2746830058984061e-07  9.3960410493972242e-07  9.5189870486500763e-07 
 9.6435417819210225e-07  9.7697262993578871e-07  9.8975619265499231e-07  1.0027070268132063e-06 
 1.0158273211436316e-06  1.0291192930190943e-06  1.0425851888268065e-06  1.0562272843480289e-06 
 1.0700478851427027e-06  1.0840493269391159e-06  1.0982339760286671e-06  1.1126042296657962e-06 
 1.1271625164731498e-06  1.1419112968520465e-06  1.1568530633983176e-06  1.1719903413235852e-06 
 1.1873256888820553e-06  1.2028616978028985e-06  1.2186009937282867e-06  1.2345462366571614e-06 
 1.2507001213948123e-06  1.2670653780083379e-06  1.2836447722880669e-06  1.3004411062150182e-06 
 1.3174572184344793e-06  1.3346959847357810e-06  1.3521603185383532e-06  1.3698531713841395e-06 
 1.3877775334364579e-06  1.4059364339853899e-06  1.4243329419597841e-06  1.4429701664459588e-06 
 1.4618512572131959e-06  1.4809794052461107e-06  1.5003578432839906e-06  1.5199898463671897e-06 
 1.5398787323906783e-06  1.5600278626648346e-06  1.5804406424835774e-06  1.6011205216999345e-06 
 1.6220709953091416e-06  1.6432956040393800e-06  1.6647979349502359e-06  1.6865816220390049e-06 
 1.7086503468549185e-06  1.7310078391214236e-06  1.7536578773665963e-06  1.7766042895618120e-06 
 1.7998509537687766e-06  1.8234017987950227e-06  1.8472608048579891e-06  1.8714320042577886e-06 
 1.8959194820587888e-06  1.9207273767801062e-06  1.9458598810951476e-06  1.9713212425402997e-06 
 1.9971157642329022e-06  2.0232478055986160e-06  2.0497217831083126e-06  2.0765421710246119e-06 
 2.1037135021581918e-06  2.1312403686339960e-06  2.1591274226674772e-06  2.1873793773509961e-06 
 2.2160010074505207e-06  2.2449971502127515e-06  2.2743727061828173e-06  2.3041326400326704e-06 
 2.3342819814003345e-06  2.3648258257401304e-06  2.3957693351840457e-06  2.4271177394143682e-06 
 2.4588763365477567e-06  2.4910504940308760e-06  2.5236456495477717e-06  2.5566673119391094e-06 
 2.5901210621334623e-06  2.6240125540907916e-06  2.6583475157582704e-06  2.6931317500386415e-06 
 2.7283711357712349e-06  2.7640716287258513e-06  2.8002392626096424e-06  2.8368801500871907e-06 
 2.8740004838139403e-06  2.9116065374831625e-06  2.9497046668866356e-06  2.9883013109892093e-06 
 3.0274029930174537e-06  3.0670163215625525e-06  3.1071479916976498e-06  3.1478047861098343e-06 
 3.1889935762469379e-06  3.2307213234793713e-06  3.2729950802771638e-06  3.3158219914024333e-06 
 3.3592092951174664e-06  3.4031643244086329e-06  3.4476945082263272e-06  3.4928073727411601e-06 
 3.5385105426166036e-06  3.5848117422983064e-06  3.6317187973203133e-06  3.6792396356283855e-06 
 3.7273822889206695e-06  3.7761548940059305e-06  3.8255656941795792e-06  3.8756230406177423e-06 
 3.9263353937895888e-06  3.9777113248881734e-06  4.0297595172800269e-06  4.0824887679737532e-06 
 4.1359079891078685e-06  4.1900262094581442e-06  4.2448525759647115e-06  4.3003963552791735e-06 
 4.3566669353320218e-06  4.4136738269205744e-06  4.4714266653177531e-06  4.5299352119019431e-06 
 4.5892093558082297e-06  4.6492591156012847e-06  4.7100946409701891e-06  4.7717262144454902e-06 
 4.8341642531387593e-06  4.8974193105049899e-06  4.9615020781280934e-06  5.0264233875298268e-06 
 5.0921942120024453e-06  5.1588256684654022e-06  5.2263290193463990e-06  5.2947156744871365e-06 
 5.3639971930740553e-06  5.4341852855944099e-06  5.5052918158180484e-06  5.5773288028051514e-06 
 5.6503084229403770e-06  5.7242430119936616e-06  5.7991450672081162e-06  5.8750272494153084e-06 
 5.9519023851783354e-06  6.0297834689630197e-06  6.1086836653376502e-06  6.1886163112015844e-06 
 6.2695949180431526e-06  6.3516331742272011e-06  6.4347449473127018e-06  6.5189442864008231e-06 
 6.6042454245138380e-06  6.6906627810053284e-06  6.7782109640020356e-06  6.8669047728778389e-06 
 6.9567592007602632e-06  7.0477894370699270e-06  7.1400108700934210e-06  7.2334390895899939e-06 
 7.3280898894325774e-06  7.4239792702835239e-06  7.5211234423055959e-06  7.6195388279086156e-06 
 7.7192420645322965e-06  7.8202500074657334e-06  7.9225797327040164e-06  8.0262485398425042e-06 
 8.1312739550092386e-06  8.2376737338360489e-06  8.3454658644688148e-06  8.4546685706175004e-06 
 8.5653003146464082e-06  8.6773798007052952e-06  8.7909259779018644e-06  8.9059580435162068e-06 
 9.0224954462577989e-06  9.1405578895656082e-06  9.2601653349520173e-06  9.3813380053910480e-06 
 9.5040963887516310e-06  9.6284612412765433e-06  9.7544535911076387e-06  9.8820947418581165e-06 
 1.0011406276232488e-05  1.0142410059694961e-05  1.0275128244186984e-05  1.0409583271894701e-05 
 1.0545797879067068e-05  1.0683795099885458e-05  1.0823598270385479e-05  1.0965231032431880e-05 
 1.1108717337747382e-05  1.1254081451996170e-05  1.1401347958922981e-05  1.1550541764548541e-05 
 1.1701688101422196e-05  1.1854812532932524e-05  1.2009940957676624e-05  1.2167099613888885e-05 
 1.2326315083929725e-05  1.2487614298834979e-05  1.2651024542926249e-05  1.2816573458482652e-05 
 1.2984289050473982e-05  1.3154199691355496e-05  1.3326334125923978e-05  1.3500721476234927e-05 
 1.3677391246580335e-05  1.3856373328526546e-05  1.4037698006011609e-05  1.4221395960501495e-05 
 1.4407498276204789e-05  1.4596036445345491e-05  1.4787042373494324e-05  1.4980548384958873e-05 
 1.5176587228233942e-05  1.5375192081513731e-05  1.5576396558268270e-05  1.5780234712887287e-05 
 1.5986741046394975e-05  1.6195950512239640e-05  1.6407898522162365e-05  1.6622620952148930e-05 
 1.6840154148469076e-05  1.7060534933806851e-05  1.7283800613485586e-05  1.7509988981790411e-05 
 1.7739138328391009e-05  1.7971287444866772e-05  1.8206475631345830e-05  1.8444742703393061e-05 
 1.8686128999418203e-05  1.8930675387740590e-05  1.9178423273614036e-05  1.9429414606338570e-05 
 1.9683691886469051e-05  1.9941298173122082e-05  2.0202277091382405e-05  2.0466672839810465e-05 
 2.0734530198052530e-05  2.1005894534554902e-05  2.1280811814383776e-05  2.1559328607152246e-05 
 2.1841492095056079e-05  2.2127350081019908e-05  2.2416950996955345e-05  2.2710343912132900e-05 
 2.3007578541669174e-05  2.3308705255131179e-05  2.3613775085259537e-05  2.3922839736812294e-05 
 2.4235951595531205e-05  2.4553163737232350e-05  2.4874529937022927e-05  2.5200104678646159e-05 
 2.5529943163956294e-05  2.5864101322525689e-05  2.6202635821385939e-05  2.6545604074905292e-05 
 2.6893064254804156e-05  2.7245075300311275e-05  2.7601696928462364e-05  2.7962989644543636e-05 
 2.8329014752682514e-05  2.8699834366587764e-05  2.9075511420441527e-05  2.9456109679945573e-05 
 2.9841693753524308e-05  3.0232329103687022e-05  3.0628082058552077e-05  3.1029019823535422e-05 
 3.1435210493206320e-05  3.1846723063313067e-05  3.2263627442981305e-05  3.2685994467087905e-05 
 3.3113895908813438e-05  3.3547404492376120e-05  3.3986593905950152e-05  3.4431538814772005e-05 
 3.4882314874437351e-05  3.5338998744392276e-05  3.5801668101621875e-05  3.6270401654539852e-05 
 3.6745279157082488e-05  3.7226381423010620e-05  3.7713790340423271e-05  3.8207588886486601e-05 
 3.8707861142382358e-05  3.9214692308479249e-05  3.9728168719731603e-05  4.0248377861309528e-05 
 4.0775408384464356e-05  4.1309350122634194e-05  4.1850294107793723e-05  4.2398332587052872e-05 
 4.2953559039508974e-05  4.3516068193357301e-05  4.4085956043264773e-05  4.4663319868011841e-05 
 4.5248258248407770e-05  4.5840871085484609e-05  4.6441259618975086e-05  4.7049526446080315e-05 
 4.7665775540532752e-05  4.8290112271960175e-05  4.8922643425557195e-05  4.9563477222069858e-05 
 5.0212723338100056e-05  5.0870492926736144e-05  5.1536898638516542e-05  5.2212054642732966e-05 
 5.2896076649080647e-05  5.3589081929662617e-05  5.4291189341355446e-05  5.5002519348544428e-05 
 5.5723194046235740e-05  5.6453337183553895e-05  5.7193074187632762e-05  5.7942532187908876e-05 
 5.8701840040825569e-05  5.9471128354957461e-05  6.0250529516564271e-05  6.1040177715583730e-05 
 6.1840208972073740e-05  6.2650761163113609e-05  6.3471974050175196e-05  6.4303989306974691e-05 
 6.5146950547816283e-05  6.6001003356439157e-05  6.6866295315379647e-05  6.7742976035861104e-05 
 6.8631197188223541e-05  6.9531112532906803e-05  7.0442877951999960e-05  7.1366651481371245e-05 
 7.2302593343392702e-05  7.3250865980274243e-05  7.4211634088022321e-05  7.5185064651039086e-05 
 7.6171326977377980e-05  7.7170592734672618e-05  7.8183035986756564e-05  7.9208833230991072e-05 
 8.0248163436320204e-05  8.1301208082071525e-05  8.2368151197522528e-05  8.3449179402253192e-05 
 8.4544481947305099e-05  8.5654250757169752e-05  8.6778680472627452e-05  8.7917968494461202e-05 
 8.9072315028068387e-05  9.0241923128995952e-05  9.1426998749424352e-05  9.2627750785626939e-05 
 9.3844391126432286e-05  9.5077134702717796e-05  9.6326199537964113e-05  9.7591806799900510e-05 
 9.8874180853273345e-05  1.0017354931376958e-04  1.0149014310312938e-04  1.0282419650548280e-04 
 1.0417594722494664e-04  1.0554563644451939e-04  1.0693350888631209e-04  1.0833981287315666e-04 
 1.0976480039163204e-04  1.1120872715655251e-04  1.1267185267696215e-04  1.1415444032368178e-04 
 1.1565675739845699e-04  1.1717907520475647e-04  1.1872166912027263e-04  1.2028481867117766e-04 
 1.2186880760819105e-04  1.2347392398451520e-04  1.2510046023569990e-04  1.2674871326149673e-04 
 1.2841898450976743e-04  1.3011158006251351e-04  1.3182681072409569e-04  1.3356499211171447e-04 
 1.3532644474822703e-04  1.3711149415737643e-04  1.3892047096151410e-04  1.4075371098189814e-04 
 1.4261155534165396e-04  1.4449435057148593e-04  1.4640244871823413e-04  1.4833620745637141e-04 
 1.5029599020254195e-04  1.5228216623324408e-04  1.5429511080576640e-04  1.5633520528248842e-04 
 1.5840283725866296e-04  1.6049840069380037e-04  1.6262229604678058e-04  1.6477493041482382e-04 
 1.6695671767645459e-04  1.6916807863860109e-04  1.7140944118797477e-04  1.7368124044688397e-04 
 1.7598391893363757e-04  1.7831792672770539e-04  1.8068372163980372e-04  1.8308176938708494e-04 
 1.8551254377361520e-04  1.8797652687633200e-04  1.9047420923668128e-04  1.9300609005814119e-04 
 1.9557267740984835e-04  1.9817448843655053e-04  2.0081204957512013e-04  2.0348589677786873e-04 
 2.0619657574291809e-04  2.0894464215188760e-04  2.1173066191517253e-04  2.1455521142509749e-04 
 2.1741887781723964e-04  2.2032225924023075e-04  2.2326596513435701e-04  2.2625061651929124e-04 
 2.2927684629130336e-04  2.3234529953031053e-04  2.3545663381714318e-04  2.3861151956141820e-04 
 2.4181064034042653e-04  2.4505469324946009e-04  2.4834438926401935e-04  2.5168045361436190e-04 
 2.5506362617287249e-04  2.5849466185475173e-04  2.6197433103254583e-04  2.6550341996505784e-04 
 2.6908273124120579e-04  2.7271308423941579e-04  2.7639531560316326e-04  2.8013027973330219e-04 
 2.8391884929784589e-04  2.8776191575989813e-04  2.9166038992445325e-04  2.9561520250482329e-04 
 2.9962730470947907e-04  3.0369766885012293e-04  3.0782728897185252e-04  3.1201718150630509e-04 
 3.1626838594871583e-04  3.2058196555985913e-04  3.2495900809388845e-04  3.2940062655313081e-04 
 3.3390795997093915e-04  3.3848217422375497e-04  3.4312446287358336e-04  3.4783604804213393e-04 
 3.5261818131793920e-04  3.5747214469781765e-04  3.6239925156410880e-04  3.6740084769917495e-04 
 3.7247831233872371e-04  3.7763305926558240e-04  3.8286653794562288e-04  3.8818023470761474e-04 
 3.9357567396886239e-04  3.9905441950856870e-04  4.0461807579095108e-04  4.1026828934023215e-04 
 4.1600675016972383e-04  4.2183519326731916e-04  4.2775540013982111e-04  4.3376920041864135e-04 
 4.3987847352952461e-04  4.4608515042907310e-04  4.5239121541097694e-04  4.5879870798499063e-04 
 4.6530972483183595e-04  4.7192642183736794e-04  4.7865101620948414e-04  4.8548578868143810e-04 
 4.9243308580537671e-04  4.9949532234011215e-04  5.0667498373732623e-04  5.1397462873060561e-04 
 5.2139689203192069e-04  5.2894448714037865e-04  5.3662020926831928e-04  5.4442693839006453e-04 
 5.5236764241889380e-04  5.6044538051808733e-04  5.6866330655216968e-04  5.7702467268478264e-04 
 5.8553283312994008e-04  5.9419124806374748e-04  6.0300348770402285e-04  6.1197323656563083e-04 
 6.2110429789972803e-04  6.3040059832553358e-04  6.3986619266367484e-04  6.4950526898061565e-04 
 6.5932215385415918e-04  6.6932131787052933e-04  6.7950738136407138e-04  6.8988512041118428e-04 
 7.0045947309069689e-04  7.1123554602353135e-04  7.2221862120517015e-04  7.3341416314515098e-04 
 7.4482782632855472e-04  7.5646546301525006e-04  7.6833313139348523e-04  7.8043710410530243e-04 
 7.9278387716218179e-04  8.0538017927031253e-04  8.1823298158592117e-04  8.3134950792220148e-04 
 8.4473724543055123e-04  8.5840395578005838e-04  8.7235768686048779e-04  8.8660678503539960e-04 
 9.0115990797350629e-04  9.1602603808791315e-04  9.3121449661454862e-04  9.4673495836281778e-04 
 9.6259746717337099e-04  9.7881245211983107e-04  9.9539074449339691e-04  1.0123435956114458e-03 
 1.0296826954935845e-03  1.0474201924510792e-03  1.0655687136382139e-03  1.0841413866169195e-03 
 1.1031518619889638e-03  1.1226143371531384e-03  1.1425435812482015e-03  1.1629549613458811e-03 
 1.1838644699619909e-03  1.2052887539577048e-03  1.2272451449072718e-03  1.2497516910129538e-03 
 1.2728271906527616e-03  1.2964912276516337e-03  1.3207642083721172e-03  1.3456674007263571e-03 
 1.3712229752173015e-03  1.3974540481235251e-03  1.4243847269489948e-03  1.4520401582664303e-03 
 1.4804465780907411e-03  1.5096313649273388e-03  1.5396230956489609e-03  1.5704516043640677e-03 
 1.6021480444498918e-03  1.6347449539338887e-03  1.6682763244186831e-03  1.7027776737577039e-03 
 1.7382861227015515e-03  1.7748404757488674e-03  1.8124813064500360e-03  1.8512510474276061e-03 
 1.8911940853938557e-03  1.9323568614635289e-03  1.9747879770785765e-03  2.0185383058816623e-03 
 2.0636611118965316e-03  2.1102121743959805e-03  2.1582499198623249e-03  2.2078355614709821e-03 
 2.2590332465551597e-03  2.3119102125388476e-03  2.3665369518563410e-03  2.4229873864096410e-03 
 2.4813390521502905e-03  2.5416732944097279e-03  2.6040754746421814e-03  2.6686351892866462e-03 
 2.7354465014997205e-03  2.8046081865592998e-03  2.8762239917903133e-03  2.9504029119182401e-03 
 3.0272594808141910e-03  3.1069140806569001e-03  3.1894932696026651e-03  3.2751301291238932e-03 
 3.3639646322509826e-03  3.4561440340309247e-03  3.5518232855995344e-03  3.6511654733528344e-03 
 3.7543422847972061e-03  3.8615345027575875e-03  3.9729325297287559e-03  4.0887369442666457e-03 
 4.2091590914352314e-03  4.3344217094498615e-03  4.4647595947905809e-03  4.6004203081989907e-03 
 4.7416649241200726e-03  4.8887688263063158e-03  5.0420225524658311e-03  5.2017326910089234e-03 
 5.3682228331295104e-03  5.5418345836485252e-03  5.7229286342466313e-03  5.9118859029230805e-03 
 6.1091087437365466e-03  6.3150222311123740e-03  6.5300755232385599e-03  6.7547433093202089e-03 
 6.9895273457185091e-03  7.2349580862654207e-03  7.4915964123184750e-03  7.7600354684009710e-03 
 8.0409026095601983e-03  8.3348614668694102e-03  8.6426141377964807e-03  8.9649035084620431e-03 
 9.3025157151106434e-03  9.6562827524172053e-03  1.0027085236546095e-02  1.0415855331167293e-02 
 1.0823579844910496e-02  1.1251303508998962e-02  1.1700132444045934e-02  1.2171237825211643e-02 
 1.2665859755102449e-02  1.3185311353937853e-02  1.3730983076608543e-02  1.4304347266289649e-02 
 1.4906962954248258e-02  1.5540480915381540e-02  1.6206648988828828e-02  1.6907317672704040e-02 
 1.7644446001578162e-02  1.8420107714788438e-02  1.9236497722943162e-02  2.0095938879107166e-02 
 2.1000889060072955e-02  2.1953948561820796e-02  2.2957867811722755e-02  2.4015555398223587e-02 
 2.5130086416605774e-02  2.6304711126986648e-02  2.7542863917868938e-02  2.8848172565339721e-02 
 3.0224467774350044e-02  3.1675792984373931e-02  3.3206414417103584e-02  3.4820831338651811e-02 
 3.6523786502967046e-02  3.8320276736787048e-02  4.0215563619431925e-02  4.2215184203037562e-02 
 4.4324961710433930e-02  4.6551016138757853e-02  4.8899774687051596e-02  5.1377981915530668e-02 
 5.3992709532920999e-02  5.6751365696288275e-02  5.9661703695152737e-02  6.2731829878457324e-02 
 6.5970210669216434e-02  6.9385678497519782e-02  7.2987436468130176e-02  7.6785061564356563e-02 
 8.0788506175393904e-02  8.5008097720128004e-02  8.9454536126766723e-02  9.4138888914880384e-02 
 9.9072583614849843e-02  1.0426739724970656e-01  1.0973544259631322e-01  1.1548915093720914e-01 
 1.2154125101169898e-01  1.2790474387536310e-01  1.3459287338157641e-01  1.4161909200730613e-01 
 1.4899702175880966e-01  1.5674040991122279e-01  1.6486307935965938e-01  1.7337887338844579e-01 
 1.8230159469944079e-01  1.9164493857978299e-01  2.0142242013338602e-01  2.1164729554831954e-01 
 2.2233247742288825e-01  2.3349044422549775e-01  2.4513314401587619e-01  2.5727189260635819e-01 
 2.6991726639029406e-01  2.8307899010896126e-01  2.9676581986793454e-01  3.1098542174872384e-01 
 3.2574424639276772e-01  3.4104739996505185e-01  3.5689851193776767e-01  3.7329960017624336e-01 
 3.9025093386708359e-01  4.0775089491043265e-01  4.2579583851336578e-01  4.4437995387798090e-01 
 4.6349512608242277e-01  4.8313080050920088e-01  5.0327385148127646e-01  5.2390845711449341e-01 
 5.4501598276889285e-01  5.6657487585595512e-01  5.8856057509886162e-01  6.1094543760484066e-01 
 6.3369868724360701e-01  6.5678638778554821e-01  6.8017144399933316e-01  7.0381363342398384e-01 
 7.2766967082984091e-01  7.5169330651878685e-01  7.7583545867367132e-01  8.0004437905792303e-01 
 8.2426585059425661e-01  8.4844341479379637e-01  8.7251862669454983e-01  8.9643133487867366e-01 
 9.2011998420409380e-01  9.4352193901324932e-01  9.6657382466695108e-01  9.8921188519712244e-01 
 1.0113723545924862e+00  1.0329918386545809e+00  1.0540077034370181e+00  1.0743584649961442e+00 
 1.0939841735962621e+00  1.1128267838061234e+00  1.1308305004354071e+00  1.1479420894967765e+00 
 1.1641111439407132e+00  1.1792902963115259e+00  1.1934353748807576e+00  1.2065055058006549e+00 
 1.2184631702862725e+00  1.2292742312314480e+00  1.2389079464958055e+00  1.2473369855051146e+00 
 1.2545374627940300e+00  1.2604889996570035e+00  1.2651747798205193e+00  1.2685816651986346e+00 
 1.2707002935360079e+00  1.2715251748339069e+00  1.2710547741694624e+00  1.2692915708662316e+00 
 1.2662420877489848e+00  1.2619168870099193e+00  1.2563305316187285e+00  1.2495015130837979e+00 
 1.2414521476719025e+00  1.2322084439805863e+00  1.2217999451419186e+00  1.2102595490385075e+00 
 1.1976233098376488e+00  1.1839302239778771e+00  1.1692220035291441e+00  1.1535428396270855e+00 
 1.1369391584711137e+00  1.1194593721823130e+00  1.1011536266410824e+00  1.0820735482634405e+00 
 1.0622719915251193e+00  1.0418027889002492e+00  1.0207205047434826e+00  9.9908019450860641e-01 
 9.7693717056165663e-01  9.5434677477182339e-01  9.3136416357156337e-01  9.0804409696624222e-01 
 8.8444074157988073e-01  8.6060748368118445e-01  8.3659675360592800e-01  8.1245986195122910e-01 
 7.8824684781201615e-01  7.6400633923085837e-01  7.3978542594323671e-01  7.1562954442014171e-01 
 6.9158237513686316e-01  6.6768575193262769e-01  6.4397958326914151e-01  6.2050178514661203e-01 
 5.9728822539302273e-01  5.7437267900530242e-01  5.5178679418902776e-01  5.2956006871586625e-01 
 5.0771983619437588e-01  4.8629126182951532e-01  4.6529734722885613e-01  4.4475894379863135e-01 
 4.2469477426015767e-01  4.0512146180658021e-01  3.8605356641121946e-01  3.6750362779191825e-01 
 3.4948221453059164e-01  3.3199797884464372e-01  3.1505771650443126e-01  2.9866643139156918e-01 
 2.8282740419605218e-01  2.6754226475188458e-01  2.5281106751949028e-01  2.3863236973079080e-01 
 2.2500331172048246e-01  2.1191969897990112e-01  1.9937608548273497e-01  1.8736585784651244e-01 
 1.7588131991000105e-01  1.6491377732423443e-01  1.5445362177373179e-01  1.4449041446441047e-01 
 1.3501296853560657e-01  1.2600943007541851e-01  1.1746735744096516e-01  1.0937379860812103e-01 
 1.0171536629865083e-01  9.4478310656263692e-02  8.7648589266812751e-02  8.1211934341550912e-02 
 7.5153916905884341e-02  6.9460007859325990e-02  6.4115635795234494e-02  5.9106241491279653e-02 
 5.4417329003322419e-02  5.0034513316501619e-02  4.5943564527628329e-02  4.2130448552413387e-02 
 3.8581364369559661e-02  3.5282777831272337e-02  3.2221452086212972e-02  2.9384474676305644e-02 
 2.6759281383054837e-02  2.4333676912123528e-02  2.2095852516825946e-02  2.0034400671892084e-02 
 1.8138326918354569e-02  1.6397059008688528e-02  1.4800453488408081e-02  1.3338799856198848e-02 
 1.2002822449359943e-02  1.0783680204913966e-02  9.6729644491079722e-03  8.6626948693771851e-03 
 7.7453138232349552e-03  6.9136791377994401e-03  6.1610555520617153e-03  5.4811049515347474e-03 
 4.8678755416301771e-03  4.3157901020823633e-03  3.8196334600438375e-03  3.3745393141842036e-03 
 2.9759765363085661e-03  2.6197350707436264e-03  2.3019115450917112e-03  2.0188946989943383e-03 
 1.7673507303469847e-03  1.5442086510312079e-03  1.3466457367392575e-03  1.1720731479241576e-03 
 1.0181217913719106e-03  8.8262848441398797e-04  7.6362247643178914e-04  6.5931237509723995e-04 
 5.6807351779203927e-04  4.8843582189338924e-04  4.1907214114204476e-04  3.5878714915739982e-04 
 3.0650676536256370e-04  2.6126813315370041e-04  2.2221015511524717e-04  1.8856458546093812e-04 
 1.5964767568090344e-04  1.3485236560336776e-04  1.1364100873663524e-04  9.5538617839363105e-05 
 8.0126614166359220e-05  6.7037061740906728e-05  5.5947366296811776e-05  4.6575417194586305e-05 
 3.8675149624234353e-05  3.2032503737546631e-05  2.6461756979412034e-05  2.1802205782995684e-05 
 1.7915172929543888e-05  1.4681317221645201e-05  1.1998222650815105e-05  9.7782449286975462e-06 
 7.9465940693916340e-06  6.4396326331221805e-06  5.2033702449472870e-06  4.1921360644711913e-06 
 3.3674119835639483e-06  2.6968104508536739e-06  2.1531819482831328e-06  1.7138382623954290e-06 
 1.3598787893271020e-06  1.0756081777623708e-06  8.4803464018188174e-07  6.6643924315767077e-07 
 5.2200741728915529e-07  4.0751480313130316e-07  3.1706036887473026e-07  2.4584049743789818e-07 
 1.8995844481773353e-07  1.4626421862551087e-07  1.1222051700184351e-07  8.5790905410891239e-08 
 6.5346894460165269e-08  4.9591018524044167e-08  3.7493405463448238e-08  2.8239675196613558e-08 
 2.1188312447103626e-08  1.5835929866685638e-08  1.1789075070378769e-08  8.7414420271365887e-09 
 6.4555267133319625e-09  4.7479218115596030e-09  3.4775782187797467e-09  2.5364747344405506e-09 
 1.8422338641784218e-09  1.3323033406193974e-09  9.5939168126812803e-10  6.8790363846803675e-10 
 4.9116933108398936e-10  3.4930059367908721e-10  2.4754088887223507e-10  1.7500210934849020e-10 
 0.0000000000000000e+00  0.0000000000000000e+00  0.0000000000000000e+00  0.0000000000000000e+00 
 0.0000000000000000e+00  0.0000000000000000e+00  0.0000000000000000e+00  0.0000000000000000e+00 
 0.0000000000000000e+00  0.0000000000000000e+00  0.0000000000000000e+00  0.0000000000000000e+00 
 0.0000000000000000e+00  0.0000000000000000e+00  0.0000000000000000e+00  0.0000000000000000e+00 
 0.0000000000000000e+00  0.0000000000000000e+00  0.0000000000000000e+00  0.0000000000000000e+00 
 0.0000000000000000e+00  0.0000000000000000e+00  0.0000000000000000e+00  0.0000000000000000e+00 
 0.0000000000000000e+00  0.0000000000000000e+00  0.0000000000000000e+00  0.0000000000000000e+00 
 0.0000000000000000e+00  0.0000000000000000e+00  0.0000000000000000e+00  0.0000000000000000e+00 
 0.0000000000000000e+00  0.0000000000000000e+00  0.0000000000000000e+00  0.0000000000000000e+00 
 0.0000000000000000e+00  0.0000000000000000e+00  0.0000000000000000e+00  0.0000000000000000e+00 
 0.0000000000000000e+00  0.0000000000000000e+00  0.0000000000000000e+00  0.0000000000000000e+00 
 0.0000000000000000e+00  0.0000000000000000e+00  0.0000000000000000e+00  0.0000000000000000e+00 
 0.0000000000000000e+00  0.0000000000000000e+00  0.0000000000000000e+00  0.0000000000000000e+00 
 0.0000000000000000e+00  0.0000000000000000e+00  0.0000000000000000e+00  0.0000000000000000e+00 
 0.0000000000000000e+00  0.0000000000000000e+00  0.0000000000000000e+00  0.0000000000000000e+00 
 0.0000000000000000e+00  0.0000000000000000e+00  0.0000000000000000e+00  0.0000000000000000e+00 
 0.0000000000000000e+00  0.0000000000000000e+00  0.0000000000000000e+00  0.0000000000000000e+00 
 0.0000000000000000e+00  0.0000000000000000e+00  0.0000000000000000e+00  0.0000000000000000e+00 
 0.0000000000000000e+00  0.0000000000000000e+00  0.0000000000000000e+00  0.0000000000000000e+00 
 0.0000000000000000e+00  0.0000000000000000e+00  0.0000000000000000e+00  0.0000000000000000e+00 
 0.0000000000000000e+00  0.0000000000000000e+00  0.0000000000000000e+00  0.0000000000000000e+00 
 0.0000000000000000e+00  0.0000000000000000e+00  0.0000000000000000e+00  0.0000000000000000e+00 
 0.0000000000000000e+00  0.0000000000000000e+00  0.0000000000000000e+00  0.0000000000000000e+00 
 0.0000000000000000e+00  0.0000000000000000e+00  0.0000000000000000e+00  0.0000000000000000e+00 
 0.0000000000000000e+00  0.0000000000000000e+00  0.0000000000000000e+00  0.0000000000000000e+00 
 0.0000000000000000e+00  0.0000000000000000e+00  0.0000000000000000e+00  0.0000000000000000e+00 
 0.0000000000000000e+00  0.0000000000000000e+00  0.0000000000000000e+00  0.0000000000000000e+00 
 0.0000000000000000e+00  0.0000000000000000e+00  0.0000000000000000e+00  0.0000000000000000e+00 
 0.0000000000000000e+00  0.0000000000000000e+00  0.0000000000000000e+00  0.0000000000000000e+00 
 0.0000000000000000e+00  0.0000000000000000e+00  0.0000000000000000e+00  0.0000000000000000e+00 
 0.0000000000000000e+00  0.0000000000000000e+00  0.0000000000000000e+00  0.0000000000000000e+00 
 0.0000000000000000e+00  0.0000000000000000e+00  0.0000000000000000e+00  0.0000000000000000e+00 
 0.0000000000000000e+00  0.0000000000000000e+00  0.0000000000000000e+00  0.0000000000000000e+00 
 0.0000000000000000e+00  0.0000000000000000e+00  0.0000000000000000e+00  0.0000000000000000e+00 
 0.0000000000000000e+00  0.0000000000000000e+00  0.0000000000000000e+00  0.0000000000000000e+00 
 0.0000000000000000e+00  0.0000000000000000e+00  0.0000000000000000e+00  0.0000000000000000e+00 
 0.0000000000000000e+00  0.0000000000000000e+00  0.0000000000000000e+00  0.0000000000000000e+00 
 0.0000000000000000e+00  0.0000000000000000e+00  0.0000000000000000e+00  0.0000000000000000e+00 
 0.0000000000000000e+00  0.0000000000000000e+00  0.0000000000000000e+00  0.0000000000000000e+00 
 0.0000000000000000e+00  0.0000000000000000e+00  0.0000000000000000e+00  0.0000000000000000e+00 
 0.0000000000000000e+00  0.0000000000000000e+00  0.0000000000000000e+00  0.0000000000000000e+00 
 0.0000000000000000e+00  0.0000000000000000e+00  0.0000000000000000e+00  0.0000000000000000e+00 
 0.0000000000000000e+00  0.0000000000000000e+00  0.0000000000000000e+00  0.0000000000000000e+00 
 0.0000000000000000e+00  0.0000000000000000e+00  0.0000000000000000e+00  0.0000000000000000e+00 
 0.0000000000000000e+00  0.0000000000000000e+00  0.0000000000000000e+00  0.0000000000000000e+00 
 0.0000000000000000e+00  0.0000000000000000e+00  0.0000000000000000e+00  0.0000000000000000e+00 
 0.0000000000000000e+00  0.0000000000000000e+00  0.0000000000000000e+00  0.0000000000000000e+00 
 0.0000000000000000e+00  0.0000000000000000e+00  0.0000000000000000e+00  0.0000000000000000e+00 
 0.0000000000000000e+00  0.0000000000000000e+00  0.0000000000000000e+00  0.0000000000000000e+00 
 0.0000000000000000e+00  0.0000000000000000e+00  0.0000000000000000e+00  0.0000000000000000e+00 
 0.0000000000000000e+00 
P    1   2.00          Wavefunction
 9.0784014828132012e-11  9.3175351926462015e-11  9.5629679114319927e-11  9.8148655610526924e-11 
 1.0073398433930811e-10  1.0338741308153433e-10  1.0611073565628940e-10  1.0890579313356060e-10 
 1.1177447507887260e-10  1.1471872083070654e-10  1.1774052081156702e-10  1.2084191787358455e-10 
 1.2402500867956180e-10  1.2729194512039840e-10  1.3064493576985207e-10  1.3408624737761910e-10 
 1.3761820640174469e-10  1.4124320058139781e-10  1.4496368055107505e-10  1.4878216149732376e-10 
 1.5270122485910509e-10  1.5672352007294608e-10  1.6085176636406107e-10  1.6508875458465251e-10 
 1.6943734910063484e-10  1.7390048972805631e-10  1.7848119372052800e-10  1.8318255780900394e-10 
 1.8800776029529061e-10  1.9296006320070164e-10  1.9804281447131066e-10  2.0325945024129188e-10 
 2.0861349715587998e-10  2.1410857475551853e-10  2.1974839792280953e-10  2.2553677939391784e-10 
 2.3147763233612858e-10  2.3757497299329977e-10  2.4383292340099905e-10  2.5025571417315963e-10 
 2.5684768736213927e-10  2.6361329939411641e-10  2.7055712408180766e-10  2.7768385571654249e-10 
 2.8499831224178723e-10  2.9250543851026179e-10  3.0021030962685296e-10  3.0811813437958319e-10 
 3.1623425876095402e-10  3.2456416958204536e-10  3.3311349818181450e-10  3.4188802423410053e-10 
 3.5089367965491040e-10  3.6013655261262525e-10  3.6962289164384105e-10  3.7935910987762399e-10 
 3.8935178937103695e-10  3.9960768555886799e-10  4.1013373182056976e-10  4.2093704416749593e-10 
 4.3202492605360501e-10  4.4340487331288221e-10  4.5508457922681833e-10  4.6707193972537147e-10 
 4.7937505872492721e-10  4.9200225360686507e-10  5.0496206084043852e-10  5.1826324175376454e-10 
 5.3191478845682861e-10  5.4592592992050770e-10  5.6030613821572052e-10  5.7506513491692387e-10 
 5.9021289767428293e-10  6.0575966695896060e-10  6.2171595298608319e-10  6.3809254282006587e-10 
 6.5490050766709867e-10  6.7215121035972432e-10  6.8985631303856913e-10  7.0802778503641605e-10 
 7.2667791096995520e-10  7.4581929904467774e-10  7.6546488957853207e-10  7.8562796375009736e-10 
 8.0632215257719900e-10  8.2756144613202708e-10  8.4936020299899078e-10  8.7173315998170490e-10 
 8.9469544206566725e-10  9.1826257264336387e-10  9.4245048400871521e-10  9.6727552812795765e-10 
 9.9275448769424092e-10  1.0189045874734162e-09  1.0457435059486859e-09  1.0732893872719839e-09 
 1.1015608535301712e-09  1.1305770173343338e-09  1.1603574947407010e-09  1.1909224185119102e-09 
 1.2222924517275924e-09  1.2544888017534737e-09  1.2875332345784405e-09  1.3214480895292579e-09 
 1.3562562943728893e-09  1.3919813808166361e-09  1.4286475004165554e-09  1.4662794409049393e-09 
 1.5049026429478662e-09  1.5445432173441755e-09  1.5852279626774773e-09  1.6269843834331378e-09 
 1.6698407085924932e-09  1.7138259107168478e-09  1.7589697255341784e-09  1.8053026720417670e-09 
 1.8528560731383690e-09  1.9016620767998512e-09  1.9517536778126274e-09  2.0031647400795793e-09 
 2.0559300195135384e-09  2.1100851875338189e-09  2.1656668551816693e-09  2.2227125978709662e-09 
 2.2812609807908643e-09  2.3413515849775932e-09  2.4030250340730106e-09  2.4663230217880171e-09 
 2.5312883400893925e-09  2.5979649081291095e-09  2.6663978019356836e-09  2.7366332848876390e-09 
 2.8087188389896762e-09  2.8827031969727094e-09  2.9586363752394540e-09  3.0365697076778510e-09 
 3.1165558803651842e-09  3.1986489671863514e-09  3.2829044663903755e-09  3.3693793381098635e-09 
 3.4581320428687802e-09  3.5492225811045833e-09  3.6427125337314188e-09  3.7386651037718199e-09 
 3.8371451590850403e-09  3.9382192762209304e-09  4.0419557854289752e-09  4.1484248168529479e-09 
 4.2576983479424136e-09  4.3698502521131072e-09  4.4849563486891258e-09  4.6030944541606575e-09 
 4.7243444347919457e-09  4.8487882606150115e-09  4.9765100608456818e-09  5.1075961807593633e-09 
 5.2421352400650074e-09  5.3802181928167744e-09  5.5219383889038568e-09  5.6673916371600570e-09 
 5.8166762701357891e-09  5.9698932105762922e-09  6.1271460396509989e-09  6.2885410669802067e-09 
 6.4541874025063684e-09  6.6241970302586153e-09  6.7986848840603899e-09  6.9777689252313583e-09 
 7.1615702223361490e-09  7.3502130330338388e-09  7.5438248880835154e-09  7.7425366775627323e-09 
 7.9464827393571300e-09  8.1558009499810714e-09  8.3706328177906893e-09  8.5911235786523663e-09 
 8.8174222941313465e-09  9.0496819522668508e-09  9.2880595710018529e-09  9.5327163043374214e-09 
 9.7838175512834426e-09  1.0041533067679350e-08  1.0306037080960508e-08  1.0577508407947795e-08 
 1.0856130575740118e-08  1.1142091945791495e-08  1.1435585841256686e-08  1.1736810677691450e-08 
 1.2045970097195763e-08  1.2363273106090808e-08  1.2688934216222694e-08  1.3023173589988578e-08 
 1.3366217189183158e-08  1.3718296927766241e-08  1.4079650828654665e-08  1.4450523184644624e-08 
 1.4831164723573155e-08  1.5221832777830513e-08  1.5622791458338101e-08  1.6034311833109479e-08 
 1.6456672110515341e-08  1.6890157827376249e-08  1.7335062042010478e-08  1.7791685532367345e-08 
 1.8260336999380151e-08  1.8741333275676149e-08  1.9234999539784765e-08  1.9741669535988853e-08 
 2.0261685799967729e-08  2.0795399890384534e-08  2.1343172626574521e-08  2.1905374332495150e-08 
 2.2482385087102753e-08  2.3074594981325296e-08  2.3682404381804892e-08  2.4306224201588549e-08 
 2.4946476177950144e-08  2.5603593157531556e-08  2.6278019388995816e-08  2.6970210823390143e-08 
 2.7680635422422250e-08  2.8409773474858014e-08  2.9158117921255033e-08  2.9926174687251215e-08 
 3.0714463025634259e-08  3.1523515867423180e-08  3.2353880182199429e-08  3.3206117347931397e-08 
 3.4080803530542421e-08  3.4978530073479229e-08  3.5899903897544185e-08  3.6845547911262048e-08 
 3.7816101432058822e-08  3.8812220618537685e-08  3.9834578914144635e-08  4.0883867502523993e-08 
 4.1960795774872072e-08  4.3066091809605211e-08  4.4200502864667214e-08  4.5364795882809058e-08 
 4.6559758010183523e-08  4.7786197128605497e-08  4.9044942401838725e-08  5.0336844836279235e-08 
 5.1662777856414859e-08  5.3023637895451335e-08  5.4420345001505007e-08  5.5853843459773280e-08 
 5.7325102431104577e-08  5.8835116607400895e-08  6.0384906884297537e-08  6.1975521051576453e-08 
 6.3608034501781392e-08  6.5283550957516020e-08  6.7003203217918035e-08  6.8768153924816112e-08 
 7.0579596349089202e-08  7.2438755197761337e-08  7.4346887442379154e-08  7.6305283169232949e-08 
 7.8315266451996867e-08  8.0378196247377881e-08  8.2495467314378355e-08  8.4668511157791572e-08 
 8.6898796996565024e-08  8.9187832757681536e-08  9.1537166096224307e-08  9.3948385442306995e-08 
 9.6423121075568195e-08  9.8963046227944658e-08  1.0156987821545758e-07  1.0424537959976324e-07 
 1.0699135938024053e-07  1.0980967421740833e-07  1.1270222968849065e-07  1.1567098157596899e-07 
 1.1871793718999052e-07  1.2184515672552631e-07  1.2505475465520244e-07  1.2834890115875927e-07 
 1.3172982359012126e-07  1.3519980798309069e-07  1.3876120059670897e-07  1.4241640950135710e-07 
 1.4616790620669625e-07  1.5001822733257670e-07  1.5396997632407183e-07  1.5802582521181995e-07 
 1.6218851641888798e-07  1.6646086461539655e-07  1.7084575862226917e-07  1.7534616336667050e-07 
 1.7996512189310921e-07  1.8470575742350690e-07  1.8957127547032364e-07  1.9456496600532657e-07 
 1.9969020568555116e-07  2.0495046013796565e-07  2.1034928630438664e-07  2.1589033484823889e-07 
 2.2157735262479091e-07  2.2741418521654467e-07  2.3340477953549763e-07  2.3955318649404569e-07 
 2.4586356374633901e-07  2.5234017850195147e-07  2.5898741041377522e-07  2.6580975454209979e-07 
 2.7281182439689054e-07  2.7999835506033059e-07  2.8737420639174868e-07  2.9494436631710947e-07 
 3.0271395420530177e-07  3.1068822433351832e-07  3.1887256944408211e-07  3.2727252439513699e-07 
 3.3589376990768367e-07  3.4474213641150991e-07  3.5382360799262768e-07  3.6314432644490387e-07 
 3.7271059542863826e-07  3.8252888473892041e-07  3.9260583468666674e-07  4.0294826059531935e-07 
 4.1356315741626912e-07  4.2445770446614236e-07  4.3563927028917768e-07  4.4711541764800365e-07 
 4.5889390864621593e-07  4.7098270998624417e-07  4.8338999836609212e-07  4.9612416601862445e-07 
 5.0919382639718135e-07  5.2260782001139437e-07  5.3637522041718306e-07  5.5050534036501811e-07 
 5.6500773811064675e-07  5.7989222389258681e-07  5.9516886658080696e-07  6.1084800050113984e-07 
 6.2694023244008097e-07  6.4345644883476351e-07  6.6040782315301953e-07  6.7780582346857169e-07 
 6.9566222023653642e-07  7.1398909427455482e-07  7.3279884495500904e-07  7.5210419861393387e-07 
 7.7191821718237867e-07  7.9225430704612589e-07  8.1312622813984191e-07  8.3454810328188517e-07 
 8.5653442775617323e-07  8.7910007914768088e-07  9.0226032743831012e-07  9.2603084537006719e-07 
 9.5042771908265401e-07  9.7546745903278614e-07  1.0011670112027353e-06  1.0275437686057980e-06 
 1.0546155830966093e-06  1.0824007774944197e-06  1.1109181580276819e-06  1.1401870271085165e-06 
 1.1702271964458566e-06  1.2010590005063035e-06  1.2327033103319939e-06  1.2651815477249859e-06 
 1.2985156998079756e-06  1.3327283339713968e-06  1.3678426132172235e-06  1.4038823119100978e-06 
 1.4408718319466714e-06  1.4788362193543604e-06  1.5178011813310015e-06  1.5577931037372386e-06 
 1.5988390690537487e-06  1.6409668748157880e-06  1.6842050525378537e-06  1.7285828871416151e-06 
 1.7741304369006245e-06  1.8208785539156918e-06  1.8688589051351823e-06  1.9181039939348858e-06 
 1.9686471822725243e-06  2.0205227134323460e-06  2.0737657353757170e-06  2.1284123247140251e-06 
 2.1844995113206859e-06  2.2420653035994864e-06  2.3011487144269886e-06  2.3617897877871976e-06 
 2.4240296261172007e-06  2.4879104183830264e-06  2.5534754689054635e-06  2.6207692269561604e-06 
 2.6898373171448856e-06  2.7607265706194095e-06  2.8334850571000473e-06  2.9081621177715548e-06 
 2.9848083990556741e-06  3.0634758872882761e-06  3.1442179443257619e-06  3.2270893441060018e-06 
 3.3121463101898905e-06  3.3994465543102412e-06  3.4890493159555822e-06  3.5810154030171293e-06 
 3.6754072335280423e-06  3.7722888785248991e-06  3.8717261060621478e-06  3.9737864264112147e-06 
 4.0785391384767926e-06  4.1860553774638156e-06  4.2964081638295512e-06  4.4096724535562527e-06 
 4.5259251897807958e-06  4.6452453558188211e-06  4.7677140296219416e-06  4.8934144397077214e-06 
 5.0224320226032601e-06  5.1548544818444121e-06  5.2907718485738841e-06  5.4302765437827360e-06 
 5.5734634422410861e-06  5.7204299381651861e-06  5.8712760126693778e-06  6.0261043030529309e-06 
 6.1850201739731658e-06  6.3481317905578709e-06  6.5155501935115003e-06  6.6873893762713166e-06 
 6.8637663642713358e-06  7.0448012963735859e-06  7.2306175085280465e-06  7.4213416197244426e-06 
 7.6171036203009994e-06  7.8180369626771600e-06  8.0242786545794386e-06  8.2359693548315162e-06 
 8.4532534717819752e-06  8.6762792644452746e-06  8.9051989464339003e-06  9.1401687927619574e-06 
 9.3813492496030863e-06  9.6289050470880004e-06  9.8830053152296831e-06  1.0143823703067064e-05 
 1.0411538501120681e-05  1.0686332767256937e-05  1.0968394456060557e-05  1.1257916551817906e-05 
 1.1555097205217225e-05  1.1860139873875152e-05  1.2173253466802372e-05  1.2494652492924855e-05 
 1.2824557213781083e-05  1.3163193800519140e-05  1.3510794495322062e-05  1.3867597777393655e-05 
 1.4233848533641448e-05  1.4609798234198001e-05  1.4995705112926304e-05  1.5391834353059945e-05 
 1.5798458278133642e-05  1.6215856548365096e-05  1.6644316362654212e-05  1.7084132666371677e-05 
 1.7535608365114460e-05  1.7999054544611925e-05  1.8474790696972489e-05  1.8963144953467243e-05 
 1.9464454324053813e-05  1.9979064943850549e-05  2.0507332326778792e-05  2.1049621626598027e-05 
 2.1606307905567192e-05  2.2177776410973197e-05  2.2764422859776407e-05  2.3366653731631707e-05 
 2.3984886570552899e-05  2.4619550295498056e-05  2.5271085520162897e-05  2.5939944882280501e-05 
 2.6626593382735521e-05  2.7331508734813156e-05  2.8055181723914503e-05  2.8798116578082099e-05 
 2.9560831349692485e-05  3.0343858308685641e-05  3.1147744347715157e-05  3.1973051399617297e-05 
 3.2820356867612461e-05  3.3690254068667862e-05  3.4583352690466775e-05  3.5500279262447025e-05 
 3.6441677641388890e-05  3.7408209512051193e-05  3.8400554903374151e-05  3.9419412720787467e-05 
 4.0465501295183281e-05  4.1539558949136294e-05  4.2642344580975599e-05  4.3774638267337581e-05 
 4.4937241884854310e-05  4.6130979751657951e-05  4.7356699289409709e-05  4.8615271706590225e-05 
 4.9907592703818813e-05  5.1234583202000118e-05  5.2597190094130254e-05  5.3996387021628357e-05 
 5.5433175176096132e-05  5.6908584127445338e-05  5.8423672679373290e-05  5.9979529753207152e-05 
 6.1577275301181832e-05  6.3218061250261499e-05  6.4903072477661919e-05  6.6633527819282039e-05 
 6.8410681112303457e-05  7.0235822273273228e-05  7.2110278413041766e-05  7.4035414989988044e-05 
 7.6012637003027735e-05  7.8043390225965824e-05  8.0129162484825228e-05  8.2271484979854980e-05 
 8.4471933653999746e-05  8.6732130609690322e-05  8.9053745575901882e-05  9.1438497427512701e-05 
 9.3888155759091165e-05  9.6404542515334815e-05  9.8989533680489175e-05  1.0164506102918092e-04 
 1.0437311394121325e-04  1.0717574128299137e-04  1.1005505335836935e-04  1.1301322393184266e-04 
 1.1605249232714832e-04  1.1917516560447983e-04  1.2238362081967754e-04  1.2568030736891529e-04 
 1.2906774942257452e-04  1.3254854845217348e-04  1.3612538585440899e-04  1.3980102567656279e-04 
 1.4357831744773487e-04  1.4746019912058309e-04  1.5144970012847948e-04  1.5554994456323673e-04 
 1.5976415447881284e-04  1.6409565332667223e-04  1.6854786952876476e-04  1.7312434019438425e-04 
 1.7782871498748148e-04  1.8266476015134128e-04  1.8763636269788166e-04  1.9274753476920489e-04 
 1.9800241817941787e-04  2.0340528914515219e-04  2.0896056321364700e-04  2.1467280039771683e-04 
 2.2054671052740873e-04  2.2658715882866394e-04  2.3279917173983660e-04  2.3918794297749269e-04 
 2.4575883986351088e-04  2.5251740992614225e-04  2.5946938778835559e-04  2.6662070235750323e-04 
 2.7397748433108854e-04  2.8154607403421146e-04  2.8933302960509682e-04  2.9734513554600077e-04 
 3.0558941165772076e-04  3.1407312237692261e-04  3.2280378653654475e-04  3.3178918757064281e-04 
 3.4103738418620968e-04  3.5055672152573935e-04  3.6035584284561917e-04  3.7044370173681284e-04 
 3.8082957491577157e-04  3.9152307561505909e-04  4.0253416760482603e-04  4.1387317987800804e-04 
 4.2555082203397086e-04  4.3757820039727944e-04  4.4996683491034192e-04  4.6272867684087754e-04 
 4.7587612734747818e-04  4.8942205694901158e-04  5.0337982594622220e-04  5.1776330584666491e-04 
 5.3258690184704771e-04  5.4786557643018107e-04  5.6361487413704426e-04  5.7985094757798876e-04 
 5.9659058475083340e-04  6.1385123773755447e-04  6.3165105285548084e-04  6.5000890234336126e-04 
 6.6894441766740097e-04  6.8847802453739834e-04  7.0863097972844596e-04  7.2942540980933275e-04 
 7.5088435188480607e-04  7.7303179646525972e-04  7.9589273258420031e-04  8.1949319529108183e-04 
 8.4386031565477542e-04  8.6902237342110003e-04  8.9500885247652175e-04  9.2185049927935125e-04 
 9.4957938442957540e-04  9.7822896755889329e-04  1.0078341657336117e-03  1.0384314255748469e-03 
 1.0700587993130359e-03  1.1027560250070807e-03  1.1365646111726707e-03  1.1715279260793938e-03 
 1.2076912919923302e-03  1.2451020846509064e-03  1.2838098382959536e-03  1.3238663565752712e-03 
 1.3653258296785664e-03  1.4082449580745389e-03  1.4526830832461719e-03  1.4987023258450850e-03 
 1.5463677317121669e-03  1.5957474262397664e-03  1.6469127775805743e-03  1.6999385692400778e-03 
 1.7549031826232363e-03  1.8118887901419863e-03  1.8709815595283604e-03  1.9322718700386556e-03 
 1.9958545412773177e-03  2.0618290754150833e-03  2.1302999136248264e-03  2.2013767076103901e-03 
 2.2751746071588553e-03  2.3518145647052698e-03  2.4314236579610635e-03  2.5141354317234485e-03 
 2.6000902600531845e-03  2.6894357300825192e-03  2.7823270487939973e-03  2.8789274741945104e-03 
 2.9794087723976335e-03  3.0839517022212162e-03  3.1927465290066768e-03  3.3059935694716709e-03 
 3.4239037695191214e-03  3.5466993170432263e-03  3.6746142918973610e-03  3.8078953553197961e-03 
 3.9468024812515483e-03  4.0916097321262610e-03  4.2426060818653499e-03  4.4000962889728440e-03 
 4.5644018227936319e-03  4.7358618461763556e-03  4.9148342579681892e-03  5.1016967989632213e-03 
 5.2968482251292501e-03  5.5007095521494628e-03  5.7137253755356644e-03  5.9363652707982648e-03 
 6.1691252783948212e-03  6.4125294784233835e-03  6.6671316602784020e-03  6.9335170927451711e-03 
 7.2123044002727248e-03  7.5041475514335994e-03  7.8097379658510751e-03  8.1298067461484137e-03 
 8.4651270417487306e-03  8.8165165516261596e-03  9.1848401733765090e-03  9.5710128062354953e-03 
 9.9760023159217899e-03  1.0400832669416207e-02  1.0846587248003340e-02  1.1314412347092151e-02 
 1.1805520871492073e-02  1.2321196234944081e-02  1.2862796472784708e-02  1.3431758576646472e-02 
 1.4029603060061473e-02  1.4657938763725148e-02  1.5318467908983214e-02  1.6012991407812729e-02 
 1.6743414437164938e-02  1.7511752285006177e-02  1.8320136474717107e-02  1.9170821173670669e-02 
 2.0066189890785222e-02  2.1008762466618872e-02  2.2001202358110254e-02  2.3046324218354647e-02 
 2.4147101769804332e-02  2.5306675966970692e-02  2.6528363442050881e-02  2.7815665223873742e-02 
 2.9172275717123958e-02  3.0602091924926762e-02  3.2109222893524442e-02  3.3697999352914801e-02 
 3.5372983521919282e-02  3.7138979040169481e-02  3.9001040982919122e-02  4.0964485907373664e-02 
 4.3034901871362143e-02  4.5218158356637027e-02  4.7520416019869491e-02  4.9948136184508551e-02 
 5.2508089976103497e-02  5.5207366992473507e-02  5.8053383388284419e-02  6.1053889241217449e-02 
 6.4216975054062125e-02  6.7551077233838436e-02  7.1064982375569519e-02  7.4767830164742116e-02 
 7.8669114698982134e-02  8.2778684016249299e-02  8.7106737604158213e-02  9.1663821653127184e-02 
 9.6460821805246413e-02  1.0150895314135591e-01  1.0681974714116677e-01  1.1240503534569968e-01 
 1.1827692944818154e-01  1.2444779753915623e-01  1.3093023623421471e-01  1.3773703841864249e-01 
 1.4488115635256266e-01  1.5237565989283988e-01  1.6023368960400494e-01  1.6846840454950301e-01 
 1.7709292457626311e-01  1.8612026692937375e-01  1.9556327705888518e-01  2.0543455350673118e-01 
 2.1574636678784839e-01  2.2651057220531612e-01  2.3773851656472311e-01  2.4944093877853149e-01 
 2.6162786437837121e-01  2.7430849398442358e-01  2.8749108582003641e-01  3.0118283241146571e-01 
 3.1538973168337298e-01  3.3011645275758800e-01  3.4536619689325121e-01  3.6114055417800578e-01 
 3.7743935679827717e-01  3.9426052998512129e-01  4.1159994204993272e-01  4.2945125528532674e-01 
 4.4780577989773884e-01  4.6665233353872443e-01  4.8597710938201161e-01  5.0576355601547407e-01 
 5.2599227263821291e-01  5.4664092312895529e-01  5.6768417244596325e-01  5.8909364851009671e-01 
 6.1083793221686089e-01  6.3288257755725430e-01  6.5519016306825939e-01  6.7772037506880412e-01 
 7.0043012245382941e-01  7.2327368228527256e-01  7.4620287506481564e-01  7.6916726838619476e-01 
 7.9211440759383100e-01  8.1499007204440166e-01  8.3773855549463849e-01  8.6030296894059621e-01 
 8.8262556383701707e-01  9.0464807296657579e-01  9.2631206526002352e-01  9.4755930957355583e-01 
 9.6833214085603136e-01  9.8857382043886333e-01  1.0082288806557005e+00  1.0272434431050042e+00 
 1.0455655001618378e+00  1.0631451513222754e+00  1.0799347898238316e+00  1.0958892403949365e+00 
 1.1109658549912362e+00  1.1251245785793047e+00  1.1383280000327496e+00  1.1505414031483805e+00 
 1.1617328305052983e+00  1.1718731710266364e+00  1.1809362404619452e+00  1.1888989168256126e+00 
 1.1957412592153758e+00  1.2014466262978891e+00  1.2060017834753396e+00  1.2093969897349317e+00 
 1.2116260585399543e+00  1.2126863896113198e+00  1.2125789706136951e+00  1.2113083494573960e+00 
 1.2088825791020750e+00  1.2053131374477708e+00  1.2006148252202244e+00  1.1948056448098734e+00 
 1.1879066629063535e+00  1.1799418595604185e+00  1.1709379660580113e+00  1.1609242937418258e+00 
 1.1499325556838884e+00  1.1379966829072774e+00  1.1251526366783371e+00  1.1114382182405995e+00 
 1.0968928772343898e+00  1.0815575199372054e+00  1.0654743183650996e+00  1.0486865211904817e+00 
 1.0312382673535683e+00  1.0131744031733145e+00  9.9454030369100732e-01  9.7538169890784432e-01 
 9.5574450551539580e-01  9.3567466464889881e-01  9.1521798639549301e-01  8.9442000009626554e-01 
 8.7332581348580907e-01  8.5197997823796923e-01  8.3042636347889187e-01  8.0870803715772666e-01 
 7.8686715538260765e-01  7.6494485978276705e-01  7.4298118291509774e-01  7.2101496169517154e-01 
 6.9908375879882423e-01  6.7722379195033022e-01  6.5546987098671738e-01  6.3385534256473375e-01 
 6.1241204235675339e-01  5.9117025456414063e-01  5.7015867856091729e-01  5.4940440246656208e-01 
 5.2893288343417311e-01  5.0876793442871648e-01  4.8893171725950835e-01  4.6944474162125316e-01 
 4.5032586988869822e-01  4.3159232740248993e-01  4.1325971797479955e-01  3.9534204433658648e-01 
 3.7785173324340043e-01  3.6079966494815646e-01  3.4419520674830023e-01  3.2804625031115170e-01 
 3.1235925247616153e-01  2.9713927923348621e-01  2.8239005257784722e-01  2.6811399993760981e-01 
 2.5431230588117171e-01  2.4098496580603448e-01  2.2813084132028902e-01  2.1574771703163331e-01 
 2.0383235846539538e-01  1.9238057084039728e-01  1.8138725843956160e-01  1.7084648432107516e-01 
 1.6075153012555829e-01  1.5109495574491860e-01  1.4186865862936360e-01  1.3306393252032062e-01 
 1.2467152540869715e-01  1.1668169652995089e-01  1.0908427221976329e-01  1.0186870046661160e-01 
 9.5024104010160912e-02  8.8539331847206859e-02  8.2403009019727080e-02  7.6603584572363367e-02 
 7.1129377579380926e-02  6.5968621153771403e-02  6.1109504363632855e-02  5.6540211993229533e-02 
 5.2248962098172119e-02  4.8224041315921007e-02  4.4453837904273548e-02  4.0926872491608243e-02 
 3.7631826533395168e-02  3.4557568479808932e-02  3.1693177669166010e-02  2.9027965971320291e-02 
 2.6551497214053744e-02  2.4253604433968109e-02  2.2124405001086991e-02  2.0154313673645098e-02 
 1.8334053646407545e-02  1.6654665661775491e-02  1.5107515258408616e-02  1.3684298236983503e-02 
 1.2377044426936008e-02  1.1178119841664820e-02  1.0080227312705806e-02  9.0764056958324620e-03 
 8.1600277439135456e-03  7.3247967426802270e-03  6.5647420063406764e-03  5.8742133302461287e-03 
 5.2478744975803290e-03  4.6806959363320444e-03  4.1679466216257895e-03  3.7051853168575894e-03 
 3.2882512450263506e-03  2.9132542791779534e-03  2.5765647380160254e-03  2.2748028694979678e-03 
 2.0048281016578390e-03  1.7637281360056581e-03  1.5488079546691843e-03  1.3575788080182635e-03 
 1.1877472448777869e-03  1.0372042426285003e-03  9.0401448956682238e-04  7.8640586688775212e-04 
 6.8275917261542761e-04  5.9159812477969735e-04  5.1157967616892572e-04  4.4148466812193713e-04 
 3.8020884609567122e-04  3.2675425519659374e-04  2.8022102952623279e-04  2.3979958509316981e-04 
 2.0476322220967398e-04  1.7446113974044808e-04  1.4831186031833451e-04  1.2579706269721439e-04 
 1.0645581478086894e-04  8.9879198548810895e-05  7.5705316092453896e-05  6.3614664269885169e-05 
 5.3325864073892930e-05  4.4591729671744772e-05  3.7195661200017656e-05  3.0948344765121524e-05 
 2.5684742690249791e-05  2.1261356841705251e-05  1.7553747840915255e-05  1.4454293102071726e-05 
 1.1870166908765983e-05  9.7215261365346497e-06  7.9398857231581334e-06  6.4666685672510778e-06 
 5.2519151817787218e-06  4.2531391275315785e-06  3.4343149885050379e-06  2.7649864140663234e-06 
 2.2194825305243371e-06  1.7762318072529817e-06  1.4171632410460753e-06  1.1271854892261279e-06 
 8.9373533059736306e-07  7.0638755806026777e-07  5.5651910299726878e-07  4.3702085571651778e-07 
 3.4205127547467445e-07  2.6682647584942924e-07  2.0744202517915107e-07  1.6072221676375959e-07 
 1.2409303944308771e-07  9.5475516462573314e-08  7.3196480066550250e-08  5.5914212261597988e-08 
 4.2556710202983891e-08  3.2270629450042557e-08  2.4379221862041749e-08  1.8347819236561041e-08 
 1.3755621070512243e-08  1.0272727218954861e-08  7.6415158959300491e-09  5.6616065168873322e-09 
 4.1777673643388191e-09  3.0702319143829328e-09  2.2469767295231053e-09  1.6375898197165529e-09 
 1.1884228876793003e-09  8.5877536343788455e-10  6.1790392245127043e-10  4.4268946754038834e-10 
 3.1582540909337232e-10  2.2441745454743204e-10  1.5890686157881797e-10  1.1224696482238390e-10 
 0.0000000000000000e+00  0.0000000000000000e+00  0.0000000000000000e+00  0.0000000000000000e+00 
 0.0000000000000000e+00  0.0000000000000000e+00  0.0000000000000000e+00  0.0000000000000000e+00 
 0.0000000000000000e+00  0.0000000000000000e+00  0.0000000000000000e+00  0.0000000000000000e+00 
 0.0000000000000000e+00  0.0000000000000000e+00  0.0000000000000000e+00  0.0000000000000000e+00 
 0.0000000000000000e+00  0.0000000000000000e+00  0.0000000000000000e+00  0.0000000000000000e+00 
 0.0000000000000000e+00  0.0000000000000000e+00  0.0000000000000000e+00  0.0000000000000000e+00 
 0.0000000000000000e+00  0.0000000000000000e+00  0.0000000000000000e+00  0.0000000000000000e+00 
 0.0000000000000000e+00  0.0000000000000000e+00  0.0000000000000000e+00  0.0000000000000000e+00 
 0.0000000000000000e+00  0.0000000000000000e+00  0.0000000000000000e+00  0.0000000000000000e+00 
 0.0000000000000000e+00  0.0000000000000000e+00  0.0000000000000000e+00  0.0000000000000000e+00 
 0.0000000000000000e+00  0.0000000000000000e+00  0.0000000000000000e+00  0.0000000000000000e+00 
 0.0000000000000000e+00  0.0000000000000000e+00  0.0000000000000000e+00  0.0000000000000000e+00 
 0.0000000000000000e+00  0.0000000000000000e+00  0.0000000000000000e+00  0.0000000000000000e+00 
 0.0000000000000000e+00  0.0000000000000000e+00  0.0000000000000000e+00  0.0000000000000000e+00 
 0.0000000000000000e+00  0.0000000000000000e+00  0.0000000000000000e+00  0.0000000000000000e+00 
 0.0000000000000000e+00  0.0000000000000000e+00  0.0000000000000000e+00  0.0000000000000000e+00 
 0.0000000000000000e+00  0.0000000000000000e+00  0.0000000000000000e+00  0.0000000000000000e+00 
 0.0000000000000000e+00  0.0000000000000000e+00  0.0000000000000000e+00  0.0000000000000000e+00 
 0.0000000000000000e+00  0.0000000000000000e+00  0.0000000000000000e+00  0.0000000000000000e+00 
 0.0000000000000000e+00  0.0000000000000000e+00  0.0000000000000000e+00  0.0000000000000000e+00 
 0.0000000000000000e+00  0.0000000000000000e+00  0.0000000000000000e+00  0.0000000000000000e+00 
 0.0000000000000000e+00  0.0000000000000000e+00  0.0000000000000000e+00  0.0000000000000000e+00 
 0.0000000000000000e+00  0.0000000000000000e+00  0.0000000000000000e+00  0.0000000000000000e+00 
 0.0000000000000000e+00  0.0000000000000000e+00  0.0000000000000000e+00  0.0000000000000000e+00 
 0.0000000000000000e+00  0.0000000000000000e+00  0.0000000000000000e+00  0.0000000000000000e+00 
 0.0000000000000000e+00  0.0000000000000000e+00  0.0000000000000000e+00  0.0000000000000000e+00 
 0.0000000000000000e+00  0.0000000000000000e+00  0.0000000000000000e+00  0.0000000000000000e+00 
 0.0000000000000000e+00  0.0000000000000000e+00  0.0000000000000000e+00  0.0000000000000000e+00 
 0.0000000000000000e+00  0.0000000000000000e+00  0.0000000000000000e+00  0.0000000000000000e+00 
 0.0000000000000000e+00  0.0000000000000000e+00  0.0000000000000000e+00  0.0000000000000000e+00 
 0.0000000000000000e+00  0.0000000000000000e+00  0.0000000000000000e+00  0.0000000000000000e+00 
 0.0000000000000000e+00  0.0000000000000000e+00  0.0000000000000000e+00  0.0000000000000000e+00 
 0.0000000000000000e+00  0.0000000000000000e+00  0.0000000000000000e+00  0.0000000000000000e+00 
 0.0000000000000000e+00  0.0000000000000000e+00  0.0000000000000000e+00  0.0000000000000000e+00 
 0.0000000000000000e+00  0.0000000000000000e+00  0.0000000000000000e+00  0.0000000000000000e+00 
 0.0000000000000000e+00  0.0000000000000000e+00  0.0000000000000000e+00  0.0000000000000000e+00 
 0.0000000000000000e+00  0.0000000000000000e+00  0.0000000000000000e+00  0.0000000000000000e+00 
 0.0000000000000000e+00  0.0000000000000000e+00  0.0000000000000000e+00  0.0000000000000000e+00 
 0.0000000000000000e+00  0.0000000000000000e+00  0.0000000000000000e+00  0.0000000000000000e+00 
 0.0000000000000000e+00  0.0000000000000000e+00  0.0000000000000000e+00  0.0000000000000000e+00 
 0.0000000000000000e+00  0.0000000000000000e+00  0.0000000000000000e+00  0.0000000000000000e+00 
 0.0000000000000000e+00  0.0000000000000000e+00  0.0000000000000000e+00  0.0000000000000000e+00 
 0.0000000000000000e+00  0.0000000000000000e+00  0.0000000000000000e+00  0.0000000000000000e+00 
 0.0000000000000000e+00  0.0000000000000000e+00  0.0000000000000000e+00  0.0000000000000000e+00 
 0.0000000000000000e+00  0.0000000000000000e+00  0.0000000000000000e+00  0.0000000000000000e+00 
 0.0000000000000000e+00  0.0000000000000000e+00  0.0000000000000000e+00  0.0000000000000000e+00 
 0.0000000000000000e+00  0.0000000000000000e+00  0.0000000000000000e+00  0.0000000000000000e+00 
 0.0000000000000000e+00 
P    1   4.00          Wavefunction
 5.1567677698475186e-11  5.2926019263168081e-11  5.4320140834294666e-11  5.5750984891228045e-11 
 5.7219518739145496e-11  5.8726735162963883e-11  6.0273653098500420e-11  6.1861318321312356e-11 
 6.3490804153681438e-11  6.5163212190220965e-11  6.6879673042596084e-11  6.8641347103860750e-11 
 7.0449425332927928e-11  7.2305130059703725e-11  7.4209715811429328e-11  7.6164470160789727e-11 
 7.8170714596362311e-11  8.0229805415994017e-11  8.2343134643711006e-11  8.4512130970780281e-11 
 8.6738260721560253e-11  8.9023028844792267e-11  9.1367979931004142e-11  9.3774699256712784e-11 
 9.6244813856132284e-11  9.8779993621111798e-11  1.0138195243004697e-10  1.0405244930652766e-10 
 1.0679328960850613e-10  1.0960632624878839e-10  1.1249346094767520e-10  1.1545664551859825e-10 
 1.1849788318762178e-10  1.2161922994770062e-10  1.2482279594861117e-10  1.2811074692349433e-10 
 1.3148530565297501e-10  1.3494875346784786e-10  1.3850343179134558e-10  1.4215174372203161e-10 
 1.4589615565838812e-10  1.4973919896619719e-10  1.5368347168984232e-10  1.5773164030868752e-10 
 1.6188644153972095e-10  1.6615068418768216e-10  1.7052725104392342e-10  1.7501910083528905e-10 
 1.7962927022432997e-10  1.8436087586220604e-10  1.8921711649566403e-10  1.9420127512951496e-10 
 1.9931672124607422e-10  2.0456691308306270e-10  2.0995539997151128e-10  2.1548582473524739e-10 
 2.2116192615358681e-10  2.2698754148889484e-10  2.3296660908072649e-10  2.3910317100829852e-10 
 2.4540137582309400e-10  2.5186548135344616e-10  2.5849985758299819e-10  2.6530898960498423e-10 
 2.7229748065432910e-10  2.7947005521961723e-10  2.8683156223703325e-10  2.9438697836843493e-10 
 3.0214141136577345e-10  3.1010010352413592e-10  3.1826843522574523e-10  3.2665192857731177e-10 
 3.3525625114319724e-10  3.4408721977691355e-10  3.5315080455354786e-10  3.6245313280577095e-10 
 3.7200049326615948e-10  3.8179934031862979e-10  3.9185629836186102e-10  4.0217816628765298e-10 
 4.1277192207725042e-10  4.2364472751873896e-10  4.3480393304870212e-10  4.4625708272141195e-10 
 4.5801191930891518e-10  4.7007638953545975e-10  4.8245864944980184e-10  4.9516706993902607e-10 
 5.0821024238760470e-10  5.2159698448552349e-10  5.3533634618939896e-10  5.4943761584061841e-10 
 5.6391032644463948e-10  5.7876426211569126e-10  5.9400946469123767e-10  6.0965624052067198e-10 
 6.2571516743283440e-10  6.4219710188706008e-10  6.5911318631259577e-10  6.7647485664134281e-10 
 6.9429385003902294e-10  7.1258221283999069e-10  7.3135230869105804e-10  7.5061682690983674e-10 
 7.7038879106324829e-10  7.9068156777200481e-10  8.1150887574700352e-10  8.3288479506375927e-10 
 8.5482377668112829e-10  8.7734065221077201e-10  9.0045064394395692e-10  9.2416937514247248e-10 
 9.4851288060062729e-10  9.7349761748545567e-10  9.9914047646247318e-10  1.0254587931144949e-09 
 1.0524703596612418e-09  1.0801934369876522e-09  1.1086467669890388e-09  1.1378495852414278e-09 
 1.1678216340056552e-09  1.1985831755740025e-09  1.2301550059684029e-09  1.2625584689994748e-09 
 1.2958154706958891e-09  1.3299484941138230e-09  1.3649806145365149e-09  1.4009355150741966e-09 
 1.4378375026749469e-09  1.4757115245572920e-09  1.5145831850756657e-09  1.5544787630301246e-09 
 1.5954252294320261e-09  1.6374502657376799e-09  1.6805822825622999e-09  1.7248504388869040e-09 
 1.7702846617711522e-09  1.8169156665854531e-09  1.8647749777760048e-09  1.9138949501768254e-09 
 1.9643087908831671e-09  2.0160505817011126e-09  2.0691553021885219e-09  2.1236588533029199e-09 
 2.1795980816722973e-09  2.2370108045052476e-09  2.2959358351572698e-09  2.3564130093705322e-09 
 2.4184832122048306e-09  2.4821884056779526e-09  2.5475716571341294e-09  2.6146771683597628e-09 
 2.6835503054661100e-09  2.7542376295591175e-09  2.8267869282171661e-09  2.9012472477979791e-09 
 2.9776689265965556e-09  3.0561036288765428e-09  3.1366043797980540e-09  3.2192256012655418e-09 
 3.3040231487199786e-09  3.3910543489002037e-09  3.4803780385989739e-09  3.5720546044399260e-09 
 3.6661460237023350e-09  3.7627159062212750e-09  3.8618295373915162e-09  3.9635539223042288e-09 
 4.0679578310463286e-09  4.1751118451931123e-09  4.2850884055255864e-09  4.3979618610047903e-09 
 4.5138085190361962e-09  4.6327066970581760e-09  4.7547367754894298e-09  4.8799812520711663e-09 
 5.0085247976407720e-09  5.1404543133746950e-09  5.2758589895392268e-09  5.4148303657889296e-09 
 5.5574623930534587e-09  5.7038514970546422e-09  5.8540966434967516e-09  6.0082994049740432e-09 
 6.1665640296408268e-09  6.3289975116904766e-09  6.4957096636910278e-09  6.6668131908263199e-09 
 6.8424237670928159e-09  7.0226601135036923e-09  7.2076440783530157e-09  7.3975007195943221e-09 
 7.5923583893892873e-09  7.7923488208836518e-09  7.9976072172691030e-09  8.2082723431912991e-09 
 8.4244866185658797e-09  8.6463962148658773e-09  8.8741511539456879e-09  9.1079054094683237e-09 
 9.3478170110046768e-09  9.5940481508750506e-09  9.8467652938053222e-09  1.0106139289471805e-08 
 1.0372345488010963e-08  1.0645563858572078e-08  1.0925979110993050e-08  1.1213780820681593e-08 
 1.1509163556786303e-08  1.1812327013744266e-08  1.2123476146294152e-08  1.2442821308046143e-08 
 1.2770578393702380e-08  1.3106968985024098e-08  1.3452220500644198e-08  1.3806566349826561e-08 
 1.4170246090276123e-08  1.4543505590106366e-08  1.4926597194073879e-08  1.5319779894192307e-08 
 1.5723319504841229e-08  1.6137488842488213e-08  1.6562567910145817e-08  1.6998844086688146e-08 
 1.7446612321155073e-08  1.7906175332175631e-08  1.8377843812645365e-08  1.8861936639796156e-08 
 1.9358781090800636e-08  1.9868713064057090e-08  2.0392077306304451e-08  2.0929227645721199e-08 
 2.1480527231165770e-08  2.2046348777720383e-08  2.2627074818704561e-08  2.3223097964328753e-08 
 2.3834821167163217e-08  2.4462657994601782e-08  2.5107032908505144e-08  2.5768381552212686e-08 
 2.6447151045117541e-08  2.7143800285004101e-08  2.7858800258352951e-08  2.8592634358823329e-08 
 2.9345798714128990e-08  3.0118802521528909e-08  3.0912168392160293e-08  3.1726432704447293e-08 
 3.2562145966825118e-08  3.3419873190025449e-08  3.4300194269175733e-08  3.5203704375971588e-08 
 3.6131014361188367e-08  3.7082751167805021e-08  3.8059558255020507e-08  3.9062096033450423e-08 
 4.0091042311799205e-08  4.1147092755310562e-08  4.2230961356306957e-08  4.3343380917136916e-08 
 4.4485103545856778e-08  4.5656901164982233e-08  4.6859566033652703e-08  4.8093911283560884e-08 
 4.9360771469007626e-08  5.0661003131451748e-08  5.1995485378932771e-08  5.3365120480753799e-08 
 5.4770834477821617e-08  5.6213577809049810e-08  5.7694325954242041e-08  5.9214080093882130e-08 
 6.0773867786270026e-08  6.2374743662453637e-08  6.4017790139421627e-08  6.5704118152033621e-08 
 6.7434867904181415e-08  6.9211209639688944e-08  7.1034344433475493e-08  7.2905505003524460e-08 
 7.4825956544215807e-08  7.6796997581598006e-08  7.8819960851191906e-08  8.0896214198935581e-08 
 8.3027161505895306e-08  8.5214243637383603e-08  8.7458939417141405e-08  8.9762766627256133e-08 
 9.2127283034505273e-08  9.4554087443829659e-08  9.7044820779710268e-08  9.9601167196905808e-08 
 1.0222485522280905e-07  1.0491765892761691e-07  1.0768139912463825e-07  1.1051794460220785e-07 
 1.1342921338808750e-07  1.1641717404721162e-07  1.1948384701365712e-07  1.2263130595774209e-07 
 1.2586167918918025e-07  1.2917715109724445e-07  1.3257996362891509e-07  1.3607241780601848e-07 
 1.3965687528238351e-07  1.4333575994207468e-07  1.4711155953978613e-07  1.5098682738451088e-07 
 1.5496418406762816e-07  1.5904631923658313e-07  1.6323599341536303e-07  1.6753603987300698e-07 
 1.7194936654141873e-07  1.7647895798378544e-07  1.8112787741494020e-07  1.8589926877504151e-07 
 1.9079635885797877e-07  1.9582245949595218e-07  2.0098096980171061e-07  2.0627537846997349e-07 
 2.1170926613960132e-07  2.1728630781812274e-07  2.2301027537026629e-07  2.2888504007219065e-07 
 2.3491457523315255e-07  2.4110295888639557e-07  2.4745437655109340e-07  2.5397312406722630e-07 
 2.6066361050532342e-07  2.6753036115305165e-07  2.7457802058068760e-07  2.8181135578755869e-07 
 2.8923525943160164e-07  2.9685475314423774e-07  3.0467499093282609e-07  3.1270126267301518e-07 
 3.2093899769337596e-07  3.2939376845476264e-07  3.3807129432691098e-07  3.4697744546485538e-07 
 3.5611824678780812e-07  3.6549988206322321e-07  3.7512869809883079e-07  3.8501120904551100e-07 
 3.9515410081394703e-07  4.0556423560807807e-07  4.1624865657845334e-07  4.2721459259867178e-07 
 4.3846946316817780e-07  4.5002088344476649e-07  4.6187666941025098e-07  4.7404484317282603e-07 
 4.8653363840976581e-07  4.9935150595418694e-07  5.1250711952970768e-07  5.2600938163694057e-07 
 5.3986742959585646e-07  5.5409064174817409e-07  5.6868864382403118e-07  5.8367131547731560e-07 
 5.9904879699415154e-07  6.1483149617915290e-07  6.3103009542418381e-07  6.4765555896449556e-07 
 6.6471914032723672e-07  6.8223238997746752e-07  7.0020716316695827e-07  7.1865562799117760e-07 
 7.3759027366003943e-07  7.5702391898811641e-07  7.7696972111018818e-07  7.9744118442815216e-07 
 8.1845216979548306e-07  8.4001690394560282e-07  8.6214998917068650e-07  8.8486641325762138e-07 
 9.0818155968799813e-07  9.3211121810922349e-07  9.5667159508401939e-07  9.8187932512578539e-07 
 1.0077514820274893e-06  1.0343055904919817e-06  1.0615596380718257e-06  1.0895320874269676e-06 
 1.1182418889087991e-06  1.1477084934793955e-06  1.1779518659749559e-06  1.2089924987227216e-06 
 1.2408514255209013e-06  1.2735502359913976e-06  1.3071110903153965e-06  1.3415567343621648e-06 
 1.3769105152216745e-06  1.4131963971519929e-06  1.4504389779526408e-06  1.4886635057754730e-06 
 1.5278958963849334e-06  1.5681627508798661e-06  1.6094913738894188e-06  1.6519097922559085e-06 
 1.6954467742178916e-06  1.7401318491070365e-06  1.7859953275728056e-06  1.8330683223493023e-06 
 1.8813827695790978e-06  1.9309714507092141e-06  1.9818680149749161e-06  2.0341070024873700e-06 
 2.0877238679417060e-06  2.1427550049624805e-06  2.1992377711040050e-06  2.2572105135235469e-06 
 2.3167125953458519e-06  2.3777844227380456e-06  2.4404674727144388e-06  2.5048043216913877e-06 
 2.5708386748128945e-06  2.6386153960682395e-06  2.7081805392235688e-06  2.7795813795899635e-06 
 2.8528664466512068e-06  2.9280855575750939e-06  3.0052898516328606e-06  3.0845318255520160e-06 
 3.1658653698285762e-06  3.2493458060255032e-06  3.3350299250848895e-06  3.4229760266822890e-06 
 3.5132439596523831e-06  3.6058951635160845e-06  3.7009927111400316e-06  3.7986013525603620e-06 
 3.8987875600036198e-06  4.0016195741386051e-06  4.1071674515940039e-06  4.2155031137776841e-06 
 4.3267003970346209e-06  4.4408351041815126e-06  4.5579850574573645e-06  4.6782301529304264e-06 
 4.8016524164031448e-06  4.9283360608581069e-06  5.0583675454891768e-06  5.1918356363634619e-06 
 5.3288314687611276e-06  5.4694486112415458e-06  5.6137831314857313e-06  5.7619336639666642e-06 
 5.9140014795005986e-06  6.0700905567342003e-06  6.2303076556241123e-06  6.3947623929671906e-06 
 6.5635673200417089e-06  6.7368380024215751e-06  6.9146931020276639e-06  7.0972544614824230e-06 
 7.2846471908360791e-06  7.4769997567348198e-06  7.6744440741038574e-06  7.8771156004204436e-06 
 8.0851534326544445e-06  8.2987004069566905e-06  8.5179032011778094e-06  8.7429124403031878e-06 
 8.9738828048923226e-06  9.2109731426140394e-06  9.4543465829718382e-06  9.7041706553170505e-06 
 9.9606174102505983e-06  1.0223863544517730e-05  1.0494090529503541e-05  1.0771484743440856e-05 
 1.1056237607445865e-05  1.1348545725500866e-05  1.1648611028507736e-05  1.1956640922539815e-05 
 1.2272848441424666e-05  1.2597452403794580e-05  1.2930677574746732e-05  1.3272754832259753e-05 
 1.3623921338518902e-05  1.3984420716307321e-05  1.4354503230626663e-05  1.4734425975716213e-05 
 1.5124453067645774e-05  1.5524855842664061e-05  1.5935913061490956e-05  1.6357911119748979e-05 
 1.6791144264736512e-05  1.7235914818752957e-05  1.7692533409193777e-05  1.8161319205641619e-05 
 1.8642600164188375e-05  1.9136713279231687e-05  1.9644004842999052e-05  2.0164830713062116e-05 
 2.0699556588114068e-05  2.1248558292293445e-05  2.1812222068348936e-05  2.2390944879951039e-05 
 2.2985134723468639e-05  2.3595210949541157e-05  2.4221604594789916e-05  2.4864758724026180e-05 
 2.5525128783327823e-05  2.6203182964371213e-05  2.6899402580420969e-05  2.7614282454396362e-05 
 2.8348331319450466e-05  2.9102072232515881e-05  2.9876043001289968e-05  3.0670796625151698e-05 
 3.1486901750523268e-05  3.2324943141210676e-05  3.3185522164280505e-05  3.4069257292053076e-05 
 3.4976784620817535e-05  3.5908758406899946e-05  3.6865851620742371e-05  3.7848756519680059e-05 
 3.8858185240132796e-05  3.9894870409958215e-05  4.0959565781747603e-05  4.2053046887878758e-05 
 4.3176111718176737e-05  4.4329581421071040e-05  4.5514301029177373e-05  4.6731140210273618e-05 
 4.7980994044683784e-05  4.9264783830128626e-05  5.0583457915150792e-05  5.1937992562272093e-05 
 5.3329392842093874e-05  5.4758693559607247e-05  5.6226960214038429e-05  5.7735289993615989e-05 
 5.9284812806711426e-05  6.0876692350872811e-05  6.2512127221342118e-05  6.4192352060722790e-05 
 6.5918638751542437e-05  6.7692297653539350e-05  6.9514678887588465e-05  7.1387173668274842e-05 
 7.3311215687219526e-05  7.5288282549364414e-05  7.7319897264530751e-05  7.9407629796677775e-05 
 8.1553098673408525e-05  8.3757972658393882e-05  8.6023972489518872e-05  8.8352872685694227e-05 
 9.0746503425422417e-05  9.3206752500362845e-05  9.5735567347302524e-05  9.8334957162112154e-05 
 1.0100699509944650e-04  1.0375382056214107e-04  1.0657764158445708e-04  1.0948073731354038e-04 
 1.1246546059368358e-04  1.1553424065821797e-04  1.1868958593411115e-04  1.2193408696461073e-04 
 1.2527041945555289e-04  1.2870134745124806e-04  1.3222972664616797e-04  1.3585850783898537e-04 
 1.3959074053586555e-04  1.4342957671027457e-04  1.4737827472695688e-04  1.5144020343814467e-04 
 1.5561884646049330e-04  1.5991780664169748e-04  1.6434081072622296e-04  1.6889171423010586e-04 
 1.7357450653530921e-04  1.7839331621470280e-04  1.8335241659933829e-04  1.8845623160033360e-04 
 1.9370934179836280e-04  1.9911649081446489e-04  2.0468259197665254e-04  2.1041273529760421e-04 
 2.1631219477958477e-04  2.2238643606364321e-04  2.2864112444110051e-04  2.3508213324635696e-04 
 2.4171555265113271e-04  2.4854769888139715e-04  2.5558512387946172e-04  2.6283462543499826e-04 
 2.7030325781011142e-04  2.7799834288504854e-04  2.8592748185266747e-04  2.9409856749141889e-04 
 3.0251979704833684e-04  3.1119968576537256e-04  3.2014708108436476e-04  3.2937117756802004e-04 
 3.3888153257648538e-04  3.4868808274144151e-04  3.5880116128214151e-04  3.6923151621047148e-04 
 3.7999032947492708e-04  3.9108923709639878e-04  4.0254035035184796e-04  4.1435627806534251e-04 
 4.2655015006953177e-04  4.3913564190447765e-04  4.5212700082484061e-04  4.6553907319076882e-04 
 4.7938733332246621e-04  4.9368791390333911e-04  5.0845763802186822e-04  5.2371405294794203e-04 
 5.3947546574533171e-04  5.5576098082833411e-04  5.7259053957735924e-04  5.8998496213543284e-04 
 6.0796599151526326e-04  6.2655634015468264e-04  6.4577973906700516e-04  6.6566098974211649e-04 
 6.8622601896402768e-04  7.0750193672118730e-04  7.2951709739710910e-04  7.5230116444089062e-04 
 7.7588517873001541e-04  8.0030163085150711e-04  8.2558453754208807e-04  8.5176952254356608e-04 
 8.7889390214627528e-04  9.0699677571113072e-04  9.3611912147975877e-04  9.6630389800236296e-04 
 9.9759615153451942e-04  1.0300431297770988e-03  1.0636944023580464e-03  1.0986019884809469e-03 
 1.1348204921932733e-03  1.1724072457570329e-03  1.2114224616363990e-03  1.2519293936508926e-03 
 1.2939945078789623e-03  1.3376876639355142e-03  1.3830823072882561e-03  1.4302556733217968e-03 
 1.4792890039054451e-03  1.5302677772708270e-03  1.5832819520589176e-03  1.6384262264531266e-03 
 1.6958003133759076e-03  1.7555092327911548e-03  1.8176636222237775e-03  1.8823800666814016e-03 
 1.9497814492415706e-03  2.0199973236512676e-03  2.0931643103744538e-03  2.1694265176178018e-03 
 2.2489359889653767e-03  2.3318531793598838e-03  2.4183474612816383e-03  2.5085976630970317e-03 
 2.6027926416762395e-03  2.7011318915156736e-03  2.8038261927445700e-03  2.9110983005474862e-03 
 3.0231836786957676e-03  3.1403312800515398e-03  3.2628043770878985e-03  3.3908814456590467e-03 
 3.5248571054543832e-03  3.6650431207814614e-03  3.8117694655443735e-03  3.9653854565167559e-03 
 4.1262609592525191e-03  4.2947876712323635e-03  4.4713804871105165e-03  4.6564789512035199e-03 
 4.8505488026511718e-03  5.0540836189786054e-03  5.2676065640972682e-03  5.4916722471006112e-03 
 5.7268686985367445e-03  5.9738194711736583e-03  6.2331858726117472e-03  6.5056693374411067e-03 
 6.7920139469853768e-03  7.0930091050170774e-03  7.4094923781681940e-03  7.7423525100907154e-03 
 8.0925326187402634e-03  8.4610335864572141e-03  8.8489176527979108e-03  9.2573122203166731e-03 
 9.6874138837106001e-03  1.0140492692904089e-02  1.0617896660759407e-02  1.1121056526142412e-02 
 1.1651490783036077e-02  1.2210810986265365e-02  1.2800727344159568e-02  1.3423054608115584e-02 
 1.4079718268518794e-02  1.4772761065806699e-02  1.5504349824601501e-02  1.6276782617766460e-02 
 1.7092496265931022e-02  1.7954074176451618e-02  1.8864254523898494e-02  1.9825938771950585e-02 
 2.0842200534005772e-02  2.1916294766835445e-02  2.3051667288193640e-02  2.4251964605390953e-02 
 2.5521044037424133e-02  2.6862984108271981e-02  2.8282095183388898e-02  2.9782930315210801e-02 
 3.1370296256597936e-02  3.3049264593545409e-02  3.4825182940165907e-02  3.6703686129872043e-02 
 3.8690707326844348e-02  4.0792488971264244e-02  4.3015593460429644e-02  4.5366913455778118e-02 
 4.7853681693060042e-02  5.0483480159490828e-02  5.3264248487747044e-02  5.6204291402253879e-02 
 5.9312285038467173e-02  6.2597281940924648e-02  6.6068714530889888e-02  6.9736396819629662e-02 
 7.3610524128937441e-02  7.7701670566652545e-02  8.2020783991822749e-02  8.6579178192007555e-02 
 9.1388521984180848e-02  9.6460824940890574e-02  1.0180841943483779e-01  1.0744393868785911e-01 
 1.1338029050437443e-01  1.1963062636457342e-01  1.2620830554879642e-01  1.3312685396154514e-01 
 1.4039991732123031e-01  1.4804120838016266e-01  1.5606444783875195e-01  1.6448329861913027e-01 
 1.7331129316781718e-01  1.8256175346669762e-01  1.9224770344951592e-01  2.0238177355132766e-01 
 2.1297609716590177e-01  2.2404219885680804e-01  2.3559087426825734e-01  2.4763206181814404e-01 
 2.6017470643396129e-01  2.7322661581658003e-01  2.8679430998893873e-01  3.0088286520436858e-01 
 3.1549575364540627e-01  3.3063468072524976e-01  3.4629942219023546e-01  3.6248766358562445e-01 
 3.7919484495564693e-01  3.9641401386661840e-01  4.1413568993623534e-01  4.3234774400005527e-01 
 4.5103529484232657e-01  4.7018062608037559e-01  4.8976312536076300e-01  5.0975924755955615e-01 
 5.3014250324081624e-01  5.5088347326781106e-01  5.7194985020680189e-01  5.9330650700850707e-01 
 6.1491559336348300e-01  6.3673666005038831e-01  6.5872681146639600e-01  6.8084088628164718e-01 
 7.0303166573200448e-01  7.2525010839891824e-01  7.4744560937430959e-01  7.6956628044784092e-01 
 7.9155924641000264e-01  8.1337095085221656e-01  8.3494746320850333e-01  8.5623477761100519e-01 
 8.7717909391701610e-01  8.9772707247966865e-01  9.1782605712353815e-01  9.3742426515389699e-01 
 9.5647094833070345e-01  9.7491653340365003e-01  9.9271275379046875e-01  1.0098127844378921e+00 
 1.0261713904319056e+00  1.0417450987218000e+00  1.0564923657886058e+00  1.0703737960867683e+00 
 1.0833523479648852e+00  1.0953935410723286e+00  1.1064656549521297e+00  1.1165399100508731e+00 
 1.1255906252184678e+00  1.1335953479371623e+00  1.1405349554748596e+00  1.1463937267525881e+00 
 1.1511593858771214e+00  1.1548231190379146e+00  1.1573795668741282e+00  1.1588267945711845e+00 
 1.1591662419312565e+00  1.1584026555476279e+00  1.1565440050501699e+00  1.1536013852127618e+00 
 1.1495889055444604e+00  1.1445235688357056e+00  1.1384251400035936e+00  1.1313160064764991e+00 
 1.1232210312761450e+00  1.1141673998913415e+00  1.1041844619881935e+00  1.0933035689628239e+00 
 1.0815579083106115e+00  1.0689823357601640e+00  1.0556132060914054e+00  1.0414882035261903e+00 
 1.0266461725548262e+00  1.0111269500250462e+00  9.9497119927577149e-01  9.7822024705538713e-01 
 9.6091592391408998e-01  9.4310040870298961e-01  9.2481607775399655e-01  9.0610535925371616e-01 
 8.8701059326064025e-01  8.6757389774250926e-01  8.4783704100100576e-01  8.2784132065716587e-01 
 8.0762744948928078e-01  7.8723544822821723e-01  7.6670454541715871e-01  7.4607308438798248e-01 
 7.2537843736513097e-01  7.0465692667116842e-01  6.8394375297614418e-01  6.6327293050510061e-01 
 6.4267722909425473e-01  6.2218812296608528e-01  6.0183574607636703e-01  5.8164885387158627e-01 
 5.6165479128260676e-01  5.4187946677107623e-01  5.2234733223440410e-01  5.0308136856759911e-01 
 4.8410307667487434e-01  4.6543247371379998e-01  4.4708809435351582e-01  4.2908699682332363e-01 
 4.1144477352005426e-01  3.9417556594109998e-01  3.7729208370618161e-01  3.6080562742797678e-01 
 3.4472611518944574e-01  3.2906211238403227e-01  3.1382086467391435e-01  2.9900833382113973e-01 
 2.8462923614683716e-01  2.7068708337488145e-01  2.5718422561809495e-01  2.4412189626757794e-01 
 2.3150025854897383e-01  2.1931845351331883e-01  2.0757464923461263e-01  1.9626609099133047e-01 
 1.8538915221474053e-01  1.7493938599306827e-01  1.6491157692722883e-01  1.5529979314090900e-01 
 1.4609743825519561e-01  1.3729730314585450e-01  1.2889161730955365e-01  1.2087209967371987e-01 
 1.1323000869339141e-01  1.0595619158731766e-01  9.9041132574625157e-02  9.2474999982583100e-02 
 8.6247692105338822e-02  8.0348881702919206e-02  7.4768059039292678e-02  6.9494573367817503e-02 
 6.4517672781947366e-02  5.9826542358589190e-02  5.5410340530984585e-02  5.1258233637373939e-02 
 4.7359428600961602e-02  4.3703203705971617e-02  4.0278937443296393e-02  3.7076135407966178e-02 
 3.4084455239490219e-02  3.1293729604040067e-02  2.8693987225365078e-02  2.6275471978984097e-02 
 2.4028660071431271e-02  2.1944275333235497e-02  2.0013302660864422e-02  1.8226999649058290e-02 
 1.6576906460817623e-02  1.5054853987790062e-02  1.3652970358926693e-02  1.2363685860040743e-02 
 1.1179736331303055e-02  1.0094165113740906e-02  9.1003236194362423e-03  8.1918706033520944e-03 
 7.3627702175277478e-03  6.6072889307340404e-03  5.9199913985616588e-03  5.2957353702929866e-03 
 4.7296657197736800e-03  4.2172076878327020e-03  3.7540594235691048e-03  3.3361839110572582e-03 
 2.9598003667149265e-03  2.6213751907275345e-03  2.3176125535666180e-03  2.0454446958026186e-03 
 1.8020220161299601e-03  1.5847030188389244e-03  1.3910441879329729e-03  1.2187898507550353e-03 
 1.0658620894078590e-03  9.3035075348989410e-04  8.1050362277797011e-04  7.0471676352947021e-04 
 6.1152511710655473e-04  5.2959335469752555e-04  4.5770702707644781e-04  3.9476403364851960e-04 
 3.3976643051712615e-04  2.9181259301520586e-04  2.5008974409900994e-04  2.1386685623063810e-04 
 1.8248793089467125e-04  1.5536565671545900e-04  1.3197544427091747e-04  1.1184983313642037e-04 
 9.4573264434105530e-05  7.9777210200219134e-05  6.7135649204244088e-05  5.6360877444256361e-05 
 4.7199640387192113e-05  3.9429573103301759e-05  3.2855933743239206e-05  2.7308615306028060e-05 
 2.2639420328768324e-05  1.8719582976976387e-05  1.5437523010998884e-05  1.2696816232720146e-05 
 1.0414366262162117e-05  8.5187628405828150e-06  6.9488122910218823e-06  5.6522262752972920e-06 
 4.5844555552979800e-06  3.7076560838199107e-06  2.9897754046711422e-06  2.4037480226070722e-06 
 1.9267891009360694e-06  1.5397765492835604e-06  1.2267122678132706e-06  9.7425400986218792e-07 
 7.7131000603723526e-07  6.0868915383424987e-07  4.7880021314914514e-07  3.7539405589478551e-07 
 2.9334359437716569e-07  2.2845655595931322e-07  1.7731677940847033e-07  1.3715018039435257e-07 
 1.0571196968293386e-07  8.1192107965166787e-08  6.2136346729259732e-08  4.7380536254546996e-08 
 3.5996181100932858e-08  2.7245492051033521e-08  2.0544423166023409e-08  1.5432395391171027e-08 
 1.1547596010139797e-08  8.6069082380246071e-09  6.3896693864851841e-09  4.7245813084016948e-09 
 3.4792051403295246e-09  2.5515655227661234e-09  1.8634691981393078e-09  1.3552107548056627e-09 
 9.8139576956873255e-10  7.0766004328288069e-10  5.0810424131028956e-10  3.6329713887437847e-10 
 2.5872881077456347e-10  1.8361836715931411e-10  1.2999999458990721e-10  0.0000000000000000e+00 
 0.0000000000000000e+00  0.0000000000000000e+00  0.0000000000000000e+00  0.0000000000000000e+00 
 0.0000000000000000e+00  0.0000000000000000e+00  0.0000000000000000e+00  0.0000000000000000e+00 
 0.0000000000000000e+00  0.0000000000000000e+00  0.0000000000000000e+00  0.0000000000000000e+00 
 0.0000000000000000e+00  0.0000000000000000e+00  0.0000000000000000e+00  0.0000000000000000e+00 
 0.0000000000000000e+00  0.0000000000000000e+00  0.0000000000000000e+00  0.0000000000000000e+00 
 0.0000000000000000e+00  0.0000000000000000e+00  0.0000000000000000e+00  0.0000000000000000e+00 
 0.0000000000000000e+00  0.0000000000000000e+00  0.0000000000000000e+00  0.0000000000000000e+00 
 0.0000000000000000e+00  0.0000000000000000e+00  0.0000000000000000e+00  0.0000000000000000e+00 
 0.0000000000000000e+00  0.0000000000000000e+00  0.0000000000000000e+00  0.0000000000000000e+00 
 0.0000000000000000e+00  0.0000000000000000e+00  0.0000000000000000e+00  0.0000000000000000e+00 
 0.0000000000000000e+00  0.0000000000000000e+00  0.0000000000000000e+00  0.0000000000000000e+00 
 0.0000000000000000e+00  0.0000000000000000e+00  0.0000000000000000e+00  0.0000000000000000e+00 
 0.0000000000000000e+00  0.0000000000000000e+00  0.0000000000000000e+00  0.0000000000000000e+00 
 0.0000000000000000e+00  0.0000000000000000e+00  0.0000000000000000e+00  0.0000000000000000e+00 
 0.0000000000000000e+00  0.0000000000000000e+00  0.0000000000000000e+00  0.0000000000000000e+00 
 0.0000000000000000e+00  0.0000000000000000e+00  0.0000000000000000e+00  0.0000000000000000e+00 
 0.0000000000000000e+00  0.0000000000000000e+00  0.0000000000000000e+00  0.0000000000000000e+00 
 0.0000000000000000e+00  0.0000000000000000e+00  0.0000000000000000e+00  0.0000000000000000e+00 
 0.0000000000000000e+00  0.0000000000000000e+00  0.0000000000000000e+00  0.0000000000000000e+00 
 0.0000000000000000e+00  0.0000000000000000e+00  0.0000000000000000e+00  0.0000000000000000e+00 
 0.0000000000000000e+00  0.0000000000000000e+00  0.0000000000000000e+00  0.0000000000000000e+00 
 0.0000000000000000e+00  0.0000000000000000e+00  0.0000000000000000e+00  0.0000000000000000e+00 
 0.0000000000000000e+00  0.0000000000000000e+00  0.0000000000000000e+00  0.0000000000000000e+00 
 0.0000000000000000e+00  0.0000000000000000e+00  0.0000000000000000e+00  0.0000000000000000e+00 
 0.0000000000000000e+00  0.0000000000000000e+00  0.0000000000000000e+00  0.0000000000000000e+00 
 0.0000000000000000e+00  0.0000000000000000e+00  0.0000000000000000e+00  0.0000000000000000e+00 
 0.0000000000000000e+00  0.0000000000000000e+00  0.0000000000000000e+00  0.0000000000000000e+00 
 0.0000000000000000e+00  0.0000000000000000e+00  0.0000000000000000e+00  0.0000000000000000e+00 
 0.0000000000000000e+00  0.0000000000000000e+00  0.0000000000000000e+00  0.0000000000000000e+00 
 0.0000000000000000e+00  0.0000000000000000e+00  0.0000000000000000e+00  0.0000000000000000e+00 
 0.0000000000000000e+00  0.0000000000000000e+00  0.0000000000000000e+00  0.0000000000000000e+00 
 0.0000000000000000e+00  0.0000000000000000e+00  0.0000000000000000e+00  0.0000000000000000e+00 
 0.0000000000000000e+00  0.0000000000000000e+00  0.0000000000000000e+00  0.0000000000000000e+00 
 0.0000000000000000e+00  0.0000000000000000e+00  0.0000000000000000e+00  0.0000000000000000e+00 
 0.0000000000000000e+00  0.0000000000000000e+00  0.0000000000000000e+00  0.0000000000000000e+00 
 0.0000000000000000e+00  0.0000000000000000e+00  0.0000000000000000e+00  0.0000000000000000e+00 
 0.0000000000000000e+00  0.0000000000000000e+00  0.0000000000000000e+00  0.0000000000000000e+00 
 0.0000000000000000e+00  0.0000000000000000e+00  0.0000000000000000e+00  0.0000000000000000e+00 
 0.0000000000000000e+00  0.0000000000000000e+00  0.0000000000000000e+00  0.0000000000000000e+00 
 0.0000000000000000e+00  0.0000000000000000e+00  0.0000000000000000e+00  0.0000000000000000e+00 
 0.0000000000000000e+00  0.0000000000000000e+00  0.0000000000000000e+00  0.0000000000000000e+00 
 0.0000000000000000e+00  0.0000000000000000e+00  0.0000000000000000e+00  0.0000000000000000e+00 
 0.0000000000000000e+00  0.0000000000000000e+00  0.0000000000000000e+00  0.0000000000000000e+00 
 0.0000000000000000e+00  0.0000000000000000e+00  0.0000000000000000e+00  0.0000000000000000e+00 
 0.0000000000000000e+00  0.0000000000000000e+00  0.0000000000000000e+00  0.0000000000000000e+00 
 0.0000000000000000e+00 
D    2   3.40          Wavefunction
 1.2007447159882882e-14  1.2484989141602106e-14  1.2981523199010775e-14  1.3497804656148911e-14 
 1.4034618876659229e-14  1.4592782458476667e-14  1.5173144476031347e-14  1.5776587771854480e-14 
 1.6404030299552124e-14  1.7056426520189625e-14  1.7734768854210948e-14  1.8440089191101562e-14 
 1.9173460459091337e-14  1.9935998257285267e-14  2.0728862552704870e-14  2.1553259444821692e-14 
 2.2410443000267223e-14  2.3301717160510051e-14  2.4228437725402320e-14  2.5192014415612751e-14 
 2.6193913017083675e-14  2.7235657610774078e-14  2.8318832891080698e-14  2.9445086576463784e-14 
 3.0616131915944695e-14  3.1833750295287994e-14  3.3099793946832812e-14  3.4416188767095442e-14 
 3.5784937246429331e-14  3.7208121515199135e-14  3.8687906511102585e-14  4.0226543272458218e-14 
 4.1826372362468857e-14  4.3489827429669632e-14  4.5219438909976773e-14  4.7017837875968696e-14 
 4.8887760039254836e-14  5.0832049912020710e-14  5.2853665134079507e-14  5.4955680972012775e-14 
 5.7141294997243995e-14  5.9413831950161523e-14  6.1776748797689983e-14  6.4233639992003736e-14 
 6.6788242938382043e-14  6.9444443680523286e-14  7.2206282811967136e-14  7.5077961622616675e-14 
 7.8063848489710814e-14  8.1168485522968645e-14  8.4396595474014615e-14  8.7753088920594673e-14 
 9.1243071736512456e-14  9.4871852858648209e-14  9.8644952362875967e-14  1.0256810986116394e-13 
 1.0664729323263153e-13  1.1088870770184481e-13  1.1529880527816031e-13  1.1988429457047592e-13 
 1.2465215099231950e-13  1.2960962737279851e-13  1.3476426498955248e-13  1.4012390504049142e-13 
 1.4569670057177066e-13  1.5149112888014728e-13  1.5751600440858411e-13  1.6378049215471842e-13 
 1.7029412161259175e-13  1.7706680126884923e-13  1.8410883367545990e-13  1.9143093112188632e-13 
 1.9904423193054404e-13  2.0696031740033976e-13  2.1519122942406172e-13  2.2374948880642302e-13 
 2.3264811431062182e-13  2.4190064246239283e-13  2.5152114814167593e-13  2.6152426599322494e-13 
 2.7192521268872723e-13  2.8273981007429857e-13  2.9398450923856534e-13  3.0567641553794577e-13 
 3.1783331461719924e-13  3.3047369946482593e-13  3.4361679854447183e-13  3.5728260504513491e-13 
 3.7149190729466545e-13  3.8626632038282648e-13  4.0162831904201895e-13  4.1760127183568947e-13 
 4.3420947670642779e-13  4.5147819793782973e-13  4.6943370458635134e-13  4.8810331044161729e-13 
 5.0751541557596958e-13  5.2769954954646340e-13  5.4868641631502737e-13  5.7050794095511936e-13 
 5.9319731821593143e-13  6.1678906301801490e-13  6.4131906295714361e-13  6.6682463289627958e-13 
 6.9334457172868957e-13  7.2091922139855909e-13  7.4959052826888342e-13  7.7940210692999396e-13 
 8.1039930654577641e-13  8.4262927983851545e-13  8.7614105481729828e-13  9.1098560935909306e-13 
 9.4721594875595485e-13  9.8488718634632079e-13  1.0240566273530536e-12  1.0647838560557661e-12 
 1.1071308264300305e-12  1.1511619563913550e-12  1.1969442257872948e-12  1.2445472782867495e-12 
 1.2940435273214582e-12  1.3455082662408353e-12  1.3990197828477201e-12  1.4546594784892725e-12 
 1.5125119918841721e-12  1.5726653278744875e-12  1.6352109912980733e-12  1.7002441261851376e-12 
 1.7678636604907288e-12  1.8381724565833074e-12  1.9112774677183223e-12  1.9872899007348212e-12 
 2.0663253852225883e-12  2.1485041494171450e-12  2.2339512030901829e-12  2.3227965277136457e-12 
 2.4151752741867259e-12  2.5112279684265746e-12  2.6111007251354533e-12  2.7149454700695173e-12 
 2.8229201711473340e-12  2.9351890787497232e-12  3.0519229755764260e-12  3.1732994364397163e-12 
 3.2995030983901292e-12  3.4307259415852350e-12  3.5671675813287062e-12  3.7090355717239277e-12 
 3.8565457214040800e-12  4.0099224218189515e-12  4.1693989885779127e-12  4.3352180163682494e-12 
 4.5076317479888223e-12  4.6869024580603435e-12  4.8733028519960525e-12  5.0671164808396402e-12 
 5.2686381726015048e-12  5.4781744807494768e-12  5.6960441505362647e-12  5.9225786038729731e-12 
 6.1581224434863192e-12  6.4030339771264353e-12  6.6576857626227047e-12  6.9224651746167554e-12 
 7.1977749938347345e-12  7.4840340197952450e-12  7.7816777078850268e-12  8.0911588317714675e-12 
 8.4129481721596328e-12  8.7475352329415237e-12  9.0954289858269799e-12  9.4571586445889852e-12 
 9.8332744701011140e-12  1.0224348607391752e-11  1.0630975955988459e-11  1.1053775074876371e-11 
 1.1493389123447340e-11  1.1950486839871113e-11  1.2425763558376905e-11  1.2919942266992807e-11 
 1.3433774707352127e-11  1.3968042518239604e-11  1.4523558424617161e-11  1.5101167473937814e-11 
 1.5701748321628588e-11  1.6326214567697756e-11  1.6975516146499760e-11  1.7650640771771851e-11 
 1.8352615439140730e-11  1.9082507988384727e-11  1.9841428727828069e-11  2.0630532123338252e-11 
 2.1451018554495900e-11  2.2304136140608483e-11  2.3191182639345719e-11  2.4113507420884856e-11 
 2.5072513520568955e-11  2.6069659773200486e-11  2.7106463032217342e-11  2.8184500477126572e-11 
 2.9305412012706420e-11  3.0470902763625944e-11  3.1682745668277364e-11  3.2942784175766667e-11 
 3.4252935050165253e-11  3.5615191286288514e-11  3.7031625141436719e-11  3.8504391287710295e-11 
 4.0035730089694660e-11  4.1627971012500762e-11  4.3283536165345640e-11  4.5004943986063594e-11 
 4.6794813072152755e-11  4.8655866164185058e-11  5.0590934287639062e-11  5.2602961059456387e-11 
 5.4695007165872928e-11  5.6870255018336428e-11  5.9132013594593385e-11  6.1483723472309222e-11 
 6.3928962062879557e-11  6.6471449053393572e-11  6.9115052065028690e-11  7.1863792536483680e-11 
 7.4721851841400523e-11  7.7693577649080945e-11  8.0783490538173778e-11  8.3996290873393964e-11 
 8.7336865955734418e-11  9.0810297457048273e-11  9.4421869150310526e-11  9.8177074947319725e-11 
 1.0208162725606631e-10  1.0614146567048173e-10  1.1036276600578806e-10  1.1475194969319262e-10 
 1.1931569354822062e-10  1.2406093992754529e-10  1.2899490728976869e-10  1.3412510117621776e-10 
 1.3945932562846300e-10  1.4500569505992828e-10  1.5077264659965417e-10  1.5676895292699413e-10 
 1.6300373561677016e-10  1.6948647901519246e-10  1.7622704466765423e-10  1.8323568632035406e-10 
 1.9052306551857037e-10  1.9810026782532232e-10  2.0597881968509429e-10  2.1417070595828407e-10 
 2.2268838815305577e-10  2.3154482338233946e-10  2.4075348407482329e-10  2.5032837846993173e-10 
 2.6028407192797622e-10  2.7063570908790410e-10  2.8139903690636037e-10  2.9259042861311830e-10 
 3.0422690861932444e-10  3.1632617841645363e-10  3.2890664350537004e-10  3.4198744139645690e-10 
 3.5558847072339583e-10  3.6973042151487048e-10  3.8443480667021542e-10  3.9972399468685848e-10 
 4.1562124368929745e-10  4.3215073681131939e-10  4.4933761898522415e-10  4.6720803519394006e-10 
 4.8578917024414438e-10  5.0510929012080473e-10  5.2519778498598070e-10  5.4608521388721564e-10 
 5.6780335124347671e-10  5.9038523517931780e-10  6.1386521778077427e-10  6.3827901734945686e-10 
 6.6366377273437601e-10  6.9005809982421110e-10  7.1750215028605872e-10  7.4603767264012405e-10 
 7.7570807576339000e-10  8.0655849491900141e-10  8.3863586041194419e-10  8.7198896897559561e-10 
 9.0666855799787212e-10  9.4272738270001288e-10  9.8022029638604754e-10  1.0192043338924431e-09 
 1.0597387983807697e-09  1.1018853515595192e-09  1.1457081074870133e-09  1.1912737301045840e-09 
 1.2386515346488544e-09  1.2879135930974103e-09  1.3391348438082708e-09  1.3923932055199722e-09 
 1.4477696958856962e-09  1.5053485547217870e-09  1.5652173721581558e-09  1.6274672218855524e-09 
 1.6921927997024166e-09  1.7594925675721022e-09  1.8294689034096430e-09  1.9022282568259463e-09 
 1.9778813110663707e-09  2.0565431513900673e-09  2.1383334401462534e-09  2.2233765988138023e-09 
 2.3118019972811012e-09  2.4037441506541633e-09  2.4993429238924265e-09  2.5987437445835908e-09 
 2.7020978241812150e-09  2.8095623880417025e-09  2.9213009146106460e-09  3.0374833841224791e-09 
 3.1582865371918068e-09  3.2838941436898974e-09  3.4144972823154002e-09  3.5502946312846771e-09 
 3.6914927705840596e-09  3.8383064962438881e-09  3.9909591471125567e-09  4.1496829446277305e-09 
 4.3147193461017451e-09  4.4863194120587371e-09  4.6647441881824423e-09  4.8502651024558080e-09 
 5.0431643780967557e-09  5.2437354629183879e-09  5.4522834757669813e-09  5.6691256707170773e-09 
 5.8945919197300317e-09  6.1290252145104499e-09  6.3727821883241623e-09  6.6262336585718362e-09 
 6.8897651909437797e-09  7.1637776860145066e-09  7.4486879891696267e-09  7.7449295247932697e-09 
 8.0529529556810848e-09  8.3732268686823294e-09  8.7062384876144099e-09  9.0524944145348134e-09 
 9.4125214004985394e-09  9.7868671469739269e-09  1.0176101139136595e-08  1.0580815512309618e-08 
 1.1001625952868567e-08  1.1439172634982536e-08  1.1894121194616759e-08  1.2367163742279266e-08 
 1.2859019916052865e-08  1.3370437976515236e-08  1.3902195945213552e-08  1.4455102788426424e-08 
 1.5029999648014972e-08  1.5627761121236414e-08  1.6249296591468179e-08  1.6895551611868097e-08 
 1.7567509344076838e-08  1.8266192054152366e-08  1.8992662668013822e-08  1.9748026388762309e-08 
 2.0533432378340611e-08  2.1350075506091936e-08  2.2199198166879330e-08  2.3082092171533712e-08 
 2.4000100712508404e-08  2.4954620407732695e-08  2.5947103425776027e-08  2.6979059695558404e-08 
 2.8052059203971136e-08  2.9167734384906222e-08  3.0327782603331836e-08  3.1533968738196135e-08 
 3.2788127868092211e-08  3.4092168063773659e-08  3.5448073291772914e-08  3.6857906433543810e-08 
 3.8323812424726095e-08  3.9848021519312350e-08  4.1432852683688245e-08  4.3080717125715081e-08 
 4.4794121964229418e-08  4.6575674044548197e-08  4.8428083905791072e-08  5.0354169906062302e-08 
 5.2356862511775645e-08  5.4439208757656091e-08  5.6604376884211827e-08  5.8855661159741238e-08 
 6.1196486894220375e-08  6.3630415652709604e-08  6.6161150676221865e-08  6.8792542518311602e-08 
 7.1528594905972558e-08  7.4373470833774272e-08  7.7331498900524123e-08  8.0407179898109551e-08 
 8.3605193662562511e-08  8.6930406197785967e-08  9.0387877082799858e-08  9.3982867173795592e-08 
 9.7720846612738806e-08  1.0160750315472751e-07  1.0564875082679921e-07  1.0985073893138751e-07 
 1.1421986140815303e-07  1.1876276656846276e-07  1.2348636721735949e-07  1.2839785117845496e-07 
 1.3350469223779680e-07  1.3881466152339746e-07  1.4433583933778051e-07  1.5007662746159063e-07 
 1.5604576194703445e-07  1.6225232642066680e-07  1.6870576591581567e-07  1.7541590125574963e-07 
 1.8239294400953210e-07  1.8964751204338318e-07  1.9719064569127973e-07  2.0503382456947256e-07 
 2.1318898506058233e-07  2.2166853849396287e-07  2.3048539005008331e-07  2.3965295841778888e-07 
 2.4918519623445460e-07  2.5909661134024061e-07  2.6940228887890738e-07  2.8011791427894410e-07 
 2.9125979715011105e-07  3.0284489613189955e-07  3.1489084473187244e-07  3.2741597819336176e-07 
 3.4043936143358072e-07  3.5398081809484704e-07  3.6806096075332004e-07  3.8270122233143027e-07 
 3.9792388876202681e-07  4.1375213295418496e-07  4.3021005011261860e-07  4.4732269446471567e-07 
 4.6511611745137716e-07  4.8361740744008682e-07  5.0285473102098047e-07  5.2285737594910917e-07 
 5.4365579579862621e-07  5.6528165639725640e-07  5.8776788411214375e-07  6.1114871606101863e-07 
 6.3545975232559629e-07  6.6073801024718286e-07  6.8702198088768963e-07  7.1435168774257522e-07 
 7.4276874779571231e-07  7.7231643500978006e-07  8.0303974634953836e-07  8.3498547043924669e-07 
 8.6820225895954702e-07  9.0274070089336924e-07  9.3865339973479743e-07  9.7599505377942638e-07 
 1.0148225396194900e-06  1.0551949989719918e-06  1.0971739289732321e-06  1.1408232760784716e-06 
 1.1862095337110642e-06  1.2334018438111831e-06  1.2824721024403153e-06  1.3334950696039673e-06 
 1.3865484834615800e-06  1.4417131790994446e-06  1.4990732120494923e-06  1.5587159867441995e-06 
 1.6207323901055176e-06  1.6852169304737140e-06  1.7522678820903091e-06  1.8219874353579497e-06 
 1.8944818531090317e-06  1.9698616331242598e-06  2.0482416771520683e-06  2.1297414666899663e-06 
 2.2144852457994143e-06  2.3026022112368472e-06  2.3942267101948506e-06  2.4894984459594425e-06 
 2.5885626918017789e-06  2.6915705134354790e-06  2.7986790003842269e-06  2.9100515066182561e-06 
 3.0258579008328835e-06  3.1462748267573887e-06  3.2714859738983358e-06  3.4016823591378271e-06 
 3.5370626196242671e-06  3.6778333174110679e-06  3.8242092563171896e-06  3.9764138115027640e-06 
 4.1346792722731340e-06  4.2992471986455668e-06  4.4703687922347034e-06  4.6483052820355198e-06 
 4.8333283257062003e-06  5.0257204269779650e-06  5.2257753698445680e-06  5.4337986702108604e-06 
 5.6501080457076933e-06  5.8750339044094022e-06  6.1089198532203768e-06  6.3521232267286168e-06 
 6.6050156373570635e-06  6.8679835476776152e-06  7.1414288657883165e-06  7.4257695646914451e-06 
 7.7214403266487013e-06  8.0288932135301818e-06  8.3485983642157473e-06  8.6810447201511530e-06 
 9.0267407802070255e-06  9.3862153860362697e-06  9.7600185391751454e-06  1.0148722251184925e-05 
 1.0552921428185017e-05  1.0973234791184551e-05  1.1410305833678209e-05  1.1864803818033035e-05 
 1.2337424812256884e-05  1.2828892768805602e-05  1.3339960647155391e-05  1.3871411581939223e-05 
 1.4424060098521618e-05  1.4998753377964989e-05  1.5596372573422734e-05  1.6217834180080250e-05 
 1.6864091460854447e-05  1.7536135930155772e-05  1.8234998898114257e-05  1.8961753077772942e-05 
 1.9717514257858273e-05  2.0503443043848011e-05  2.1320746670173108e-05  2.2170680886510920e-05 
 2.3054551921253600e-05  2.3973718525367354e-05  2.4929594099996318e-05  2.5923648911308679e-05 
 2.6957412396233288e-05  2.8032475562892253e-05  2.9150493489699297e-05  3.0313187927265708e-05 
 3.1522350007434894e-05  3.2779843063954686e-05  3.4087605569492582e-05  3.5447654193904636e-05 
 3.6862086988883030e-05  3.8333086704332469e-05  3.9862924242059776e-05  4.1453962252607508e-05 
 4.3108658881319243e-05  4.4829571669993381e-05  4.6619361620764063e-05  4.8480797429142904e-05 
 5.0416759893463739e-05  5.2430246508296236e-05  5.4524376249732503e-05  5.6702394560806120e-05 
 5.8967678545673791e-05  6.1323742381580359e-05  6.3774242958034621e-05  6.6322985753052271e-05 
 6.8973930956769876e-05  7.1731199853204361e-05  7.4599081471424952e-05  7.7582039517921925e-05 
 8.0684719602498901e-05  8.3911956770583784e-05  8.7268783355451854e-05  9.0760437164479508e-05 
 9.4392370014206734e-05  9.8170256629675806e-05  1.0210000392423990e-04  1.0618776067679678e-04 
 1.1043992762420286e-04  1.1486316798746456e-04  1.1946441845118633e-04  1.2425090061668568e-04 
 1.2923013295015903e-04  1.3440994324831221e-04  1.3979848164494740e-04  1.4540423418313409e-04 
 1.5123603697878889e-04  1.5730309100274421e-04  1.6361497750971095e-04  1.7018167414393408e-04 
 1.7701357175280716e-04  1.8412149194125624e-04  1.9151670540133351e-04  1.9921095105317373e-04 
 2.0721645603527611e-04  2.1554595658397681e-04  2.2421271984398775e-04  2.3323056665399238e-04 
 2.4261389535352348e-04  2.5237770665970420e-04  2.6253762966491512e-04  2.7310994900907613e-04 
 2.8411163328299763e-04  2.9556036472217590e-04  3.0747457025349424e-04  3.1987345396054670e-04 
 3.3277703103674189e-04  3.4620616329897997e-04  3.6018259633853450e-04  3.7472899838982682e-04 
 3.8986900100207569e-04  4.0562724160332874e-04  4.2202940805118999e-04  4.3910228526960939e-04 
 4.5687380407647674e-04  4.7537309231242573e-04  4.9463052838725390e-04  5.1467779736671265e-04 
 5.3554794972914010e-04  5.5727546292851907e-04  5.7989630590806320e-04  6.0344800671640827e-04 
 6.2796972338691323e-04  6.5350231824951000e-04  6.8008843585399485e-04  7.0777258469367191e-04 
 7.3660122292886138e-04  7.6662284832102552e-04  7.9788809260015981e-04  8.3044982050070072e-04 
 8.6436323371456836e-04  8.9968598002407990e-04  9.3647826789248676e-04  9.7480298680574029e-04 
 1.0147258336759195e-03  1.0563154456345624e-03  1.0996435395630225e-03  1.1447850587269538e-03 
 1.1918183269032006e-03  1.2408252104097993e-03  1.2918912884735320e-03  1.3451060323946297e-03 
 1.4005629939948276e-03  1.4583600038631536e-03  1.5185993799436690e-03  1.5813881470409055e-03 
 1.6468382678521470e-03  1.7150668861709861e-03  1.7861965829439493e-03  1.8603556459013755e-03 
 1.9376783535254949e-03  2.0183052741626242e-03  2.1023835811329293e-03  2.1900673847402357e-03 
 2.2815180821361453e-03  2.3769047260472648e-03  2.4764044134318319e-03  2.5802026951925877e-03 
 2.6884940081364113e-03  2.8014821304382462e-03  2.9193806619371978e-03  3.0424135306665778e-03 
 3.1708155270971507e-03  3.3048328676540018e-03  3.4447237891524238e-03  3.5907591758869775e-03 
 3.7432232212006441e-03  3.9024141254575010e-03  4.0686448324430118e-03  4.2422438063204016e-03 
 4.4235558513799293e-03  4.6129429769299467e-03  4.8107853097942976e-03  5.0174820569997263e-03 
 5.2334525213592539e-03  5.4591371727825948e-03  5.6949987782722372e-03  5.9415235936933625e-03 
 6.1992226205366029e-03  6.4686329310242058e-03  6.7503190650414317e-03  7.0448745025052262e-03 
 7.3529232149099734e-03  7.6751212999143026e-03  8.0121587029520075e-03  8.3647610299619878e-03 
 8.7336914554354411e-03  9.1197527300703237e-03  9.5237892924012781e-03  9.9466894888346740e-03 
 1.0389387906559968e-02  1.0852867823826618e-02  1.1338163782066113e-02  1.1846364284297063e-02 
 1.2378614624172484e-02  1.2936119849907073e-02  1.3520147867152466e-02  1.4132032684663275e-02 
 1.4773177806309509e-02  1.5445059772633442e-02  1.6149231854713141e-02  1.6887327902571393e-02 
 1.7661066349748712e-02  1.8472254374930885e-02  1.9322792220676538e-02  2.0214677668314897e-02 
 2.1150010666968602e-02  2.2130998113387722e-02  2.3159958777847857e-02  2.4239328369754523e-02 
 2.5371664734796236e-02  2.6559653173487758e-02  2.7806111868732320e-02  2.9113997407596473e-02 
 3.0486410379824368e-02  3.1926601032713005e-02  3.3437974958818700e-02  3.5024098789565722e-02 
 3.6688705864175879e-02  3.8435701839436301e-02  4.0269170201670826e-02  4.2193377637882203e-02 
 4.4212779218393970e-02  4.6332023338443176e-02  4.8555956361058847e-02  5.0889626898206849e-02 
 5.3338289661571406e-02  5.5907408808457321e-02  5.8602660702092017e-02  6.1429935999018873e-02 
 6.4395340969212289e-02  6.7505197946884241e-02  7.0766044801529551e-02  7.4184633309370848e-02 
 7.7767926294777731e-02  8.1523093399182220e-02  8.5457505321229463e-02  8.9578726356136187e-02 
 9.3894505044316567e-02  9.8412762719223057e-02  1.0314157972222576e-01  1.0808917902868466e-01 
 1.1326390700504722e-01  1.1867421099321630e-01  1.2432861339755136e-01  1.3023568193429477e-01 
 1.3640399569617104e-01  1.4284210669013792e-01  1.4955849652787823e-01  1.5656152799076686e-01 
 1.6385939125758972e-01  1.7146004467725798e-01  1.7937115009182364e-01  1.8760000286688266e-01 
 1.9615345696387368e-01  2.0503784558542301e-01  2.1425889813051557e-01  2.2382165439678103e-01 
 2.3373037714530395e-01  2.4398846428033191e-01  2.5459836197485908e-01  2.6556148008165831e-01 
 2.7687811110610944e-01  2.8854735389317465e-01  3.0056704302021359e-01  3.1293368472335303e-01 
 3.2564240005296885e-01  3.3868687588124696e-01  3.5205932438440418e-01  3.6575045168780884e-01 
 3.7974943647035120e-01  3.9404391943902273e-01  4.0862000466353338e-01  4.2346227376007761e-01 
 4.3855381378954372e-01  4.5387625944640170e-01  4.6940984962215337e-01  4.8513349770597303e-01 
 5.0102487403908191e-01  5.1706049782788488e-01  5.3321583468673228e-01  5.4946539506585390e-01 
 5.6578282844416716e-01  5.8214100865548624e-01  5.9851210727044135e-01  6.1486765450541281e-01 
 6.3117859024974932e-01  6.4741531076946401e-01  6.6354771864939988e-01  6.7954528397733460e-01 
 6.9537712398546470e-01  7.1101210774413526e-01  7.2641896784343629e-01  7.4156645650510944e-01 
 7.5642350338868647e-01  7.7095938442247014e-01  7.8514389425630160e-01  7.9894751568331346e-01 
 8.1234158109014731e-01  8.2529842232679984e-01  8.3779150665437818e-01  8.4979555751895552e-01 
 8.6128665974646201e-01  8.7224234935378098e-01  8.8264168855807312e-01  8.9246532678793866e-01 
 9.0169554860481871e-01  9.1031630947222997e-01  9.1831326029515903e-01  9.2567376161367032e-01 
 9.3238688828701710e-01  9.3844342545491755e-01  9.4383585651511681e-01  9.4855834381230719e-01 
 9.5260670269327186e-01  9.5597836954645621e-01  9.5867236441060921e-01  9.6068924870624728e-01 
 9.6203107861494530e-01  9.6270135460703787e-01  9.6270496759245061e-01  9.6204814214453471e-01 
 9.6073837723170630e-01  9.5878438487163442e-01  9.5619602710157048e-01  9.5298425164446821e-01 
 9.4916102663501156e-01  9.4473927475221342e-01  9.3973280708943197e-01  9.3415625707682270e-01 
 9.2802501475306121e-01  9.2135516166464537e-01  9.1416340665125018e-01  9.0646702275443158e-01 
 8.9828378546493737e-01  8.8963191250066231e-01  8.8053000528334069e-01  8.7099699225792881e-01 
 8.6105207417443785e-01  8.5071467142821400e-01  8.4000437353170554e-01  8.2894089076898558e-01 
 8.1754400806402261e-01  8.0583354107518013e-01  7.9382929451186668e-01  7.8155102265472753e-01 
 7.6901839204812716e-01  7.5625094600253284e-01  7.4326807246450977e-01  7.3008897199051692e-01 
 7.1673262896513734e-01  7.0321778440080795e-01  6.8956291057397179e-01  6.7578618743335184e-01 
 6.6190548071079569e-01  6.4793832166922916e-01  6.3390188842262607e-01  6.1981298876401192e-01 
 6.0568804443889790e-01  5.9154307680297202e-01  5.7739369380433225e-01  5.6325507823192444e-01 
 5.4914197717315594e-01  5.3506869262516155e-01  5.2104907320530436e-01  5.0709650690777275e-01 
 4.9322391485449046e-01  4.7944374598989103e-01  4.6576797267054432e-01  4.5220808710217331e-01 
 4.3877509857826769e-01  4.2547953147632811e-01  4.1233142396982214e-01  3.9934032741598063e-01 
 3.8651530638163878e-01  3.7386493927185277e-01  3.6139731952859400e-01  3.4912005736931023e-01 
 3.3704028203777076e-01  3.2516464454232114e-01  3.1349932085941518e-01  3.0205001558305494e-01 
 2.9082196600354998e-01  2.7981994660178178e-01  2.6904827394794756e-01  2.5851081199652076e-01 
 2.4821097777191767e-01  2.3815174744207535e-01  2.2833566277981110e-01  2.1876483801439525e-01 
 2.0944096707814533e-01  2.0036533125574060e-01  1.9153880724503852e-01  1.8296187563978505e-01 
 1.7463462984748054e-01  1.6655678545523370e-01  1.5872769005666254e-01  1.5114633355274132e-01 
 1.4381135893816607e-01  1.3672107358271779e-01  1.2987346101414723e-01  1.2326619320527051e-01 
 1.1689664336329163e-01  1.1076189921391319e-01  1.0485877676667688e-01  9.9183834541306165e-02 
 9.3733388227823192e-02  8.8503525746089218e-02  8.3490122663232011e-02  7.8688857920550831e-02 
 7.4095229815140926e-02  6.9704572175697518e-02  6.5512070667048450e-02  6.1512779153965531e-02 
 5.7701636051946247e-02  5.4073480590989202e-02  5.0623068917713392e-02  4.7345089961827867e-02 
 4.4234180994847529e-02  4.1284942811815453e-02  3.8491954470768690e-02  3.5849787529589505e-02 
 3.3353019725613338e-02  3.0996248049784556e-02  2.8774101174115552e-02  2.6681251198554381e-02 
 2.4712424690935191e-02  2.2862413001298088e-02  2.1126081839346410e-02  1.9498380110985331e-02 
 1.7974348016591132e-02  1.6549124419747221e-02  1.5217953500520865e-02  1.3976190711850934e-02 
 1.2819308061209301e-02  1.1742898742360211e-02  1.0742681143798359e-02  9.8145022613560229e-03 
 8.9543405426276406e-03  8.1583081903921946e-03  7.4226529512662637e-03  6.7437594145492276e-03 
 6.1181498447819022e-03  5.5424845700762322e-03  5.0135619469122697e-03  4.5283179209410834e-03 
 4.0838252024500300e-03  3.6772920745826343e-03  3.3060608521719294e-03  2.9676060091306362e-03 
 2.6595319927095518e-03  2.3795707435358099e-03  2.1255789411136223e-03  1.8955349953439378e-03 
 1.6875358055282099e-03  1.4997933091997319e-03  1.3306308439154672e-03  1.1784793457915361e-03 
 1.0418734090365904e-03  9.1944723099950543e-04  8.0993046728191135e-04  7.1214402126295391e-04 
 6.2499579194288469e-04  5.4747640334128732e-04  4.7865493779900557e-04  4.1767469444946444e-04 
 3.6374899286833047e-04  3.1615704050630687e-04  2.7423988098587498e-04  2.3739643872721760e-04 
 2.0507967368940907e-04  1.7679285829739819e-04  1.5208598689904699e-04  1.3055232638334787e-04 
 1.1182511491257603e-04  9.5574414096748458e-05  8.1504118385040809e-05  6.9349123979833415e-05 
 5.8872658206300791e-05  4.9863769002888630e-05  4.2134973042174762e-05  3.5520059951746698e-05 
 2.9872049182996598e-05  2.5061295272355153e-05  2.0973736552955845e-05  1.7509281802015369e-05 
 1.4580328846002030e-05  1.2110408786507190e-05  1.0032949248303903e-05  8.2901498803403558e-06 
 6.8319632528266178e-06  5.6151742812433884e-06  4.6025713629639572e-06  3.7622025261296564e-06 
 3.0667100554459789e-06  2.4927372678675452e-06  2.0204013552164280e-06  1.6328264835162627e-06 
 1.3157316335597209e-06  1.0570679777955391e-06  8.4670090939461369e-07  6.7613216526226170e-07 
 5.3825781130298342e-07  4.2715818148058546e-07  3.3791617877176010e-07  2.6646065314701178e-07 
 2.0943186690267429e-07  1.6406633916801978e-07  1.2809862782399154e-07  9.9677857406204071e-08 
 7.7297035200936016e-08  5.9733414382485578e-08  4.5998362670116288e-08  3.5295377832632742e-08 
 2.6985057871563906e-08  2.0555984469119874e-08  1.5600614024615024e-08  1.1795392151785758e-08 
 8.8844157678949587e-09  6.6660628159307757e-09  4.9820941867928065e-09  3.7088065138265815e-09 
 2.7498791472340914e-09  2.0306147022537282e-09  1.4933209950983921e-09  1.0936237699247996e-09 
 7.9753516117034462e-10  5.7913305440294383e-10  4.1873207276511706e-10  3.0144843352474125e-10 
 2.1607894040416140e-10  1.5422939631140179e-10  1.0964017862489725e-10  7.7667006464741829e-11 
 5.4883392406218694e-11  0.0000000000000000e+00  0.0000000000000000e+00  0.0000000000000000e+00 
 0.0000000000000000e+00  0.0000000000000000e+00  0.0000000000000000e+00  0.0000000000000000e+00 
 0.0000000000000000e+00  0.0000000000000000e+00  0.0000000000000000e+00  0.0000000000000000e+00 
 0.0000000000000000e+00  0.0000000000000000e+00  0.0000000000000000e+00  0.0000000000000000e+00 
 0.0000000000000000e+00  0.0000000000000000e+00  0.0000000000000000e+00  0.0000000000000000e+00 
 0.0000000000000000e+00  0.0000000000000000e+00  0.0000000000000000e+00  0.0000000000000000e+00 
 0.0000000000000000e+00  0.0000000000000000e+00  0.0000000000000000e+00  0.0000000000000000e+00 
 0.0000000000000000e+00  0.0000000000000000e+00  0.0000000000000000e+00  0.0000000000000000e+00 
 0.0000000000000000e+00  0.0000000000000000e+00  0.0000000000000000e+00  0.0000000000000000e+00 
 0.0000000000000000e+00  0.0000000000000000e+00  0.0000000000000000e+00  0.0000000000000000e+00 
 0.0000000000000000e+00  0.0000000000000000e+00  0.0000000000000000e+00  0.0000000000000000e+00 
 0.0000000000000000e+00  0.0000000000000000e+00  0.0000000000000000e+00  0.0000000000000000e+00 
 0.0000000000000000e+00  0.0000000000000000e+00  0.0000000000000000e+00  0.0000000000000000e+00 
 0.0000000000000000e+00  0.0000000000000000e+00  0.0000000000000000e+00  0.0000000000000000e+00 
 0.0000000000000000e+00  0.0000000000000000e+00  0.0000000000000000e+00  0.0000000000000000e+00 
 0.0000000000000000e+00  0.0000000000000000e+00  0.0000000000000000e+00  0.0000000000000000e+00 
 0.0000000000000000e+00  0.0000000000000000e+00  0.0000000000000000e+00  0.0000000000000000e+00 
 0.0000000000000000e+00  0.0000000000000000e+00  0.0000000000000000e+00  0.0000000000000000e+00 
 0.0000000000000000e+00  0.0000000000000000e+00  0.0000000000000000e+00  0.0000000000000000e+00 
 0.0000000000000000e+00  0.0000000000000000e+00  0.0000000000000000e+00  0.0000000000000000e+00 
 0.0000000000000000e+00  0.0000000000000000e+00  0.0000000000000000e+00  0.0000000000000000e+00 
 0.0000000000000000e+00  0.0000000000000000e+00  0.0000000000000000e+00  0.0000000000000000e+00 
 0.0000000000000000e+00  0.0000000000000000e+00  0.0000000000000000e+00  0.0000000000000000e+00 
 0.0000000000000000e+00  0.0000000000000000e+00  0.0000000000000000e+00  0.0000000000000000e+00 
 0.0000000000000000e+00  0.0000000000000000e+00  0.0000000000000000e+00  0.0000000000000000e+00 
 0.0000000000000000e+00  0.0000000000000000e+00  0.0000000000000000e+00  0.0000000000000000e+00 
 0.0000000000000000e+00  0.0000000000000000e+00  0.0000000000000000e+00  0.0000000000000000e+00 
 0.0000000000000000e+00  0.0000000000000000e+00  0.0000000000000000e+00  0.0000000000000000e+00 
 0.0000000000000000e+00  0.0000000000000000e+00  0.0000000000000000e+00  0.0000000000000000e+00 
 0.0000000000000000e+00  0.0000000000000000e+00  0.0000000000000000e+00  0.0000000000000000e+00 
 0.0000000000000000e+00  0.0000000000000000e+00  0.0000000000000000e+00  0.0000000000000000e+00 
 0.0000000000000000e+00  0.0000000000000000e+00  0.0000000000000000e+00  0.0000000000000000e+00 
 0.0000000000000000e+00  0.0000000000000000e+00  0.0000000000000000e+00  0.0000000000000000e+00 
 0.0000000000000000e+00  0.0000000000000000e+00  0.0000000000000000e+00  0.0000000000000000e+00 
 0.0000000000000000e+00  0.0000000000000000e+00  0.0000000000000000e+00  0.0000000000000000e+00 
 0.0000000000000000e+00  0.0000000000000000e+00  0.0000000000000000e+00  0.0000000000000000e+00 
 0.0000000000000000e+00 
D    2   5.10          Wavefunction
 1.0604858178494388e-14  1.1026618517969322e-14  1.1465152470229452e-14  1.1921127129971623e-14 
 1.2395236122571676e-14  1.2888200659222418e-14  1.3400770634034896e-14  1.3933725764771977e-14 
 1.4487876778949392e-14  1.5064066647108654e-14  1.5663171865137781e-14  1.6286103787590587e-14 
 1.6933810014032692e-14  1.7607275830523201e-14  1.8307525708424801e-14  1.9035624862822269e-14 
 1.9792680872920037e-14  2.0579845366883744e-14  2.1398315773688778e-14  2.2249337144640653e-14 
 2.3134204047338166e-14  2.4054262534960354e-14  2.5010912193872989e-14  2.6005608272669339e-14 
 2.7039863895883916e-14  2.8115252365746742e-14  2.9233409555479414e-14  3.0396036397773805e-14 
 3.1604901472238732e-14  3.2861843695750568e-14  3.4168775119800558e-14  3.5527683839093828e-14 
 3.6940637015824907e-14  3.8409784024230088e-14  3.9937359720200232e-14  4.1525687840927525e-14 
 4.3177184539758045e-14  4.4894362061626908e-14  4.6679832564667439e-14  4.8536312093807504e-14 
 5.0466624712397691e-14  5.2473706798156411e-14  5.4560611509966743e-14  5.6730513432320039e-14 
 5.8986713404471278e-14  6.1332643541652244e-14  6.3771872455980883e-14  6.6308110685008613e-14 
 6.8945216336163762e-14  7.1687200955677176e-14  7.4538235630917850e-14  7.7502657335421479e-14 
 8.0584975526263842e-14  8.3789879003814873e-14  8.7122243044308618e-14  9.0587136816078935e-14 
 9.4189831090742366e-14  9.7935806261058731e-14  1.0183076067766577e-13  1.0588061931736976e-13 
 1.1009154279617853e-13  1.1446993674078692e-13  1.1902246153277074e-13  1.2375604244031253e-13 
 1.2867788015287048e-13  1.3379546173481636e-13  1.3911657201470533e-13  1.4464930542750219e-13 
 1.5040207832777891e-13  1.5638364179261395e-13  1.6260309493366928e-13  1.6906989873869514e-13 
 1.7579389046351800e-13  1.8278529859640540e-13  1.9005475841757035e-13  1.9761332817748521e-13 
 2.0547250591861487e-13  2.1364424696615838e-13  2.2214098211440633e-13  2.3097563653637805e-13 
 2.4016164944550475e-13  2.4971299453926719e-13  2.5964420125588695e-13  2.6997037687640684e-13 
 2.8070722950578132e-13  2.9187109196793729e-13  3.0347894665115180e-13  3.1554845134154374e-13 
 3.2809796608397550e-13  3.4114658111122628e-13  3.5471414588392204e-13  3.6882129928539807e-13 
 3.8348950101742592e-13  3.9874106424456363e-13  4.1459918953678833e-13  4.3108800016204378e-13 
 4.4823257878238965e-13  4.6605900560957517e-13  4.8459439807807864e-13  5.0386695209596360e-13 
 5.2390598493630075e-13  5.4474197983440477e-13  5.6640663235872361e-13  5.8893289862592219e-13 
 6.1235504543350217e-13  6.3670870238622389e-13  6.6203091609561779e-13  6.8836020653504190e-13 
 7.1573662563600264e-13  7.4420181821488648e-13  7.7379908532277245e-13  8.0457345011470108e-13 
 8.3657172633859707e-13  8.6984258954802926e-13  9.0443665114713756e-13  9.4040653538036548e-13 
 9.7780695938411011e-13  1.0166948164220675e-12  1.0571292624308906e-12  1.0991718060078082e-12 
 1.1428864019770985e-12  1.1883395486777503e-12  1.2356003891202973e-12  1.2847408161667171e-12 
 1.3358355818933837e-12  1.3889624113034408e-12  1.4442021205615727e-12  1.5016387399310329e-12 
 1.5613596415999390e-12  1.6234556725912860e-12  1.6880212929588545e-12  1.7551547194792439e-12 
 1.8249580750586079e-12  1.8975375440813747e-12  1.9730035339372598e-12  2.0514708429722958e-12 
 2.1330588351193560e-12  2.2178916214738257e-12  2.3060982490906291e-12  2.3978128972898113e-12 
 2.4931750817692940e-12  2.5923298668352997e-12  2.6954280860732852e-12  2.8026265717950841e-12 
 2.9140883936112621e-12  3.0299831064916352e-12  3.1504870086912720e-12  3.2757834099343490e-12 
 3.4060629102638224e-12  3.5415236899810852e-12  3.6823718111166899e-12  3.8288215308907057e-12 
 3.9810956276395668e-12  4.1394257397051955e-12  4.3040527178019325e-12  4.4752269913972760e-12 
 4.6532089496637760e-12  4.8382693375815978e-12  5.0306896677942843e-12  5.2307626488442406e-12 
 5.4387926304393713e-12  5.6550960664282167e-12  5.8800019961878472e-12  6.1138525451568225e-12 
 6.3570034452746096e-12  6.6098245761191487e-12  6.8727005275657667e-12  7.1460311848233375e-12 
 7.4302323367376344e-12  7.7257363082872605e-12  8.0329926182342539e-12  8.3524686629298644e-12 
 8.6846504273156174e-12  9.0300432242013087e-12  9.3891724629444766e-12  9.7625844487006910e-12 
 1.0150847213460485e-11  1.0554551380137064e-11  1.0974311061019278e-11  1.1410764791956571e-11 
 1.1864576503697013e-11  1.2336436531855959e-11  1.2827062667051773e-11  1.3337201246806003e-11 
 1.3867628290869124e-11  1.4419150681698755e-11  1.4992607391886241e-11  1.5588870760398679e-11 
 1.6208847819577803e-11  1.6853481674914467e-11  1.7523752939697496e-11  1.8220681226719409e-11 
 1.8945326699308148e-11  1.9698791684044275e-11  2.0482222347616891e-11  2.1296810440369142e-11 
 2.2143795109185560e-11  2.3024464782479032e-11  2.3940159130144938e-11  2.4892271101463719e-11 
 2.5882249044052264e-11  2.6911598907087154e-11  2.7981886532151632e-11  2.9094740035190847e-11 
 3.0251852283199088e-11  3.1454983469406373e-11  3.2705963790881903e-11  3.4006696232627551e-11 
 3.5359159462396528e-11  3.6765410840640895e-11  3.8227589550166664e-11  3.9747919850257393e-11 
 4.1328714460216502e-11  4.2972378077475252e-11  4.4681411035618321e-11  4.6458413107891625e-11 
 4.8306087461978255e-11  5.0227244772058611e-11  5.2224807494410147e-11  5.4301814313050674e-11 
 5.6461424762188307e-11  5.8706924032509431e-11  6.1041727968616502e-11  6.3469388265217689e-11 
 6.5993597869972835e-11  6.8618196601215158e-11  7.1347176989093918e-11  7.4184690349024261e-11 
 7.7135053096683118e-11  8.0202753314158206e-11  8.3392457577238141e-11  8.6709018054230419e-11 
 9.0157479887106010e-11  9.3743088866199190e-11  9.7471299410138179e-11  1.0134778286314599e-10 
 1.0537843612233430e-10  1.0956939060811474e-10  1.1392702159137509e-10  1.1845795789160912e-10 
 1.2316909196075482e-10  1.2806759036808242e-10  1.3316090470208253e-10  1.3845678290594203e-10 
 1.4396328106385241e-10  1.4968877565608350e-10  1.5564197630146801e-10  1.6183193900668449e-10 
 1.6826807994249795e-10  1.7496018976791910e-10  1.8191844852407727e-10  1.8915344112047017e-10 
 1.9667617343715432e-10  2.0449808906737758e-10  2.1263108672613067e-10  2.2108753835110689e-10 
 2.2988030792361469e-10  2.3902277103807931e-10  2.4852883524991251e-10  2.5841296123270864e-10 
 2.6869018477695806e-10  2.7937613966374476e-10  2.9048708144822390e-10  3.0203991218905567e-10 
 3.1405220616140445e-10  3.2654223659260353e-10  3.3952900346113359e-10  3.5303226240117179e-10 
 3.6707255475664260e-10  3.8167123883043975e-10  3.9685052237629931e-10  4.1263349638268498e-10 
 4.2904417020000867e-10  4.4610750806454682e-10  4.6384946707455083e-10  4.8229703667624843e-10 
 5.0147827971976082e-10  5.2142237514734855e-10  5.4215966237891308e-10  5.6372168746228761e-10 
 5.8614125105855739e-10  6.0945245833546383e-10  6.3369077084487579e-10  6.5889306046334250e-10 
 6.8509766547789417e-10  7.1234444890252966e-10  7.4067485911421925e-10  7.7013199290078704e-10 
 8.0076066101669522e-10  8.3260745634656775e-10  8.6572082478070981e-10  9.0015113891699243e-10 
 9.3595077471525869e-10  9.7317419118032150e-10  1.0118780132077436e-09  1.0521211177241547e-09 
 1.0939647232535523e-09  1.1374724830458499e-09  1.1827105819093465e-09  1.2297478368944442e-09 
 1.2786558019817880e-09  1.3295088769341050e-09  1.3823844204773396e-09  1.4373628679832891e-09 
 1.4945278538327738e-09  1.5539663386455116e-09  1.6157687415702635e-09  1.6800290778365185e-09 
 1.7468451017769950e-09  1.8163184555385529e-09  1.8885548237077759e-09  1.9636640940864729e-09 
 2.0417605248617135e-09  2.1229629184247376e-09  2.2073948021031982e-09  2.2951846160817135e-09 
 2.3864659087966455e-09  2.4813775401023981e-09  2.5800638925183423e-09  2.6826750908777908e-09 
 2.7893672307131924e-09  2.9003026157250827e-09  3.0156500046960537e-09  3.1355848682254561e-09 
 3.2602896556754628e-09  3.3899540727346517e-09  3.5247753700214535e-09  3.6649586431665664e-09 
 3.8107171448309551e-09  3.9622726091341785e-09  4.1198555889867131e-09  4.2837058068395241e-09 
 4.4540725193846092e-09  4.6312148967614598e-09  4.8154024168464163e-09  5.0069152752249134e-09 
 5.2060448114704447e-09  5.4130939523788933e-09  5.6283776728326793e-09  5.8522234749960516e-09 
 6.0849718865706621e-09  6.3269769788696823e-09  6.5786069054987718e-09  6.8402444624636875e-09 
 7.1122876705568446e-09  7.3951503809091051e-09  7.6892629046283035e-09  7.9950726674827027e-09 
 8.3130448906257052e-09  8.6436632983977244e-09  8.9874308542824453e-09  9.3448705261374536e-09 
 9.7165260818638564e-09  1.0102962916725831e-08  1.0504768913579195e-08  1.0922555337318252e-08 
 1.1356957764902182e-08  1.1808637052376541e-08  1.2278280340361584e-08  1.2766602099537866e-08 
 1.3274345217720374e-08  1.3802282130175794e-08  1.4351215994903373e-08  1.4921981914668283e-08 
 1.5515448207647620e-08  1.6132517728623093e-08  1.6774129242731697e-08  1.7441258853865304e-08 
 1.8134921489893676e-08  1.8856172446971831e-08  1.9606108995282594e-08  2.0385872048658853e-08 
 2.1196647900627307e-08  2.2039670029516615e-08  2.2916220975378068e-08  2.3827634291576467e-08 
 2.4775296574022241e-08  2.5760649571134608e-08  2.6785192377748153e-08  2.7850483716303394e-08 
 2.8958144308794606e-08  3.0109859343086799e-08  3.1307381037357147e-08  3.2552531306565959e-08 
 3.3847204535017757e-08  3.5193370459234458e-08  3.6593077165531040e-08  3.8048454206858710e-08 
 3.9561715843662450e-08  4.1135164413688843e-08  4.2771193835876555e-08  4.4472293253666317e-08 
 4.6241050823279708e-08  4.8080157652737345e-08  4.9992411897616270e-08  5.1980723019785944e-08 
 5.4048116215610601e-08  5.6197737020363734e-08  5.8432856095869828e-08  6.0756874208667439e-08 
 6.3173327406278481e-08  6.5685892399470468e-08  6.8298392158713632e-08  7.1014801733359813e-08 
 7.3839254302411910e-08  7.6776047466104401e-08  7.9829649787883477e-08  8.3004707596757916e-08 
 8.6306052060388071e-08  8.9738706539694718e-08  9.3307894236198185e-08  9.7019046143746227e-08 
 1.0087780931675228e-07  1.0489005546755044e-07  1.0906188990597512e-07  1.1339966083479632e-07 
 1.1790996901518486e-07  1.2259967781694702e-07  1.2747592366885592e-07  1.3254612692501811e-07 
 1.3781800316384993e-07  1.4329957493689799e-07  1.4899918398542746e-07  1.5492550394341523e-07 
 1.6108755354632949e-07  1.6749471036585014e-07  1.7415672509148858e-07  1.8108373638090188e-07 
 1.8828628630156620e-07  1.9577533638737929e-07  2.0356228433470142e-07  2.1165898136332368e-07 
 2.2007775026887024e-07  2.2883140419419835e-07  2.3793326614846177e-07  2.4739718930364726e-07 
 2.5723757809958502e-07  2.6746941018967040e-07  2.7810825926082689e-07  2.8917031876257246e-07 
 3.0067242658145140e-07  3.1263209069853936e-07  3.2506751586923683e-07  3.3799763136613462e-07 
 3.5144211982736425e-07  3.6542144725454384e-07  3.7995689420619099e-07  3.9507058823431337e-07 
 4.1078553761379099e-07  4.2712566641615268e-07  4.4411585098141347e-07  4.6178195784378601e-07 
 4.8015088316931489e-07  4.9925059376580498e-07  5.1911016972783336e-07  5.3975984878214751e-07 
 5.6123107240137300e-07  5.8355653375666458e-07  6.0677022758277799e-07  6.3090750203197387e-07 
 6.5600511259623386e-07  6.8210127818045484e-07  7.0923573941259924e-07  7.3744981928023387e-07 
 7.6678648618646944e-07  7.9729041952205695e-07  8.2900807785426629e-07  8.6198776983722628e-07 
 8.9627972795260008e-07  9.3193618519384539e-07  9.6901145481186245e-07  1.0075620132445607e-06 
 1.0476465863578072e-06  1.0893262391303409e-06  1.1326644689205749e-06  1.1777273024587481e-06 
 1.2245833967136746e-06  1.2733041437893378e-06  1.3239637800128332e-06  1.3766394993816693e-06 
 1.4314115715452011e-06  1.4883634645020314e-06  1.5475819722025244e-06  1.6091573472532334e-06 
 1.6731834389279629e-06  1.7397578366984619e-06  1.8089820195063515e-06  1.8809615110068299e-06 
 1.9558060410240331e-06  2.0336297134676092e-06  2.1145511809701826e-06  2.1986938265158707e-06 
 2.2861859523409842e-06  2.3771609763993906e-06  2.4717576366969089e-06  2.5701202038114337e-06 
 2.6723987019283276e-06  2.7787491387340018e-06  2.8893337445245324e-06  3.0043212209006650e-06 
 3.1238869994356229e-06  3.2482135107179279e-06  3.3774904641877093e-06  3.5119151392021132e-06 
 3.6516926877831158e-06  3.7970364495195630e-06  3.9481682791144794e-06  4.1053188870887546e-06 
 4.2687281941732147e-06  4.4386456999427799e-06  4.6153308662691376e-06  4.7990535161918850e-06 
 4.9900942488327471e-06  5.1887448710030093e-06  5.3953088461810761e-06  5.6101017615647573e-06 
 5.8334518139319393e-06  6.0657003150734358e-06  6.3072022175932088e-06  6.5583266619040480e-06 
 6.8194575452807941e-06  7.0909941138688878e-06  7.3733515785830754e-06  7.6669617558697892e-06 
 7.9722737343469783e-06  8.2897545683772500e-06  8.6198899996739020e-06  8.9631852080851341e-06 
 9.3201655927493894e-06  9.6913775848642566e-06  1.0077389493363357e-05  1.0478792384849432e-05 
 1.0896200999188283e-05  1.1330254702226900e-05  1.1781618477160349e-05  1.2250983956135990e-05 
 1.2739070493750112e-05  1.3246626284161867e-05  1.3774429523621689e-05  1.4323289620287395e-05 
 1.4894048453279991e-05  1.5487581683013943e-05  1.6104800114922519e-05  1.6746651118788981e-05 
 1.7414120105988007e-05  1.8108232067039976e-05  1.8830053171982836e-05  1.9580692436173303e-05 
 2.0361303454240645e-05  2.1173086205032975e-05  2.2017288930517647e-05  2.2895210091724677e-05 
 2.3808200404955024e-05  2.4757664961614408e-05  2.5745065435178680e-05  2.6771922378948399e-05 
 2.7839817618408889e-05  2.8950396742178019e-05  3.0105371695697225e-05  3.1306523482002810e-05 
 3.2555704974104012e-05  3.3854843843692985e-05  3.5205945611119090e-05  3.6611096821777408e-05 
 3.8072468354288380e-05  3.9592318866083382e-05  4.1172998382259994e-05  4.2816952033831555e-05 
 4.4526723951768169e-05  4.6304961323512238e-05  4.8154418618951088e-05  5.0077961993142584e-05 
 5.2078573873417996e-05  5.4159357738831221e-05  5.6323543100283308e-05  5.8574490690030124e-05 
 6.0915697869677101e-05  6.3350804266180721e-05  6.5883597645812308e-05  6.8518020036497008e-05 
 7.1258174109420635e-05  7.4108329831300065e-05  7.7072931399241678e-05  8.0156604470666144e-05 
 8.3364163701360678e-05  8.6700620605330452e-05  9.0171191750763448e-05  9.3781307307097062e-05 
 9.7536619958883325e-05  1.0144301420289396e-04  1.0550661604568934e-04  1.0973380311969839e-04 
 1.1413121523671973e-04  1.1870576539866695e-04  1.2346465128633448e-04  1.2841536724797020e-04 
 1.3356571681049788e-04  1.3892382573734924e-04  1.4449815565803826e-04  1.5029751829584629e-04 
 1.5633109032128935e-04  1.6260842886040789e-04  1.6913948768836585e-04  1.7593463414036767e-04 
 1.8300466677350537e-04  1.9036083381484094e-04  1.9801485243281224e-04  2.0597892887093132e-04 
 2.1426577948472939e-04  2.2288865272499704e-04  2.3186135211257527e-04  2.4119826025228918e-04 
 2.5091436393607499e-04  2.6102528038795370e-04  2.7154728470624948e-04  2.8249733856135217e-04 
 2.9389312021038899e-04  3.0575305589340842e-04  3.1809635267910470e-04  3.3094303283172794e-04 
 3.4431396977465631e-04  3.5823092573014599e-04  3.7271659111906812e-04  3.8779462580895588e-04 
 4.0348970230348830e-04  4.1982755097160287e-04  4.3683500741979850e-04  4.5454006211687075e-04 
 4.7297191238633780e-04  4.9216101688818775e-04  5.1213915271831911e-04  5.3293947526119776e-04 
 5.5459658093881883e-04  5.7714657300708292e-04  6.0062713055919524e-04  6.2507758090469634e-04 
 6.5053897550227692e-04  6.7705416963464722e-04  7.0466790602444413e-04  7.3342690260152447e-04 
 7.6337994464404887e-04  7.9457798152851036e-04  8.2707422833742104e-04  8.6092427258771271e-04 
 8.9618618635812911e-04  9.3292064411001582e-04  9.7119104651303219e-04  1.0110636506054302e-03 
 1.0526077066377786e-03  1.0958956019693912e-03  1.1410030124083188e-03  1.1880090614086634e-03 
 1.2369964875632361e-03  1.2880518208553036e-03  1.3412655681604004e-03  1.3967324085180600e-03 
 1.4545513987238680e-03  1.5148261898246260e-03  1.5776652551336831e-03  1.6431821304197394e-03 
 1.7114956669608305e-03  1.7827302981957747e-03  1.8570163207482966e-03  1.9344901906444046e-03 
 2.0152948355915204e-03  2.0995799842385109e-03  2.1875025133891546e-03  2.2792268141979852e-03 
 2.3749251784368547e-03  2.4747782059831927e-03  2.5789752347468572e-03  2.6877147943218643e-03 
 2.8012050847221748e-03  2.9196644816373578e-03  3.0433220697242977e-03  3.1724182055353593e-03 
 3.3072051117716888e-03  3.4479475046424982e-03  3.5949232562075837e-03  3.7484240936807483e-03 
 3.9087563377763757e-03  4.0762416822900842e-03  4.2512180172170908e-03  4.4340402978285520e-03 
 4.6250814622466122e-03  4.8247334001827987e-03  5.0334079756318012e-03  5.2515381064428051e-03 
 5.4795789038233865e-03  5.7180088749656270e-03  5.9673311921202418e-03  6.2280750315811227e-03 
 6.5007969861790105e-03  6.7860825550179350e-03  7.0845477143204319e-03  7.3968405733756378e-03 
 7.7236431197070547e-03  8.0656730576916628e-03  8.4236857449672808e-03  8.7984762310581305e-03 
 9.1908814027266816e-03  9.6017822406198935e-03  1.0032106191816544e-02  1.0482829662895495e-02 
 1.0954980638128079e-02  1.1449641427346755e-02  1.1967951547951097e-02  1.2511110745375616e-02 
 1.3080382156155194e-02  1.3677095617476123e-02  1.4302651126786612e-02  1.4958522454651284e-02 
 1.5646260913561992e-02  1.6367499284851292e-02  1.7123955905186936e-02  1.7917438913343565e-02 
 1.8749850657041711e-02  1.9623192258601787e-02  2.0539568336970952e-02  2.1501191882331013e-02 
 2.2510389277973900e-02  2.3569605462426139e-02  2.4681409222902437e-02  2.5848498609061299e-02 
 2.7073706453710114e-02  2.8360005984555681e-02  2.9710516508308998e-02  3.1128509145424161e-02 
 3.2617412590474154e-02  3.4180818869637995e-02  3.5822489062990910e-02  3.7546358955249631e-02 
 3.9356544574328405e-02  4.1257347572504981e-02  4.3253260400172355e-02  4.5348971217057069e-02 
 4.7549368480395982e-02  4.9859545143855176e-02  5.2284802394902755e-02  5.4830652851847676e-02 
 5.7502823134739159e-02  6.0307255716667209e-02  6.3250109953559480e-02  6.6337762181144663e-02 
 6.9576804757126048e-02  7.2974043914534395e-02  7.6536496278455851e-02  8.0271383882623989e-02 
 8.4186127504561795e-02  8.8288338118001713e-02  9.2585806239352864e-02  9.7086488921430680e-02 
 1.0179849412330851e-01  1.0673006216123332e-01  1.1188954392384715e-01  1.1728537551783338e-01 
 1.2292604900049026e-01  1.2882007885706212e-01  1.3497596389671168e-01  1.4140214427567160e-01 
 1.4810695341300331e-01  1.5509856464645833e-01  1.6238493258490908e-01  1.6997372924962437e-01 
 1.7787227525678972e-01  1.8608746647257460e-01  1.9462569676069141e-01  2.0349277762815560e-01 
 2.1269385574224153e-01  2.2223332942334231e-01  2.3211476529872252e-01  2.4234081632005738e-01 
 2.5291314230105005e-01  2.6383233402986267e-01  2.7509784187610914e-01  2.8670790967385024e-01 
 2.9865951455241807e-01  3.1094831333148776e-01  3.2356859610748739e-01  3.3651324772996111e-01 
 3.4977371797753376e-01  3.6334000136079703e-01  3.7720062756475403e-01  3.9134266355552694e-01 
 4.0575172827386990e-01  4.2041202058143928e-01  4.3530636067790607e-01  4.5041624454211665e-01 
 4.6572191007011965e-01  4.8120241253991541e-01  4.9683570595833965e-01  5.1259872596410916e-01 
 5.2846746957361934e-01  5.4441706747123331e-01  5.6042184595899314e-01  5.7645537803692470e-01 
 5.9249052599673657e-01  6.0849948070536009e-01  6.2445380466861600e-01  6.4032448642706197e-01 
 6.5608201314542935e-01  6.7169646771562852e-01  6.8713763345012890e-01  7.0237514180574712e-01 
 7.1737862290847998e-01  7.3211786772213350e-01  7.4656299487210565e-01  7.6068461579599889e-01 
 7.7445399347246047e-01  7.8784319121205593e-01  8.0082520917699784e-01  8.1337410732190940e-01 
 8.2546511425058766e-01  8.3707472205818889e-01  8.4818076760352790e-01  8.5876250087610195e-01 
 8.6880064123177680e-01  8.7827742230804573e-01  8.8717662642351636e-01  8.9548360923685699e-01 
 9.0318531540065605e-01  9.1027028590270043e-01  9.1672865774496148e-01  9.2255215657053435e-01 
 9.2773408281142877e-01  9.3226929189542140e-01  9.3615416901795545e-01  9.3938659895519860e-01 
 9.4196593136658524e-01  9.4389294201193252e-01  9.4516979028410830e-01  9.4579997343587385e-01 
 9.4578827786769715e-01  9.4514072782770342e-01  9.4386453185933084e-01  9.4196802732488127e-01 
 9.3946062332525970e-01  9.3635274232736021e-01  9.3265576080405466e-01  9.2838194918577122e-01 
 9.2354441141461208e-01  9.1815702438357316e-01  9.1223437753344039e-01  9.0579171286806670e-01 
 8.9884486563517718e-01  8.9141020590407349e-01  8.8350458125391074e-01  8.7514526076695154e-01 
 8.6634988050048800e-01  8.5713639058935998e-01  8.4752300410864856e-01  8.3752814780359774e-01 
 8.2717041477159170e-01  8.1646851915947039e-01  8.0544125291901902e-01  7.9410744464434979e-01 
 7.8248592049720211e-01  7.7059546721218786e-01  7.5845479715827835e-01  7.4608251505435241e-01 
 7.3349708812785008e-01  7.2071681600721904e-01  7.0775980393611315e-01  6.9464393743158248e-01 
 6.8138685867975968e-01  6.6800594460170259e-01  6.5451828652046362e-01  6.4094067136016131e-01 
 6.2728956430826077e-01  6.1358109287320728e-01  5.9983103227084023e-01  5.8605479207453526e-01 
 5.7226740406566212e-01  5.5848351122296769e-01  5.4471735779118235e-01  5.3098278037108448e-01 
 5.1729319997526402e-01  5.0366161499580497e-01  4.9010059503213932e-01  4.7662227552941672e-01 
 4.6323835317988604e-01  4.4996008204203991e-01  4.3679827033468266e-01  4.2376327786544837e-01 
 4.1086501405563464e-01  3.9811293652599616e-01  3.8551605021094437e-01  3.7308290697129837e-01 
 3.6082160567857308e-01  3.4873979274672479e-01  3.3684466309025479e-01  3.2514296149059885e-01 
 3.1364098435580345e-01  3.0234458186158386e-01  2.9125916046501349e-01  2.8038968578525314e-01 
 2.6974068584892896e-01  2.5931625470096453e-01  2.4912005638487381e-01  2.3915532929964856e-01 
 2.2942489094335644e-01  2.1993114305715636e-01  2.1067607718510073e-01  2.0166128066737424e-01 
 1.9288794308831825e-01  1.8435686320071115e-01  1.7606845634862792e-01  1.6802276241164163e-01 
 1.6021945429228651e-01  1.5265784696698304e-01  1.4533690711792691e-01  1.3825526335970947e-01 
 1.3141121706969563e-01  1.2480275382548496e-01  1.1842755544622188e-01  1.1228301262722148e-01 
 1.0636623814955767e-01  1.0067408063815154e-01  9.5203138833549014e-02  8.9949776334412548e-02 
 8.4910136760008373e-02  8.0080159274704549e-02  7.5455594410057919e-02  7.1032020114522587e-02 
 6.6804857956435856e-02  6.2769389402813111e-02  5.8920772094403114e-02  5.5254056036838584e-02 
 5.1764199628475671e-02  4.8446085447383207e-02  4.5294535723105794e-02  4.2304327423097324e-02 
 3.9470206889011261e-02  3.6786903964209063e-02  3.4249145560760350e-02  3.1851668621692746e-02 
 2.9589232442123071e-02  2.7456630320973265e-02  2.5448700523042576e-02  2.3560336539068059e-02 
 2.1786496638861431e-02  2.0122212719474057e-02  1.8562598456448240e-02  1.7102856771431581e-02 
 1.5738286633667862e-02  1.4464289216077146e-02  1.3276373428806025e-02  1.2170160854313239e-02 
 1.1141390108349461e-02  1.0185920650725506e-02  9.2997360687042119e-03  8.4789468543757501e-03 
 7.7197926956685909e-03  7.0186442988854790e-03  6.3720047589933713e-03  5.7765104924711111e-03 
 5.2289317464271250e-03  4.7261726970070136e-03  4.2652711498467229e-03  3.8433978554885001e-03 
 3.4578554532336131e-03  3.1060770578048721e-03  2.7856245043647553e-03  2.4941862688026037e-03 
 2.2295750816847541e-03  1.9897252557728308e-03  1.7726897484821509e-03  1.5766369820060138e-03 
 1.3998474450155733e-03  1.2407101008131373e-03  1.0977186275353435e-03  9.6946751644967437e-04 
 8.5464805455212568e-04  7.5204421755427667e-04  6.6052849895193810e-04  5.7905770020948274e-04 
 5.0666870619424484e-04  4.4247426887866726e-04  3.8565882102201322e-04  3.3547434007817660e-04 
 2.9123628098209550e-04  2.5231959477521040e-04  2.1815484827033662e-04  1.8822445815693285e-04 
 1.6205905113602444e-04  1.3923395987475249e-04  1.1936586280610460e-04  1.0210957408968389e-04 
 8.7154988411581504e-05  7.4224183750058869e-05  6.3068683780685366e-05  5.3466880249117404e-05 
 4.5221614408692373e-05  3.8157915507986418e-05  3.2120893322846574e-05  2.6973780858605285e-05 
 2.2596122599908760e-05  1.8882103054985332e-05  1.5739009824042888e-05  1.3085825012482327e-05 
 1.0851938502475161e-05  8.9759763841700173e-06  7.4047377228054918e-06  6.0922327923747217e-06 
 4.9988159320567547e-06  4.0904062701759312e-06  3.3377897038122043e-06  2.7159957123812114e-06 
 2.2037428128317081e-06  1.7829467252345194e-06  1.4382856035600447e-06  1.1568169909487744e-06 
 9.2764147588745009e-07  7.4160835008512674e-07  5.9105889573816361e-07  4.6960325509591655e-07 
 3.7192715516711534e-07  2.9362507196890535e-07  2.3105671936911974e-07  1.8122403526013827e-07 
 1.4166611094141393e-07  1.1036976701742299e-07  8.5693720062184411e-08  6.6304508328501822e-08 
 5.1122551759573156e-08  3.9276911623009716e-08  3.0067488583407036e-08  2.2933555492144323e-08 
 1.7427663280607802e-08  1.3194085886451092e-08  9.9510839946168934e-09  7.4763684629747558e-09 
 5.5952335843072934e-09  4.1709087792376645e-09  3.0967458775405413e-09  2.2899187641914815e-09 
 1.6863637427918469e-09  1.2367333600020132e-09  9.0317444692840528e-10  6.5677351828241453e-10 
 4.7554012071767297e-10  3.4282187204037728e-10  2.4606435809099273e-10  1.7584527172450236e-10 
 1.2512565119107155e-10  8.8672214271129953e-11  6.2613952750911895e-11  4.4103668770077135e-11 
 0.0000000000000000e+00  0.0000000000000000e+00  0.0000000000000000e+00  0.0000000000000000e+00 
 0.0000000000000000e+00  0.0000000000000000e+00  0.0000000000000000e+00  0.0000000000000000e+00 
 0.0000000000000000e+00  0.0000000000000000e+00  0.0000000000000000e+00  0.0000000000000000e+00 
 0.0000000000000000e+00  0.0000000000000000e+00  0.0000000000000000e+00  0.0000000000000000e+00 
 0.0000000000000000e+00  0.0000000000000000e+00  0.0000000000000000e+00  0.0000000000000000e+00 
 0.0000000000000000e+00  0.0000000000000000e+00  0.0000000000000000e+00  0.0000000000000000e+00 
 0.0000000000000000e+00  0.0000000000000000e+00  0.0000000000000000e+00  0.0000000000000000e+00 
 0.0000000000000000e+00  0.0000000000000000e+00  0.0000000000000000e+00  0.0000000000000000e+00 
 0.0000000000000000e+00  0.0000000000000000e+00  0.0000000000000000e+00  0.0000000000000000e+00 
 0.0000000000000000e+00  0.0000000000000000e+00  0.0000000000000000e+00  0.0000000000000000e+00 
 0.0000000000000000e+00  0.0000000000000000e+00  0.0000000000000000e+00  0.0000000000000000e+00 
 0.0000000000000000e+00  0.0000000000000000e+00  0.0000000000000000e+00  0.0000000000000000e+00 
 0.0000000000000000e+00  0.0000000000000000e+00  0.0000000000000000e+00  0.0000000000000000e+00 
 0.0000000000000000e+00  0.0000000000000000e+00  0.0000000000000000e+00  0.0000000000000000e+00 
 0.0000000000000000e+00  0.0000000000000000e+00  0.0000000000000000e+00  0.0000000000000000e+00 
 0.0000000000000000e+00  0.0000000000000000e+00  0.0000000000000000e+00  0.0000000000000000e+00 
 0.0000000000000000e+00  0.0000000000000000e+00  0.0000000000000000e+00  0.0000000000000000e+00 
 0.0000000000000000e+00  0.0000000000000000e+00  0.0000000000000000e+00  0.0000000000000000e+00 
 0.0000000000000000e+00  0.0000000000000000e+00  0.0000000000000000e+00  0.0000000000000000e+00 
 0.0000000000000000e+00  0.0000000000000000e+00  0.0000000000000000e+00  0.0000000000000000e+00 
 0.0000000000000000e+00  0.0000000000000000e+00  0.0000000000000000e+00  0.0000000000000000e+00 
 0.0000000000000000e+00  0.0000000000000000e+00  0.0000000000000000e+00  0.0000000000000000e+00 
 0.0000000000000000e+00  0.0000000000000000e+00  0.0000000000000000e+00  0.0000000000000000e+00 
 0.0000000000000000e+00  0.0000000000000000e+00  0.0000000000000000e+00  0.0000000000000000e+00 
 0.0000000000000000e+00  0.0000000000000000e+00  0.0000000000000000e+00  0.0000000000000000e+00 
 0.0000000000000000e+00  0.0000000000000000e+00  0.0000000000000000e+00  0.0000000000000000e+00 
 0.0000000000000000e+00  0.0000000000000000e+00  0.0000000000000000e+00  0.0000000000000000e+00 
 0.0000000000000000e+00  0.0000000000000000e+00  0.0000000000000000e+00  0.0000000000000000e+00 
 0.0000000000000000e+00  0.0000000000000000e+00  0.0000000000000000e+00  0.0000000000000000e+00 
 0.0000000000000000e+00  0.0000000000000000e+00  0.0000000000000000e+00  0.0000000000000000e+00 
 0.0000000000000000e+00  0.0000000000000000e+00  0.0000000000000000e+00  0.0000000000000000e+00 
 0.0000000000000000e+00  0.0000000000000000e+00  0.0000000000000000e+00  0.0000000000000000e+00 
 0.0000000000000000e+00  0.0000000000000000e+00  0.0000000000000000e+00  0.0000000000000000e+00 
 0.0000000000000000e+00  0.0000000000000000e+00  0.0000000000000000e+00  0.0000000000000000e+00 
 0.0000000000000000e+00  0.0000000000000000e+00  0.0000000000000000e+00  0.0000000000000000e+00 
 0.0000000000000000e+00 
</PP_PSWFC>


<PP_RHOATOM>
 3.5223864429160266e-13  3.6151694573803208e-13  3.7103964652307408e-13  3.8081318436129300e-13 
 3.9084416654298379e-13  4.0113937440096931e-13  4.1170576789505845e-13  4.2255049031726370e-13 
 4.3368087312095890e-13  4.4510444087724276e-13  4.5682891636185825e-13  4.6886222577610701e-13 
 4.8121250410528986e-13  4.9388810061829099e-13  5.0689758451203239e-13  5.2024975070460530e-13 
 5.3395362578100151e-13  5.4801847409546129e-13  5.6245380403456532e-13  5.7726937444530115e-13 
 5.9247520123245425e-13  6.0808156412978286e-13  6.2409901364955080e-13  6.4053837821511986e-13 
 6.5741077148142708e-13  6.7472759984828316e-13  6.9250057017159061e-13  7.1074169767767794e-13 
 7.2946331408610771e-13  7.4867807594644941e-13  7.6839897319465645e-13  7.8863933793482344e-13 
 8.0941285345226819e-13  8.3073356346402940e-13  8.5261588161303546e-13  8.7507460121235754e-13 
 8.9812490524614233e-13  9.2178237663397988e-13  9.4606300876564893e-13  9.7098321631336180e-13 
 9.9655984632881498e-13  1.0228101896325539e-12  1.0497519925033449e-12  1.0774034686754661e-12 
 1.1057833116520145e-12  1.1349107073425712e-12  1.1648053470337532e-12  1.1954874407014310e-12 
 1.2269777306736068e-12  1.2592975056531897e-12  1.2924686151101580e-12  1.3265134840528158e-12 
 1.3614551281881699e-12  1.3973171694816248e-12  1.4341238521265616e-12  1.4719000589345753e-12 
 1.5106713281574524e-12  1.5504638707522610e-12  1.5913045881012374e-12  1.6332210901984356e-12 
 1.6762417143154443e-12  1.7203955441587840e-12  1.7657124295319418e-12  1.8122230065153362e-12 
 1.8599587181778523e-12  1.9089518358339542e-12  1.9592354808607417e-12  2.0108436470897052e-12 
 2.0638112237883219e-12  2.1181740192470105e-12  2.1739687849874296e-12  2.2312332406084424e-12 
 2.2900060992865790e-12  2.3503270939482243e-12  2.4122370041312269e-12  2.4757776835540892e-12 
 2.5409920884113851e-12  2.6079243064145212e-12  2.6766195865975101e-12  2.7471243699078505e-12 
 2.8194863206032507e-12  2.8937543584754072e-12  2.9699786919226087e-12  3.0482108518935397e-12 
 3.1285037267252419e-12  3.2109115978987724e-12  3.2954901767367398e-12  3.3822966420675349e-12 
 3.4713896788817187e-12  3.5628295180066950e-12  3.6566779768265143e-12  3.7529985010743249e-12 
 3.8518562077257194e-12  3.9533179290220146e-12  4.0574522576531901e-12  4.1643295931310583e-12 
 4.2740221893840146e-12  4.3866042036055566e-12  4.5021517463895977e-12  4.6207429331864482e-12 
 4.7424579371143169e-12  4.8673790431619782e-12  4.9955907038192978e-12  5.1271795961732118e-12 
 5.2622346805077552e-12  5.4008472604478315e-12  5.5431110446872681e-12  5.6891222103430486e-12 
 5.8389794679783981e-12  5.9927841283388594e-12  6.1506401708463318e-12  6.3126543138974884e-12 
 6.4789360870140920e-12  6.6495979048939550e-12  6.8247551434126669e-12  7.0045262176274326e-12 
 7.1890326618358629e-12  7.3783992117437074e-12  7.5727538887972678e-12  7.7722280867373589e-12 
 7.9769566604334589e-12  8.1870780170581020e-12  8.4027342096630913e-12  8.6240710332209654e-12 
 8.8512381231965074e-12  9.0843890567150664e-12  9.3236814563960728e-12  9.5692770969219577e-12 
 9.8213420144145614e-12  1.0080046618693023e-11  1.0345565808489033e-11  1.0618079089697358e-11 
 1.0897770696741729e-11  1.1184829717137971e-11  1.1479450219338865e-11  1.1781831383946960e-11 
 1.2092177638384318e-11  1.2410698795110059e-11  1.2737610193479433e-11  1.3073132845340056e-11 
 1.3417493584464099e-11  1.3770925219917376e-11  1.4133666693468922e-11  1.4505963241147905e-11 
 1.4888066559056694e-11  1.5280234973552694e-11  1.5682733615913649e-11  1.6095834601604951e-11 
 1.6519817214269896e-11  1.6954968094567597e-11  1.7401581433986148e-11  1.7859959173762205e-11 
 1.8330411209041631e-11  1.8813255598419128e-11  1.9308818778998820e-11  1.9817435787121259e-11 
 2.0339450484905974e-11  2.0875215792763188e-11  2.1425093928031699e-11  2.1989456649904627e-11 
 2.2568685510808501e-11  2.3163172114406109e-11  2.3773318380397337e-11  2.4399536816297460e-11 
 2.5042250796376666e-11  2.5701894847949444e-11  2.6378914945207993e-11  2.7073768810797939e-11 
 2.7786926225340944e-11  2.8518869345113389e-11  2.9270093028096199e-11  3.0041105168616643e-11 
 3.0832427040808352e-11  3.1644593651122181e-11  3.2478154100126524e-11  3.3333671953841980e-11 
 3.4211725624861648e-11  3.5112908763515132e-11  3.6037830659341169e-11  3.6987116653140231e-11 
 3.7961408559886881e-11  3.8961365102787234e-11  3.9987662358776249e-11  4.1040994215755949e-11 
 4.2122072841884484e-11  4.3231629167233747e-11  4.4370413378141530e-11  4.5539195424593456e-11 
 4.6738765540977519e-11  4.7969934780565092e-11  4.9233535564079145e-11  5.0530422242722208e-11 
 5.1861471676044968e-11  5.3227583825047217e-11  5.4629682360912492e-11  5.6068715289789701e-11 
 5.7545655594044071e-11  5.9061501890412206e-11  6.0617279105508250e-11  6.2214039169136537e-11 
 6.3852861725883721e-11  6.5534854865469500e-11  6.7261155872353602e-11  6.9032931995105255e-11 
 7.0851381236057955e-11  7.2717733161783498e-11  7.4633249734936713e-11  7.6599226168032647e-11 
 7.8616991799737174e-11  8.0687910994263603e-11  8.2813384064486352e-11  8.4994848219397575e-11 
 8.7233778536548664e-11  8.9531688960137842e-11  9.1890133325418900e-11  9.4310706410128054e-11 
 9.6795045013641572e-11  9.9344829064595961e-11  1.0196178275772393e-10  1.0464767572067593e-10 
 1.0740432421162146e-10  1.1023359234844121e-10  1.1313739337034659e-10  1.1611769093278157e-10 
 1.1917650043648821e-10  1.2231589039163752e-10  1.2553798381795281e-10  1.2884495968177717e-10 
 1.3223905437106137e-10  1.3572256320927598e-10  1.3929784200927521e-10  1.4296730866817170e-10 
 1.4673344480430420e-10  1.5059879743741494e-10  1.5456598071317878e-10  1.5863767767325745e-10 
 1.6281664207208657e-10  1.6710570024162993e-10  1.7150775300537660e-10  1.7602577764288037e-10 
 1.8066282990618556e-10  1.8542204608951423e-10  1.9030664515362559e-10  1.9531993090630266e-10 
 2.0046529424045328e-10  2.0574621543135732e-10  2.1116626649463204e-10  2.1672911360652993e-10 
 2.2243851958822717e-10  2.2829834645580670e-10  2.3431255803768328e-10  2.4048522266126856e-10 
 2.4682051591072213e-10  2.5332272345767987e-10  2.5999624396690834e-10  2.6684559207887989e-10 
 2.7387540147131957e-10  2.8109042800182726e-10  2.8849555293373006e-10  2.9609578624738168e-10 
 3.0389627003917097e-10  3.1190228201056748e-10  3.2011923904957744e-10  3.2855270090704930e-10 
 3.3720837397030961e-10  3.4609211513668529e-10  3.5520993578949915e-10  3.6456800587920373e-10 
 3.7417265811236321e-10  3.8403039225125791e-10  3.9414787952695055e-10  4.0453196716871972e-10 
 4.1518968305284706e-10  4.2612824047382004e-10  4.3735504304113263e-10  4.4887768970493785e-10 
 4.6070397991395798e-10  4.7284191890915977e-10  4.8529972315684605e-10  4.9808582592497156e-10 
 5.1120888300660953e-10  5.2467777859465574e-10  5.3850163131198029e-10  5.5268980040137845e-10 
 5.6725189207978923e-10  5.8219776606136773e-10  5.9753754225411420e-10  6.1328160763486823e-10 
 6.2944062330758820e-10  6.4602553174995666e-10  6.6304756425415638e-10  6.8051824857701691e-10 
 6.9844941682607036e-10  7.1685321352444628e-10  7.3574210388051315e-10  7.5512888227685748e-10 
 7.7502668098513381e-10  7.9544897911285374e-10  8.1640961178833625e-10  8.3792277959024286e-10 
 8.6000305822827571e-10  8.8266540848180598e-10  9.0592518640338610e-10  9.2979815379428539e-10 
 9.5430048895938985e-10  9.7944879774901511e-10  1.0052601248953670e-09  1.0317519656516420e-09 
 1.0589422777419234e-09  1.0868494936303053e-09  1.1154925331178900e-09  1.1448908162765334e-09 
 1.1750642767284861e-09  1.2060333752813136e-09  1.2378191139277442e-09  1.2704430502203644e-09 
 1.3039273120313675e-09  1.3382946127078322e-09  1.3735682666333089e-09  1.4097722052068077e-09 
 1.4469309932505528e-09  1.4850698458582617e-09  1.5242146456959511e-09  1.5643919607676824e-09 
 1.6056290626589755e-09  1.6479539452709916e-09  1.6913953440589627e-09  1.7359827557887122e-09 
 1.7817464588255279e-09  1.8287175339700414e-09  1.8769278858562056e-09  1.9264102649268615e-09 
 1.9771982900028635e-09  2.0293264714622058e-09  2.0828302350460031e-09  2.1377459463087271e-09 
 2.1941109357306045e-09  2.2519635245105639e-09  2.3113430510586606e-09  2.3722898982075363e-09 
 2.4348455211629126e-09  2.4990524762138337e-09  2.5649544502238819e-09  2.6325962909253020e-09 
 2.7020240380385483e-09  2.7732849552404705e-09  2.8464275630050532e-09  2.9215016723412922e-09 
 2.9985584194536175e-09  3.0776503013508957e-09  3.1588312124309558e-09  3.2421564820683597e-09 
 3.3276829132338859e-09  3.4154688221752299e-09  3.5055740791891520e-09  3.5980601505163418e-09 
 3.6929901413911551e-09  3.7904288402794166e-09  3.8904427643384812e-09  3.9931002061347754e-09 
 4.0984712816551981e-09  4.2066279796498330e-09  4.3176442123446045e-09  4.4315958675637598e-09 
 4.5485608623032600e-09  4.6686191977974493e-09  4.7918530161228373e-09  4.9183466583840167e-09 
 5.0481867245283419e-09  5.1814621348374281e-09  5.3182641931450690e-09  5.4586866518327465e-09 
 5.6028257786556321e-09  5.7507804254536428e-09  5.9026520988038579e-09  6.0585450326726023e-09 
 6.2185662631272000e-09  6.3828257051695610e-09  6.5514362317557387e-09  6.7245137550677753e-09 
 6.9021773101062725e-09  7.0845491406746127e-09  7.2717547878279117e-09  7.4639231808624290e-09 
 7.6611867309237153e-09  7.8636814273143586e-09  8.0715469365850493e-09  8.2849267044955554e-09 
 8.5039680609352021e-09  8.7288223278955060e-09  8.9596449305909140e-09  9.1965955118270181e-09 
 9.4398380497189068e-09  9.6895409788662752e-09  9.9458773150953852e-09  1.0209024783882123e-08 
 1.0479165952574444e-08  1.0756488366536738e-08  1.1041184689343095e-08  1.1333452847151217e-08 
 1.1633496177393261e-08  1.1941523581925218e-08  1.2257749684781582e-08  1.2582394994687298e-08 
 1.2915686072485116e-08  1.3257855703641868e-08  1.3609143076003850e-08  1.3969793962977703e-08 
 1.4340060912319738e-08  1.4720203440724256e-08  1.5110488234407896e-08  1.5511189355895623e-08 
 1.5922588457221044e-08  1.6344974999762788e-08  1.6778646480946989e-08  1.7223908668055117e-08 
 1.7681075839385979e-08  1.8150471033030442e-08  1.8632426303528027e-08  1.9127282986685109e-08 
 1.9635391972846241e-08  2.0157113988921315e-08  2.0692819889484360e-08  2.1242890957272209e-08 
 2.1807719213425263e-08  2.2387707737826578e-08  2.2983270999910220e-08  2.3594835200325923e-08 
 2.4222838623862701e-08  2.4867732004051920e-08  2.5529978899887582e-08  2.6210056085120497e-08 
 2.6908453950603144e-08  2.7625676920181744e-08  2.8362243880654664e-08  2.9118688626337928e-08 
 2.9895560318803340e-08  3.0693423962378640e-08  3.1512860896026214e-08  3.2354469302243862e-08 
 3.3218864733659272e-08  3.4106680658021687e-08  3.5018569022324449e-08  3.5955200836825999e-08 
 3.6917266779772322e-08  3.7905477823659825e-08  3.8920565883916857e-08  3.9963284490922591e-08 
 4.1034409486324619e-08  4.2134739744660961e-08  4.3265097921340857e-08  4.4426331228086332e-08 
 4.5619312236990832e-08  4.6844939714404036e-08  4.8104139485911839e-08  4.9397865333739534e-08 
 5.0727099927971846e-08  5.2092855793049392e-08  5.3496176311073208e-08  5.4938136763523826e-08 
 5.6419845413079008e-08  5.7942444627299008e-08  5.9507112046033839e-08  6.1115061794501193e-08 
 6.2767545744078753e-08  6.4465854822959731e-08  6.6211320378925674e-08  6.8005315596607230e-08 
 6.9849256971722174e-08  7.1744605844907842e-08  7.3692869997898764e-08  7.5695605314942098e-08 
 7.7754417512492044e-08  7.9870963940383415e-08  8.2046955457850520e-08  8.4284158387931911e-08 
 8.6584396553991837e-08  8.8949553402280344e-08  9.1381574214666134e-08  9.3882468415893968e-08 
 9.6454311979950364e-08  9.9099249940368682e-08  1.0181949900956246e-07  1.0461735031255327e-07 
 1.0749517224074818e-07  1.1045541343173099e-07  1.1350060588135828e-07  1.1663336819479499e-07 
 1.1985640898349158e-07  1.2317253041549187e-07  1.2658463192687031e-07  1.3009571410253424e-07 
 1.3370888273508793e-07  1.3742735307094098e-07  1.4125445425336810e-07  1.4519363397277138e-07 
 1.4924846333498501e-07  1.5342264195907672e-07  1.5772000331676258e-07  1.6214452032624586e-07 
 1.6670031121403106e-07  1.7139164565905774e-07  1.7622295123432365e-07  1.8119882016206431e-07 
 1.8632401639949793e-07  1.9160348307314088e-07  1.9704235028077837e-07  2.0264594328129591e-07 
 2.0841979109379372e-07  2.1436963552868459e-07  2.2050144067484439e-07  2.2682140286833690e-07 
 2.3333596116978271e-07  2.4005180837909243e-07  2.4697590261803845e-07  2.5411547951301034e-07 
 2.6147806501229241e-07  2.6907148887432960e-07  2.7690389886570690e-07  2.8498377570999131e-07 
 2.9331994883115389e-07  3.0192161293804427e-07  3.1079834549932109e-07  3.1996012516137327e-07 
 3.2941735116510929e-07  3.3918086382106419e-07  3.4926196610608318e-07  3.5967244644891827e-07 
 3.7042460277643055e-07  3.8153126789673461e-07  3.9300583630061345e-07  4.0486229246783767e-07 
 4.1711524077073011e-07  4.2977993707339774e-07  4.4287232213157852e-07  4.5640905690502671e-07 
 4.7040755990183177e-07  4.8488604668208006e-07  4.9986357165682266e-07  5.1536007232752739e-07 
 5.3139641612101838e-07  5.4799444998548288e-07  5.6517705292443745e-07  5.8296819165769735e-07 
 6.0139297961142737e-07  6.2047773945333062e-07  6.4025006940405850e-07  6.6073891357203227e-07 
 6.8197463657619691e-07  7.0398910273981585e-07  7.2681576015841905e-07  7.5048972996648764e-07 
 7.7504790115057599e-07  8.0052903128139712e-07  8.2697385356413241e-07  8.5442519063498188e-07 
 8.8292807556290870e-07  9.1252988054885143e-07  9.4328045385055858e-07  9.7523226549983228e-07 
 1.0084405624206056e-06  1.0429635336011452e-06  1.0788624860220261e-06  1.1162020320936926e-06 
 1.1550502894136517e-06  1.1954790937140203e-06  1.2375642259356433e-06  1.2813856544356826e-06 
 1.3270277934118622e-06  1.3745797787090295e-06  1.4241357622626778e-06  1.4757952265303358e-06 
 1.5296633203657032e-06  1.5858512179028843e-06  1.6444765021396535e-06  1.7056635750402675e-06 
 1.7695440961207020e-06  1.8362574516332694e-06  1.9059512566344383e-06  1.9787818924003501e-06 
 2.0549150818503198e-06  2.1345265058506896e-06  2.2178024635014176e-06  2.3049405797570548e-06 
 2.3961505640042316e-06  2.4916550235111655e-06  2.5916903359830828e-06  2.6965075858031628e-06 
 2.8063735689139060e-06  2.9215718717016015e-06  3.0424040296895729e-06  3.1691907723274262e-06 
 3.3022733606870077e-06  3.4420150254452501e-06  3.5888025131534565e-06  3.7430477494667557e-06 
 3.9051896287413016e-06  4.0756959402059653e-06  4.2550654417857700e-06  4.4438300936029438e-06 
 4.6425574642154895e-06  4.8518533237805344e-06  5.0723644395595968e-06  5.3047815905247064e-06 
 5.5498428192888706e-06  5.8083369411835258e-06  6.0811073320522645e-06  6.3690560182383670e-06 
 6.6731480943295499e-06  6.9944164965039414e-06  7.3339671618154812e-06  7.6929846064862479e-06 
 8.0727379592603415e-06  8.4745874891446402e-06  8.8999916704441705e-06  9.3505148319252825e-06 
 9.8278354412422881e-06  1.0333755080481380e-05  1.0870208173850648e-05  1.1439272534223950e-05 
 1.2043180801480590e-05  1.2684332852428116e-05  1.3365309269616923e-05  1.4088885964619559e-05 
 1.4858050060434878e-05  1.5676017147670471e-05  1.6546250040152287e-05  1.7472479167712634e-05 
 1.8458724757233136e-05  1.9509320967697867e-05  2.0628942161186219e-05  2.1822631509565353e-05 
 2.3095832156305301e-05  2.4454421174532353e-05  2.5904746586377445e-05  2.7453667735108969e-05 
 2.9108599330733899e-05  3.0877559522010215e-05  3.2769222383469201e-05  3.4792975245474887e-05 
 3.6958981338964274e-05  3.9278248274775649e-05  4.1762702930906453e-05  4.4425273380214478e-05 
 4.7279978556632676e-05  5.0342026430622583e-05  5.3627921545142144e-05  5.7155582852741566e-05 
 6.0944472893519256e-05  6.5015739463678983e-05  6.9392371046568988e-05  7.4099367413734999e-05 
 7.9163926954232652e-05  8.4615652457941233e-05  9.0486777264838593e-05  9.6812413899282151e-05 
 1.0363082753871440e-04  1.1098373692255942e-04  1.1891664559241817e-04  1.2747920667236030e-04 
 1.3672562475193091e-04  1.4671509882862904e-04  1.5751231070579026e-04  1.6918796373126710e-04 
 1.8181937730792994e-04  1.9549114321537324e-04  2.1029585046064374e-04  2.2633488613251756e-04 
 2.4371932057798762e-04  2.6257088616142034e-04  2.8302305991770977e-04  3.0522226158344800e-04 
 3.2932917979884043e-04  3.5552024073369297e-04  3.8398923502091917e-04  4.1494912070034573e-04 
 4.4863402190603195e-04  4.8530144529617986e-04  5.2523473875311800e-04  5.6874581970179576e-04 
 6.1617820354208910e-04  6.6791036619995661e-04  7.2435947871597522e-04  7.8598555615225598e-04 
 8.5329606796014264e-04  9.2685106236640405e-04  1.0072688633654845e-03  1.0952324056162218e-03 
 1.1914962800062667e-03  1.2968945709459685e-03  1.4123495756727400e-03  1.5388815060816102e-03 
 1.6776192849504413e-03  1.8298125610101777e-03  1.9968450812411333e-03  2.1802495741836225e-03 
 2.3817243150723328e-03  2.6031515623834980e-03  2.8466180760752706e-03  3.1144379505647548e-03 
 3.4091780204858961e-03  3.7336861246812340e-03  4.0911225438698406e-03  4.4849949601759422e-03 
 4.9191973223652943e-03  5.3980530393794874e-03  5.9263629667272192e-03  6.5094586956119093e-03 
 7.1532617034435649e-03  7.8643489766589570e-03  8.6500257725679874e-03  9.5184062462040607e-03 
 1.0478502730754241e-02  1.1540324525856679e-02  1.2714987116543704e-02  1.4014832816404052e-02 
 1.5453563901005645e-02  1.7046389370938858e-02  1.8810186556972308e-02  2.0763678851471897e-02 
 2.2927630918850521e-02  2.5325062801506204e-02  2.7981484394233699e-02  3.0925151806838296e-02 
 3.4187347168600002e-02  3.7802683445848015e-02  4.1809435841251824e-02  4.6249901316077799e-02 
 5.1170787719663956e-02  5.6623633918316200e-02  6.2665262182847875e-02  6.9358263913763346e-02 
 7.6771519548969880e-02  8.4980753203938900e-02  9.4069122231296681e-02  1.0412784144874654e-01 
 1.1525684126390276e-01  1.2756545831521851e-01  1.4117315654328313e-01  1.5621027580046745e-01 
 1.7281880419405393e-01  1.9115316933423127e-01  2.1138104252018283e-01  2.3368414864235371e-01 
 2.5825907320509484e-01  2.8531805638027402e-01  3.1508976238887432e-01  3.4782001077452795e-01 
 3.8377245428181639e-01  4.2322918608587234e-01  4.6649125704390443e-01  5.1387908146350114e-01 
 5.6573270762397032e-01  6.2241192697332026e-01  6.8429619359840266e-01  7.5178432329445644e-01 
 8.2529393943599760e-01  9.0526063100127052e-01  9.9213678669427041e-01  1.0863900683509051e+00 
 1.1885014869594908e+00  1.2989630459549140e+00  1.4182749192647215e+00  1.5469421361946751e+00 
 1.6854707519036847e+00  1.8343634911143931e+00  1.9941148638825910e+00  2.1652057655645280e+00 
 2.3480975882037241e+00  2.5432258867886550e+00  2.7509936603757690e+00  2.9717643239741376e+00 
 3.2058544614259272e+00  3.4535264615846071e+00  3.7149811495608298e+00  3.9903505317932124e+00 
 4.2796907787112506e+00  4.5829755724804713e+00  4.9000899503601714e+00  5.2308247768246758e+00 
 5.5748719795615793e+00  5.9318206849915711e+00  6.3011543868037361e+00  6.6822492745365460e+00 
 7.0743738365224802e+00  7.4766898304033660e+00  7.8882546827271414e+00  8.3080253350457980e+00 
 8.7348634968252519e+00  9.1675421971499631e+00  9.6047534533531334e+00  1.0045116806003884e+01 
 1.0487188421470803e+01  1.0929470452724782e+01  1.1370420389467867e+01  1.1808460222397661e+01 
 1.2241985379407389e+01  1.2669373533800000e+01  1.3088993498237510e+01  1.3499214470492152e+01 
 1.3898415892392769e+01  1.4284998174502451e+01  1.4657393537451828e+01  1.5014078439933240e+01 
 1.5353585837247969e+01  1.5674517556122526e+01  1.5975556398756257e+01  1.6255477607840241e+01 
 1.6513159393037839e+01  1.6747592281131048e+01  1.6957887117091865e+01  1.7143281605001729e+01 
 1.7303145331385988e+01  1.7436983257496266e+01  1.7544437701655745e+01  1.7625288859290933e+01 
 1.7679453928334656e+01  1.7706984922825406e+01  1.7708065268979126e+01  1.7683005286665498e+01 
 1.7632236665677915e+01  1.7556306050808409e+01  1.7455867852742657e+01  1.7331676403292512e+01 
 1.7184577573562461e+01  1.7015499972364097e+01  1.6825445839616549e+01  1.6615481745683258e+01 
 1.6386729202689352e+01  1.6140355284444261e+01  1.5877563366508134e+01  1.5599584035800408e+01 
 1.5307666284531050e+01  1.5003069039559367e+01  1.4687053092677450e+01  1.4360873478866360e+01 
 1.4025772355912052e+01  1.3682972409797586e+01  1.3333670817156403e+01  1.2979033781883093e+01 
 1.2620191656352649e+01  1.2258234650476016e+01  1.1894209125569439e+01  1.1529114463039186e+01 
 1.1163900493713932e+01  1.0799465467914253e+01  1.0436654542566282e+01  1.0076258758079790e+01 
 9.7190144748114591e+00  9.3656032366419346e+00  9.0166520274876678e+00  8.6727338854154716e+00 
 8.3343688383959176e+00  8.0020251255827031e+00  7.6761206682983749e+00  7.3570247555975161e+00 
 7.0450599103188525e+00  6.7405039012613912e+00  6.4435918786774238e+00  6.1545185842717069e+00 
 5.8734406392714762e+00  5.6004788487371808e+00  5.3357205291869683e+00  5.0792218246852192e+00 
 4.8310099957816419e+00  4.5910856651542140e+00  4.3594250060070951e+00  4.1359818614093875e+00 
 3.9206897848045719e+00  3.7134639938548677e+00  3.5142032315958409e+00  3.3227915305536548e+00 
 3.1390998770131020e+00  2.9629877740179236e+00  2.7943047029263823e+00  2.6328914844423119e+00 
 2.4785815409951528e+00  2.3312020631548513e+00  2.1905750834455135e+00  2.0565184614719492e+00 
 1.9288467847034552e+00  1.8073721895779751e+00  1.6919051078065119e+00  1.5822549428798616e+00 
 1.4782306818174733e+00  1.3796414471646679e+00  1.2862969941453095e+00  1.1980081577211195e+00 
 1.1145872541072206e+00  1.0358484410543762e+00  9.6160804093972829e-01  8.9168483041733215e-01 
 8.2590030007466919e-01  7.6407888722799244e-01  7.0604818467400032e-01  6.5163912790293432e-01 
 6.0068616297361577e-01  5.5302739695799730e-01  5.0850473258496121e-01  4.6696398845290477e-01 
 4.2825500594018567e-01  3.9223174372640174e-01  3.5875236063723526e-01  3.2767928735327434e-01 
 2.9887928738033270e-01  2.7222350754813873e-01  2.4758751820265862e-01  2.2485134317925340e-01 
 2.0389947958612903e-01  1.8462090739091380e-01  1.6690908878625327e-01  1.5066195731156795e-01 
 1.3578189672601779e-01  1.2217570966047352e-01  1.0975457612197881e-01  9.8434001980659672e-02 
 8.8133757634164173e-02  7.8777807116166887e-02  7.0294227990545105e-02  6.2615122449494409e-02 
 5.5676520109665444e-02  4.9418273072856428e-02  4.3783943885047694e-02  3.8720687087590876e-02 
 3.4179125105758941e-02  3.0113219261280976e-02  2.6480136725727334e-02  2.3240114250571202e-02 
 2.0356319517042913e-02  1.7794710944426757e-02  1.5523896779921350e-02  1.3514994267187080e-02 
 1.1741489655193962e-02  1.0179099765078897e-02  8.8056357816799751e-03  7.6008698795790516e-03 
 6.5464052322352691e-03  5.6255498885136902e-03  4.8231949349465926e-03  4.1256972956807275e-03 
 3.5207674564324736e-03  2.9973623349430346e-03  2.5455834593073857e-03  2.1565805579059922e-03 
 1.8224606111026916e-03  1.5362023658341490e-03  1.2915762700074116e-03  1.0830697443989742e-03 
 9.0581767554011382e-04  7.5553798379629207e-04  6.2847209632745820e-04  5.2133013460185502e-04 
 4.3124061032612075e-04  3.5570441171246055e-04  2.9255285357491302e-04  2.3990955947338853e-04 
 1.9615594165548720e-04  1.5990004454689342e-04  1.2994851969626693e-04  1.0528150409764843e-04 
 8.5030179423289029e-05  6.8456796655551189e-05  5.4936958681758386e-05  4.3943962402660287e-05 
 3.5035011612102372e-05  2.7839122155802914e-05  2.2046551507614383e-05  1.7399595761664581e-05 
 1.3684607990067464e-05  1.0725102832479583e-05  8.3758229522076990e-06  6.5176535132581880e-06 
 5.0532810162421033e-06  3.9035026043741206e-06  3.0041012532954345e-06  2.3032110426799979e-06 
 1.7591049388876833e-06  1.3383451737365068e-06  1.0142433734205674e-06  7.6558407249722671e-07 
 5.7557114847411620e-07  4.3096204831719082e-07  3.2135947105474226e-07  2.3863444756407545e-07 
 1.7645855046576946e-07  1.2992630739198175e-07  9.5251814964841266e-08  6.9526094548809620e-08 
 5.0523930049962629e-08  3.6550817761458445e-08  2.6322272196014634e-08  1.8869101944740670e-08 
 1.3463425721958356e-08  9.5611684994308645e-09  6.7575862071248330e-09  4.7530376714558467e-09 
 3.3267746705002127e-09  2.3169732899354692e-09  1.6055980482760395e-09  1.1069883594147793e-09 
 7.5929676150532416e-10  5.1810019696364451e-10  3.5165817353872485e-10  2.3741220323191298e-10 
 1.5941563587113285e-10  1.0645697265033870e-10  7.0697158175606566e-11  4.6685642725258016e-11 
 3.0653969251316872e-11  2.0011520240539485e-11  1.2987662196678081e-11  8.3792763044612582e-12 
 5.3736984125694035e-12  3.4252909998912407e-12  2.1699251221566162e-12  1.3660931585998795e-12 
 8.5461182800134193e-13  5.3122037913578406e-13  3.2806623731598708e-13  2.0127626574954727e-13 
 1.2266779125815759e-13  7.4257050603434295e-14  4.4645297508617001e-14  2.6656664473474503e-14 
 1.5804785406219824e-14  9.3043114033547214e-15  5.4381638725509435e-15  3.1553809727564325e-15 
 1.8173612498786418e-15  1.0389116399173231e-15  5.8941506305904849e-16  3.3183787108404233e-16 
 1.8537409830403306e-16  1.0274159486271190e-16  5.6490184474293723e-17  3.0809456558132238e-17 
 1.6666107565545149e-17  8.9408412810706131e-18  4.7563370818719787e-18  2.5088543544703806e-18 
 1.3120522415551423e-18  6.8026166607564096e-19  3.4966440226019259e-19  1.7820931113496718e-19 
 9.0089220779398433e-20  4.0100084077100431e-20  1.9994586103376476e-20  9.9201813548014539e-21 
 0.0000000000000000e+00  0.0000000000000000e+00  0.0000000000000000e+00  0.0000000000000000e+00 
 0.0000000000000000e+00  0.0000000000000000e+00  0.0000000000000000e+00  0.0000000000000000e+00 
 0.0000000000000000e+00  0.0000000000000000e+00  0.0000000000000000e+00  0.0000000000000000e+00 
 0.0000000000000000e+00  0.0000000000000000e+00  0.0000000000000000e+00  0.0000000000000000e+00 
 0.0000000000000000e+00  0.0000000000000000e+00  0.0000000000000000e+00  0.0000000000000000e+00 
 0.0000000000000000e+00  0.0000000000000000e+00  0.0000000000000000e+00  0.0000000000000000e+00 
 0.0000000000000000e+00  0.0000000000000000e+00  0.0000000000000000e+00  0.0000000000000000e+00 
 0.0000000000000000e+00  0.0000000000000000e+00  0.0000000000000000e+00  0.0000000000000000e+00 
 0.0000000000000000e+00  0.0000000000000000e+00  0.0000000000000000e+00  0.0000000000000000e+00 
 0.0000000000000000e+00  0.0000000000000000e+00  0.0000000000000000e+00  0.0000000000000000e+00 
 0.0000000000000000e+00  0.0000000000000000e+00  0.0000000000000000e+00  0.0000000000000000e+00 
 0.0000000000000000e+00  0.0000000000000000e+00  0.0000000000000000e+00  0.0000000000000000e+00 
 0.0000000000000000e+00  0.0000000000000000e+00  0.0000000000000000e+00  0.0000000000000000e+00 
 0.0000000000000000e+00  0.0000000000000000e+00  0.0000000000000000e+00  0.0000000000000000e+00 
 0.0000000000000000e+00  0.0000000000000000e+00  0.0000000000000000e+00  0.0000000000000000e+00 
 0.0000000000000000e+00  0.0000000000000000e+00  0.0000000000000000e+00  0.0000000000000000e+00 
 0.0000000000000000e+00  0.0000000000000000e+00  0.0000000000000000e+00  0.0000000000000000e+00 
 0.0000000000000000e+00  0.0000000000000000e+00  0.0000000000000000e+00  0.0000000000000000e+00 
 0.0000000000000000e+00  0.0000000000000000e+00  0.0000000000000000e+00  0.0000000000000000e+00 
 0.0000000000000000e+00  0.0000000000000000e+00  0.0000000000000000e+00  0.0000000000000000e+00 
 0.0000000000000000e+00  0.0000000000000000e+00  0.0000000000000000e+00  0.0000000000000000e+00 
 0.0000000000000000e+00  0.0000000000000000e+00  0.0000000000000000e+00  0.0000000000000000e+00 
 0.0000000000000000e+00  0.0000000000000000e+00  0.0000000000000000e+00  0.0000000000000000e+00 
 0.0000000000000000e+00  0.0000000000000000e+00  0.0000000000000000e+00  0.0000000000000000e+00 
 0.0000000000000000e+00  0.0000000000000000e+00  0.0000000000000000e+00  0.0000000000000000e+00 
 0.0000000000000000e+00  0.0000000000000000e+00  0.0000000000000000e+00  0.0000000000000000e+00 
 0.0000000000000000e+00  0.0000000000000000e+00  0.0000000000000000e+00  0.0000000000000000e+00 
 0.0000000000000000e+00  0.0000000000000000e+00  0.0000000000000000e+00  0.0000000000000000e+00 
 0.0000000000000000e+00  0.0000000000000000e+00  0.0000000000000000e+00  0.0000000000000000e+00 
 0.0000000000000000e+00  0.0000000000000000e+00  0.0000000000000000e+00  0.0000000000000000e+00 
 0.0000000000000000e+00  0.0000000000000000e+00  0.0000000000000000e+00  0.0000000000000000e+00 
 0.0000000000000000e+00  0.0000000000000000e+00  0.0000000000000000e+00  0.0000000000000000e+00 
 0.0000000000000000e+00  0.0000000000000000e+00  0.0000000000000000e+00  0.0000000000000000e+00 
 0.0000000000000000e+00  0.0000000000000000e+00  0.0000000000000000e+00  0.0000000000000000e+00 
 0.0000000000000000e+00  0.0000000000000000e+00  0.0000000000000000e+00  0.0000000000000000e+00 
 0.0000000000000000e+00 
</PP_RHOATOM>


<PP_ADDINFO>
 5S  5  0   0.50  2.00 
 5P  5  1   0.50  2.00 
 5P  5  1   1.50  4.00 
 5D  5  2   1.50  3.40 
 5D  5  2   2.50  5.10 
  1   0.50 
  1   1.50 
  2   1.50 
  2   2.50 
 -6.28898928,  118.27164833,   80.00000000,    0.01300000 
</PP_ADDINFO>
