  <PP_INFO>

############################################################
#    Opium Parameter File                                  #
############################################################
#-----------------------------------------------------------
#Command line   : opium Hg Hg.log ae ps nl tc2 ke upf qmcpack rpt 
 
#Opium version  : 4.1 
#Compile Host   : py-garuda.cos.ncsu.edu 
#Compile OS     : Linux 5.15.0-113-generic x86_64 
#Compile Date   : Sat Jul 13 02:11:52 EDT 2024 
#-----------------------------------------------------------
#Execution Host : py-garuda.cos.ncsu.edu 
#Execution Date : Fri Jan 23 15:35:52 2026
 
#-----------------------------------------------------------
############################################################
[Atom]
Hg
15
100   2.00  -
200   2.00  -
210   6.00  -
300   2.00  -
310   6.00  -
320   10.00  -
400   2.00  -
410   6.00  -
420   10.00  -
430   14.00  -
500   2.00  -
510   6.00  -
520   9.50  -
600   1.00  -
610   0.50  -

[Pseudo]
5 -1 -1 -1 -1 -1
g

[Gaussinfo]
20 5
2 2 2 2 4
2 12.9532290166098 275.737657986525
2 6.45005190430085 49.0917938708058
2 10.4230066951820 241.541716850735
2 5.38679524090959 27.3955764893378
2 7.93364791402509 127.872345240135
2 4.18479544342716 16.6159549535243
2 4.08579100000000 10.1824980000000
2 3.68579100000000 20.1824980000000
1 10.1860669744676 20.0
3 10.5916853410000 203.7213395
2 10.0580904698861 -123.870122616786
2 10.5917864250000 -7.74443833676065

[KBdesign]
s

[Relativity]
nrl

[XC]
pbe

[Configs]
13

500  2.00 -
510  6.00 -
520  10.00 -
600  2.00 -
610  0.00 -

500  2.00 -
510  6.00 -
520  10.00 -
600  1.00 -
610  1.00 -

500  2.00 -
510  6.00 -
520  10.00 -
600  1.00 -
610  0.00 -

500  2.00 -
510  6.00 -
520  9.00 -
600  2.00 -
610  0.00 -

500  2.00 -
510  6.00 -
520  10.00 -
600  0.00 -
610  1.00 -

500  2.00 -
510  6.00 -
520  10.00 -
600  0.00 -
610  0.00 -

500  2.00 -
510  6.00 -
520  9.00 -
600  1.00 -
610  0.00 -

500  2.00 -
510  6.00 -
520  9.00 -
600  0.00 -
610  0.00 -

500  2.00 -
510  6.00 -
520  8.00 -
600  0.00 -
610  0.00 -

500  2.00 -
510  6.00 -
520  7.00 -
600  0.00 -
610  0.00 -

500  2.00 -
510  6.00 -
520  6.00 -
600  0.00 -
610  0.00 -

500  2.00 -
510  6.00 -
520  5.00 -
600  0.00 -
610  0.00 -

500  2.00 -
510  6.00 -
520  4.00 -
600  0.00 -
610  0.00 -
############################################################
  </PP_INFO>



<PP_HEADER>
   0         Version Number
   Hg        Element
   NC        Norm - Conserving pseudopotential
    F      Nonlinear Core Correction
SLA  PW   PBE  PBE     PBE  Exchange-Correlation functional
 20          Z valence
 0          Total energy
 0.000000   0.000000     Suggested cutoff for wfc and rho
 2           Max angular momentum component
 1189           Number of points in mesh
 3  2     Number of Wavefuncitons, Number of Projectors
 Wavefunctions         nl  l   occ
                      5S  0  2.000000
                      5P  1  6.000000
                      5D  2  9.500000
</PP_HEADER>
<PP_MESH>
  <PP_R>
 2.3207944168063882e-05  2.3511617039196853e-05  2.3819263429569367e-05  2.4130935332153635e-05 
 2.4446685420242996e-05  2.4766567056353879e-05  2.5090634301244082e-05  2.5418941923049337e-05 
 2.5751545406539130e-05  2.6088500962493793e-05  2.6429865537204270e-05  2.6775696822096180e-05 
 2.7126053263479772e-05  2.7480994072427518e-05  2.7840579234780956e-05  2.8204869521288315e-05 
 2.8573926497875099e-05  2.8947812536048725e-05  2.9326590823439543e-05  2.9710325374479640e-05 
 3.0099081041221478e-05  3.0492923524298006e-05  3.0891919384026239e-05  3.1296136051656167e-05 
 3.1705641840766627e-05  3.2120505958810673e-05  3.2540798518811671e-05  3.2966590551212589e-05 
 3.3397954015880338e-05  3.3834961814267135e-05  3.4277687801731026e-05  3.4726206800017621e-05 
 3.5180594609905183e-05  3.5640928024015006e-05  3.6107284839789747e-05  3.6579743872641236e-05 
 3.7058384969270536e-05  3.7543289021162176e-05  3.8034537978255065e-05  3.8532214862792153e-05 
 3.9036403783351451e-05  3.9547189949060583e-05  4.0064659683997222e-05  4.0588900441778213e-05 
 4.1120000820339374e-05  4.1658050576908757e-05  4.2203140643175826e-05  4.2755363140659144e-05 
 4.3314811396275139e-05  4.3881579958110584e-05  4.4455764611401321e-05  4.5037462394720396e-05 
 4.5626771616377706e-05  4.6223791871034302e-05  4.6828624056534211e-05  4.7441370390956325e-05 
 4.8062134429889558e-05  4.8691021083933975e-05  4.9328136636430915e-05  4.9973588761425204e-05 
 5.0627486541862092e-05  5.1289940488022879e-05  5.1961062556201158e-05  5.2640966167623795e-05 
 5.3329766227619348e-05  5.4027579145037364e-05  5.4734522851921760e-05  5.5450716823441648e-05 
 5.6176282098082719e-05  5.6911341298103350e-05  5.7656018650257850e-05  5.8410440006791153e-05 
 5.9174732866708095e-05  5.9949026397321108e-05  6.0733451456079744e-05  6.1528140612685948e-05 
 6.2333228171498623e-05  6.3148850194231408e-05  6.3975144522947425e-05  6.4812250803354812e-05 
 6.5660310508407389e-05  6.6519466962213774e-05  6.7389865364259540e-05  6.8271652813946276e-05 
 6.9164978335451691e-05  7.0069992902915210e-05  7.0986849465952618e-05  7.1915702975505340e-05 
 7.2856710410027254e-05  7.3810030802014476e-05  7.4775825264882244e-05  7.5754257020193492e-05 
 7.6745491425243609e-05  7.7749696001006290e-05  7.8767040460444931e-05  7.9797696737194572e-05 
 8.0841839014619100e-05  8.1899643755248432e-05  8.2971289730601465e-05  8.4056958051398668e-05 
 8.5156832198170261e-05  8.6271098052264836e-05  8.7399943927263794e-05  8.8543560600806874e-05 
 8.9702141346833654e-05  9.0875881968247810e-05  9.2064980830007997e-05  9.3269638892652017e-05 
 9.4490059746259655e-05  9.5726449644859891e-05  9.6979017541288335e-05  9.8247975122500673e-05 
 9.9533536845348433e-05  1.0083591997282247e-04  1.0215534461077128e-04  1.0349203374509879e-04 
 1.0484621327945030e-04  1.0621811207339015e-04  1.0760796198107980e-04  1.0901599789046160e-04 
 1.1044245776295552e-04  1.1188758267367520e-04  1.1335161685216992e-04  1.1483480772370046e-04 
 1.1633740595105426e-04  1.1785966547690806e-04  1.1940184356674485e-04  1.2096420085233240e-04 
 1.2254700137577046e-04  1.2415051263411475e-04  1.2577500562458446e-04  1.2742075489036137e-04 
 1.2908803856698860e-04  1.3077713842937557e-04  1.3248833993941933e-04  1.3422193229424795e-04 
 1.3597820847509545e-04  1.3775746529681653e-04  1.3956000345804887e-04  1.4138612759203206e-04 
 1.4323614631809084e-04  1.4511037229379326e-04  1.4700912226779005e-04  1.4893271713334604e-04 
 1.5088148198257184e-04  1.5285574616136520e-04  1.5485584332507131e-04  1.5688211149487123e-04 
 1.5893489311490840e-04  1.6101453511016241e-04  1.6312138894508034e-04  1.6525581068297456e-04 
 1.6741816104619899e-04  1.6960880547711165e-04  1.7182811419983533e-04  1.7407646228282644e-04 
 1.7635422970226203e-04  1.7866180140625743e-04  1.8099956737992285e-04  1.8336792271127195e-04 
 1.8576726765799268e-04  1.8819800771509166e-04  1.9066055368342397e-04  1.9315532173911932e-04 
 1.9568273350391692e-04  1.9824321611642054e-04  2.0083720230428589e-04  2.0346513045735258e-04 
 2.0612744470173330e-04  2.0882459497487206e-04  2.1155703710158411e-04  2.1432523287109252e-04 
 2.1712965011507095e-04  2.1997076278670860e-04  2.2284905104080869e-04  2.2576500131493699e-04 
 2.2871910641163008e-04  2.3171186558168018e-04  2.3474378460851053e-04  2.3781537589365244e-04 
 2.4092715854334403e-04  2.4407965845625934e-04  2.4727340841238714e-04  2.5050894816307110e-04 
 2.5378682452223015e-04  2.5710759145877065e-04  2.6047181019020867e-04  2.6388004927751705e-04 
 2.6733288472121324e-04  2.7083090005870542e-04  2.7437468646291133e-04  2.7796484284216781e-04 
 2.8160197594144775e-04  2.8528670044490173e-04  2.8901963907974085e-04  2.9280142272147911e-04 
 2.9663269050055318e-04  3.0051408991033622e-04  3.0444627691656671e-04  3.0842991606820771e-04 
 3.1246568060975735e-04  3.1655425259502848e-04  3.2069632300241798e-04  3.2489259185168308e-04 
 3.2914376832224692e-04  3.3345057087305141e-04  3.3781372736397793e-04  3.4223397517885824e-04 
 3.4671206135009378e-04  3.5124874268490589e-04  3.5584478589323760e-04  3.6050096771733024e-04 
 3.6521807506299434e-04  3.6999690513259836e-04  3.7483826555979844e-04  3.7974297454602929e-04 
 3.8471186099878348e-04  3.8974576467169786e-04  3.9484553630647450e-04  4.0001203777665744e-04 
 4.0524614223329188e-04  4.1054873425248883e-04  4.1592070998492015e-04  4.2136297730727064e-04 
 4.2687645597567049e-04  4.3246207778113754e-04  4.3812078670705113e-04  4.4385353908868832e-04 
 4.4966130377484563e-04  4.5554506229157833e-04  4.6150580900807952e-04  4.6754455130473165e-04 
 4.7366230974335566e-04  4.7986011823968825e-04  4.8613902423811690e-04  4.9250008888869967e-04 
 4.9894438722650268e-04  5.0547300835328268e-04  5.1208705562154908e-04  5.1878764682103222e-04 
 5.2557591436759284e-04  5.3245300549460337e-04  5.3942008244683200e-04  5.4647832267686600e-04 
 5.5362891904410375e-04  5.6087308001635057e-04  5.6821202987405203e-04  5.7564700891720192e-04 
 5.8317927367495430e-04  5.9081009711798086e-04  5.9854076887360590e-04  6.0637259544375516e-04 
 6.1430690042575979e-04  6.2234502473604628e-04  6.3048832683675483e-04  6.3873818296532174e-04 
 6.4709598736706841e-04  6.5556315253083113e-04  6.6414110942767540e-04  6.7283130775273327e-04 
 6.8163521617020466e-04  6.9055432256156656e-04  6.9959013427702747e-04  7.0874417839027367e-04 
 7.1801800195654718e-04  7.2741317227410372e-04  7.3693127714908832e-04  7.4657392516387882e-04 
 7.5634274594894055e-04  7.6623939045823621e-04  7.7626553124824315e-04  7.8642286276061810e-04 
 7.9671310160856249e-04  8.0713798686693255e-04  8.1769928036614975e-04  8.2839876698995207e-04 
 8.3923825497704497e-04  8.5021957622669758e-04  8.6134458660833710e-04  8.7261516627519672e-04 
 8.8403321998206544e-04  8.9560067740719596e-04  9.0731949347842432e-04  9.1919164870355873e-04 
 9.3121914950508881e-04  9.4340402855927713e-04  9.5574834513968525e-04  9.6825418546519506e-04 
 9.8092366305258709e-04  9.9375891907372811e-04  1.0067621227174356e-03  1.0199354715560731e-03 
 1.0332811919169485e-03  1.0468015392585673e-03  1.0604987985518095e-03  1.0743752846660974e-03 
 1.0884333427606102e-03  1.1026753486806265e-03  1.1171037093590437e-03  1.1317208632231580e-03 
 1.1465292806067616e-03  1.1615314641676383e-03  1.1767299493105168e-03  1.1921273046155596e-03 
 1.2077261322724615e-03  1.2235290685202219e-03  1.2395387840926798e-03  1.2557579846698714e-03 
 1.2721894113352978e-03  1.2888358410391737e-03  1.3057000870677405e-03  1.3227849995187130e-03 
 1.3400934657829605e-03  1.3576284110324772e-03  1.3753927987147456e-03  1.3933896310535645e-03 
 1.4116219495564338e-03  1.4300928355285747e-03  1.4488054105936793e-03  1.4677628372214728e-03 
 1.4869683192621727e-03  1.5064251024879565e-03  1.5261364751414982e-03  1.5461057684916912e-03 
 1.5663363573966405e-03  1.5868316608740221e-03  1.6075951426789044e-03  1.6286303118891309e-03 
 1.6499407234983662e-03  1.6715299790168894e-03  1.6934017270802703e-03  1.7155596640659871e-03 
 1.7380075347181289e-03  1.7607491327802645e-03  1.7837883016365932e-03  1.8071289349614870e-03 
 1.8307749773775310e-03  1.8547304251221753e-03  1.8789993267231010e-03  1.9035857836824433e-03 
 1.9284939511699461e-03  1.9537280387251993e-03  1.9792923109690583e-03  2.0051910883243781e-03 
 2.0314287477461741e-03  2.0580097234613355e-03  2.0849385077180262e-03  2.1122196515448747e-03 
 2.1398577655201219e-03  2.1678575205508100e-03  2.1962236486621819e-03  2.2249609437974024e-03 
 2.2540742626277468e-03  2.2835685253733903e-03  2.3134487166349359e-03  2.3437198862358267e-03 
 2.3743871500757690e-03  2.4054556909953459e-03  2.4369307596519177e-03  2.4688176754070019e-03 
 2.5011218272252547e-03  2.5338486745852202e-03  2.5670037484019958e-03  2.6005926519619684e-03 
 2.6346210618697873e-03  2.6690947290077130e-03  2.7040194795075441e-03  2.7394012157352403e-03 
 2.7752459172884357e-03  2.8115596420070065e-03  2.8483485269968608e-03  2.8856187896671220e-03 
 2.9233767287808890e-03  2.9616287255197419e-03  3.0003812445621681e-03  3.0396408351761233e-03 
 3.0794141323258620e-03  3.1197078577932672e-03  3.1605288213138460e-03  3.2018839217275914e-03 
 3.2437801481449021e-03  3.2862245811277600e-03  3.3292243938863640e-03  3.3727868534914073e-03 
 3.4169193221022507e-03  3.4616292582111269e-03  3.5069242179036537e-03  3.5528118561358258e-03 
 3.5992999280277196e-03  3.6463962901741322e-03  3.6941089019723607e-03  3.7424458269673623e-03 
 3.7914152342145013e-03  3.8410253996601579e-03  3.8912847075403684e-03  3.9422016517977870e-03 
 3.9937848375171817e-03  4.0460429823797103e-03  4.0989849181362354e-03  4.1526195920999053e-03 
 4.2069560686582809e-03  4.2620035308052178e-03  4.3177712816928424e-03  4.3742687462037860e-03 
 4.4315054725440209e-03  4.4894911338565274e-03  4.5482355298560786e-03  4.6077485884854167e-03 
 4.6680403675930949e-03  4.7291210566332894e-03  4.7910009783878162e-03  4.8536905907107363e-03 
 4.9172004882957390e-03  4.9815414044666780e-03  5.0467242129915209e-03  5.1127599299200521e-03 
 5.1796597154456026e-03  5.2474348757911545e-03  5.3160968651201224e-03  5.3856572874721158e-03 
 5.4561278987240776e-03  5.5275206085770362e-03  5.5998474825688770e-03  5.6731207441134517e-03 
 5.7473527765663579e-03  5.8225561253177583e-03  5.8987434999125858e-03  5.9759277761984829e-03 
 6.0541219985018385e-03  6.1333393818323373e-03  6.2135933141163066e-03  6.2948973584593159e-03 
 6.3772652554383675e-03  6.4607109254240973e-03  6.5452484709333418e-03  6.6308921790124969e-03 
 6.7176565236520772e-03  6.8055561682328191e-03  6.8946059680038765e-03  6.9848209725933558e-03 
 7.0762164285517511e-03  7.1688077819286530e-03  7.2626106808831564e-03  7.3576409783284464e-03 
 7.4539147346109683e-03  7.5514482202246862e-03  7.6502579185607931e-03  7.7503605286934896e-03 
 7.8517729682021434e-03  7.9545123760304016e-03  8.0585961153827202e-03  8.1640417766587758e-03 
 8.2708671804262966e-03  8.3790903804327709e-03  8.4887296666565949e-03  8.5998035683980713e-03 
 8.7123308574109729e-03  8.8263305510749672e-03  8.9418219156096133e-03  9.0588244693303992e-03 
 9.1773579859473799e-03  9.2974424979069860e-03  9.4190982997775508e-03  9.5423459516791511e-03 
 9.6672062827582832e-03  9.7937003947080898e-03  9.9218496653345530e-03  1.0051675752169423e-02 
 1.0183200596130367e-02  1.0316446425229064e-02  1.0451435758327760e-02  1.0588191408945045e-02 
 1.0726736489111370e-02  1.0867094413275016e-02  1.1009288902259242e-02  1.1153343987271122e-02 
 1.1299284013962890e-02  1.1447133646546403e-02  1.1596917871961470e-02  1.1748662004098687e-02 
 1.1902391688077546e-02  1.2058132904580545e-02  1.2215911974243930e-02  1.2375755562106015e-02 
 1.2537690682113592e-02  1.2701744701687362e-02  1.2867945346347099e-02  1.3036320704397322e-02 
 1.3206899231674294e-02  1.3379709756355117e-02  1.3554781483829778e-02  1.3732144001636887e-02 
 1.3911827284464103e-02  1.4093861699213889e-02  1.4278278010135596e-02  1.4465107384024697e-02 
 1.4654381395490057e-02  1.4846132032290096e-02  1.5040391700738825e-02  1.5237193231182580e-02 
 1.5436569883548384e-02  1.5638555352965038e-02  1.5843183775457619e-02  1.6050489733716557e-02 
 1.6260508262942217e-02  1.6473274856765897e-02  1.6688825473248355e-02  1.6907196540956813e-02 
 1.7128424965121469e-02  1.7352548133872527e-02  1.7579603924558949e-02  1.7809630710149783e-02 
 1.8042667365719276e-02  1.8278753275016869e-02  1.8517928337123138e-02  1.8760232973192844e-02 
 1.9005708133286191e-02  1.9254395303289498e-02  1.9506336511926372e-02  1.9761574337860729e-02 
 2.0020151916892645e-02  2.0282112949248414e-02  2.0547501706965992e-02  2.0816363041377094e-02 
 2.1088742390687143e-02  2.1364685787654467e-02  2.1644239867369942e-02  2.1927451875138372e-02 
 2.2214369674463153e-02  2.2505041755135267e-02  2.2799517241428178e-02  2.3097845900399944e-02 
 2.3400078150303986e-02  2.3706265069109882e-02  2.4016458403135658e-02  2.4330710575793078e-02 
 2.4649074696447237e-02  2.4971604569392274e-02  2.5298354702944375e-02  2.5629380318653805e-02 
 2.5964737360637490e-02  2.6304482505033710e-02  2.6648673169580493e-02  2.6997367523319354e-02 
 2.7350624496426029e-02  2.7708503790169710e-02  2.8071065887002849e-02  2.8438372060782740e-02 
 2.8810484387126984e-02  2.9187465753904390e-02  2.9569379871863193e-02  2.9956291285398333e-02 
 3.0348265383459576e-02  3.0745368410602457e-02  3.1147667478183656e-02  3.1555230575703128e-02 
 3.1968126582294393e-02  3.2386425278365299e-02  3.2810197357391074e-02  3.3239514437861696e-02 
 3.3674449075385575e-02  3.4115074774951640e-02  3.4561466003351880e-02  3.5013698201766294e-02 
 3.5471847798512784e-02  3.5935992221963656e-02  3.6406209913631186e-02  3.6882580341424415e-02 
 3.7365184013079457e-02  3.7854102489765458e-02  3.8349418399868655e-02  3.8851215452956792e-02 
 3.9359578453926097e-02  3.9874593317333715e-02  4.0396347081917354e-02  4.0924927925305055e-02 
 4.1460425178917418e-02  4.2002929343064842e-02  4.2552532102242274e-02  4.3109326340624129e-02 
 4.3673406157761961e-02  4.4244866884487345e-02  4.4823805099023270e-02  4.5410318643305921e-02 
 4.6004506639520243e-02  4.6606469506851822e-02  4.7216308978457966e-02  4.7834128118660849e-02 
 4.8460031340365639e-02  4.9094124422706553e-02  4.9736514528923630e-02  5.0387310224473812e-02 
 5.1046621495378607e-02  5.1714559766812010e-02  5.2391237921931663e-02  5.3076770320956333e-02 
 5.3771272820493099e-02  5.4474862793117362e-02  5.5187659147209148e-02  5.5909782347048728e-02 
 5.6641354433175660e-02  5.7382499043013693e-02  5.8133341431765906e-02  5.8894008493583047e-02 
 5.9664628783009058e-02  6.0445332536706975e-02  6.1236251695469333e-02  6.2037519926516481e-02 
 6.2849272646086460e-02  6.3671647042320978e-02  6.4504782098450328e-02  6.5348818616281945e-02 
 6.6203899239996214e-02  6.7070168480253725e-02  6.7947772738617893e-02  6.8836860332297162e-02 
 6.9737581519210973e-02  7.0650088523383711e-02  7.1574535560670963e-02  7.2511078864822276e-02 
 7.3459876713885250e-02  7.4421089456954373e-02  7.5394879541271095e-02  7.6381411539677410e-02 
 7.7380852178429077e-02  7.8393370365372819e-02  7.9419137218492114e-02  8.0458326094826546e-02 
 8.1511112619769621e-02  8.2577674716749774e-02  8.3658192637299900e-02  8.4752848991520330e-02 
 8.5861828778940288e-02  8.6985319419783352e-02  8.8123510786641851e-02  8.9276595236565753e-02 
 9.0444767643571580e-02  9.1628225431576477e-02  9.2827168607763494e-02  9.4041799796382705e-02 
 9.5272324272996103e-02  9.6518949999168963e-02  9.7781887657616140e-02  9.9061350687807789e-02 
 1.0035755532204130e-01  1.0167072062198490e-01  1.0300106851569976e-01  1.0434882383514629e-01 
 1.0571421435418130e-01  1.0709747082705216e-01  1.0849882702739518e-01  1.0991851978774350e-01 
 1.1135678903955266e-01  1.1281387785374945e-01  1.1429003248181147e-01  1.1578550239738424e-01 
 1.1730054033844306e-01  1.1883540235000553e-01  1.2039034782740490e-01  1.2196563956012776e-01 
 1.2356154377622633e-01  1.2517833018731148e-01  1.2681627203413484e-01  1.2847564613276694e-01 
 1.3015673292137997e-01  1.3185981650764231e-01  1.3358518471673358e-01  1.3533312913998763e-01 
 1.3710394518417229e-01  1.3889793212141371e-01  1.4071539313977416e-01  1.4255663539449148e-01 
 1.4442197005988908e-01  1.4631171238196503e-01  1.4822618173166985e-01  1.5016570165887971e-01 
 1.5213059994707881e-01  1.5412120866875451e-01  1.5613786424151860e-01  1.5818090748496275e-01 
 1.6025068367825773e-01  1.6234754261850642e-01  1.6447183867986054e-01  1.6662393087341043e-01 
 1.6880418290785898e-01  1.7101296325098927e-01  1.7325064519193639e-01  1.7551760690427420e-01 
 1.7781423150992776e-01  1.8014090714392153e-01  1.8249802701997542e-01  1.8488598949695864e-01 
 1.8730519814621374e-01  1.8975606181975968e-01  1.9223899471939096e-01  1.9475441646667724e-01 
 1.9730275217388071e-01  1.9988443251580124e-01  2.0249989380256120e-01  2.0514957805334313e-01 
 2.0783393307109194e-01  2.1055341251819457e-01  2.1330847599315034e-01  2.1609958910824370e-01 
 2.1892722356823432e-01  2.2179185725007594e-01  2.2469397428367888e-01  2.2763406513372914e-01 
 2.3061262668257815e-01  2.3363016231421682e-01  2.3668718199934946e-01  2.3978420238157794e-01 
 2.4292174686471851e-01  2.4610034570125644e-01  2.4932053608196053e-01  2.5258286222666948e-01 
 2.5588787547626635e-01  2.5923613438585663e-01  2.6262820481916521e-01  2.6606466004416879e-01 
 2.6954608082997938e-01  2.7307305554499606e-01  2.7664618025634014e-01  2.8026605883059214e-01 
 2.8393330303584685e-01  2.8764853264510337e-01  2.9141237554100829e-01  2.9522546782196923e-01 
 2.9908845390965783e-01  3.0300198665791606e-01  3.0696672746309350e-01  3.1098334637582276e-01 
 3.1505252221425994e-01  3.1917494267880681e-01  3.2335130446833371e-01  3.2758231339792310e-01 
 3.3186868451815432e-01  3.3621114223594867e-01  3.4061042043699591e-01  3.4506726260978282e-01 
 3.4958242197124423e-01  3.5415666159405879e-01  3.5879075453560982e-01  3.6348548396863406e-01 
 3.6824164331357967e-01  3.7306003637269597e-01  3.7794147746587892e-01  3.8288679156829020e-01 
 3.8789681444978413e-01  3.9297239281615204e-01  3.9811438445221814e-01  4.0332365836680745e-01 
 4.0860109493961005e-01  4.1394758606996762e-01  4.1936403532760630e-01  4.2485135810534230e-01 
 4.3041048177378538e-01  4.3604234583806695e-01  4.4174790209661802e-01  4.4752811480202614e-01 
 4.5338396082399612e-01  4.5931642981444298e-01  4.6532652437474598e-01  4.7141526022519048e-01 
 4.7758366637662786e-01  4.8383278530437729e-01  4.9016367312441200e-01  4.9657739977184179e-01 
 5.0307504918173529e-01  5.0965771947230765e-01  5.1632652313050564e-01  5.2308258720001954e-01 
 5.2992705347175761e-01  5.3686107867680999e-01  5.4388583468194007e-01  5.5100250868763223e-01 
 5.5821230342873196e-01  5.6551643737771040e-01  5.7291614495058962e-01  5.8041267671556118e-01 
 5.8800729960433595e-01  5.9570129712625830e-01  6.0349596958522267e-01  6.1139263429942470e-01 
 6.1939262582399679e-01  6.2749729617654770e-01  6.3570801506565666e-01  6.4402617012235830e-01 
 6.5245316713465518e-01  6.6099043028509941e-01  6.6963940239148312e-01  6.7840154515067741e-01 
 6.8727833938566352e-01  6.9627128529579474e-01  7.0538190271033407e-01  7.1461173134530853e-01 
 7.2396233106372532e-01  7.3343528213919229e-01  7.4303218552298778e-01  7.5275466311462513e-01 
 7.6260435803595916e-01  7.7258293490887198e-01  7.8269208013660663e-01  7.9293350218876713e-01 
 8.0330893189005592e-01  8.1382012271278725e-01  8.2446885107322765e-01  8.3525691663181489e-01 
 8.4618614259730529e-01  8.5725837603489963e-01  8.6847548817840159e-01  8.7983937474646134e-01 
 8.9135195626295616e-01  9.0301517838156331e-01  9.1483101221458030e-01  9.2680145466604791e-01 
 9.3892852876923139e-01  9.5121428402851738e-01  9.6366079676578786e-01  9.7627017047131626e-01 
 9.8904453615927168e-01  1.0019860527278595e+00  1.0150969073241822e+00  1.0283793157138716e+00 
 1.0418355226555587e+00  1.0554678022802439e+00  1.0692784584756301e+00  1.0832698252754849e+00 
 1.0974442672540980e+00  1.1118041799259009e+00  1.1263519901503125e+00  1.1410901565418865e+00 
 1.1560211698858207e+00  1.1711475535589080e+00  1.1864718639559910e+00  1.2019966909220008e+00 
 1.2177246581896468e+00  1.2336584238228270e+00  1.2498006806658597e+00  1.2661541567985717e+00 
 1.2827216159973518e+00  1.2995058582022372e+00  1.3165097199901081e+00  1.3337360750540781e+00 
 1.3511878346891533e+00  1.3688679482842483e+00  1.3867794038206416e+00  1.4049252283769498e+00 
 1.4233084886407117e+00  1.4419322914266657e+00  1.4607997842018092e+00  1.4799141556173274e+00 
 1.4992786360474839e+00  1.5188964981355608e+00  1.5387710573469460e+00  1.5589056725294437e+00 
 1.5793037464809454e+00  1.5999687265244982e+00  1.6209041050909139e+00  1.6421134203089984e+00 
 1.6636002566035040e+00  1.6853682453009053e+00  1.7074210652431017e+00  1.7297624434091514e+00 
 1.7523961555451397e+00  1.7753260268022870e+00  1.7985559323834117e+00  1.8220897981978463e+00 
 1.8459316015249265e+00  1.8700853716861601e+00  1.8945551907261926e+00  1.9193451941026827e+00 
 1.9444595713852066e+00  1.9699025669632930e+00  1.9956784807637553e+00  2.0217916689773743e+00 
 2.0482465447951101e+00  2.0750475791539413e+00  2.1021993014924636e+00  2.1297063005163759e+00 
 2.1575732249739823e+00  2.1858047844418422e+00  2.2144057501207000e+00  2.2433809556418276e+00 
 2.2727352978839224e+00  2.3024737378006899e+00  2.3326013012592557e+00  2.3631230798895513e+00 
 2.3940442319448092e+00  2.4253699831733231e+00  2.4571056277016128e+00  2.4892565289291286e+00 
 2.5218281204347051e+00  2.5548259068948296e+00  2.5882554650139524e+00  2.6221224444669611e+00 
 2.6564325688539894e+00  2.6911916366677207e+00  2.7264055222733452e+00  2.7620801769013430e+00 
 2.7982216296532547e+00  2.8348359885206165e+00  2.8719294414172216e+00  2.9095082572248971e+00 
 2.9475787868529535e+00  2.9861474643115118e+00  3.0252208077988580e+00  3.0648054208030402e+00 
 3.1049079932178776e+00  3.1455353024735446e+00  3.1866942146820074e+00  3.2283916857973920e+00 
 3.2706347627915617e+00  3.3134305848450700e+00  3.3567863845537018e+00  3.4007094891508003e+00 
 3.4452073217455825e+00  3.4902874025776662e+00  3.5359573502880073e+00  3.5822248832064680e+00 
 3.6290978206562321e+00  3.6765840842752917e+00  3.7246916993552182e+00  3.7734287961974631e+00 
 3.8228036114873909e+00  3.8728244896863027e+00  3.9234998844416751e+00  3.9748383600158208e+00 
 4.0268485927333089e+00  4.0795393724472575e+00  4.1329196040248481e+00  4.1869983088522691e+00 
 4.2417846263593457e+00  4.2972878155641343e+00  4.3535172566377147e+00  4.4104824524894592e+00 
 4.4681930303730493e+00  4.5266587435135035e+00  4.5858894727554977e+00  4.6458952282332486e+00 
 4.7066861510622502e+00  4.7682725150531500e+00  4.8306647284480437e+00  4.8938733356794941e+00 
 4.9579090191525754e+00  5.0227826010501877e+00  5.0885050451620861e+00  5.1550874587377518e+00 
 5.2225410943635504e+00  5.2908773518644487e+00  5.3601077802306127e+00  5.4302440795692117e+00 
 5.5012981030817629e+00  5.5732818590673565e+00  5.6462075129520830e+00  5.7200873893450188e+00 
 5.7949339741211148e+00  5.8707599165313402e+00  5.9475780313404369e+00  6.0254013009926410e+00 
 6.1042428778057509e+00  6.1841160861938977e+00  6.2650344249194179e+00  6.3470115693741258e+00 
 6.4300613738905597e+00  6.5141978740833490e+00  6.5994352892212804e+00  6.6857880246303836e+00 
 6.7732706741284714e+00  6.8618980224915278e+00  6.9516850479523651e+00  7.0426469247319901e+00 
 7.1347990256040745e+00  7.2281569244929997e+00  7.3227363991058754e+00  7.4185534335990209e+00 
 7.5156242212793218e+00  7.6139651673409290e+00  7.7135928916377923e+00  7.8145242314924372e+00 
 7.9167762445415448e+00  8.0203662116186578e+00  8.1253116396747824e+00  8.2316302647370385e+00 
 8.3393400549061134e+00  8.4484592133929031e+00  8.5590061815949063e+00  8.6709996422128608e+00 
 8.7844585224081690e+00  8.8994019970016218e+00  9.0158494917140093e+00  9.1338206864490878e+00 
 9.2533355186195543e+00  9.3744141865165016e+00  9.4970771527229836e+00  9.6213451475722369e+00 
 9.7472391726511614e+00  9.8747805043496371e+00  1.0003990697456299e+01  1.0134891588801278e+01 
 1.0267505300946786e+01  1.0401854245925811e+01  1.0537961129029817e+01  1.0675848952645996e+01 
 1.0815541020144725e+01  1.0957060939817893e+01  1.1100432628868756e+01  1.1245680317453999e+01 
 1.1392828552778701e+01  1.1541902203244856e+01  1.1692926462654203e+01  1.1845926854466033e+01 
 1.2000929236110721e+01  1.2157959803359685e+01  1.2317045094752537e+01  1.2478211996082161e+01 
 1.2641487744938496e+01  1.2806899935311668e+01  1.2974476522255568e+01  1.3144245826612240e+01 
 1.3316236539798183e+01  1.3490477728653286e+01  1.3666998840353173e+01  1.3845829707385857e+01 
 1.4027000552593506e+01  1.4210541994280160e+01  1.4396485051386312e+01  1.4584861148731175e+01 
 1.4775702122323557e+01  1.4969040224742210e+01  1.5164908130586607e+01  1.5363338941999023e+01 
 1.5564366194258870e+01  1.5768023861450271e+01  1.5974346362203653e+01  1.6183368565512733e+01 
 1.6395125796627372e+01  1.6609653843023626e+01  1.6826988960451935e+01  1.7047167879064418e+01 
 1.7270227809622373e+01  1.7496206449784967e+01  1.7725141990480239e+01  1.7957073122359454e+01 
 1.8192039042335921e+01  1.8430079460209353e+01  1.8671234605376934e+01  1.8915545233632169e+01 
 1.9163052634052715e+01  1.9413798635978331e+01  1.9667825616080151e+01  1.9925176505522451e+01 
 2.0185894797217994e+01  2.0450024553178654e+01  2.0717610411961836e+01  2.0988697596214553e+01 
 2.1263331920316165e+01  2.1541559798121096e+01  2.1823428250802905e+01  2.2108984914800971e+01 
 2.2398278049871159e+01  2.2691356547241845e+01  2.2988269937876645e+01  2.3289068400845245e+01 
 2.3593802771803826e+01  2.3902524551586374e+01  2.4215285914908460e+01  2.4532139719184890e+01 
 2.4853139513462729e+01  2.5178339547471261e+01  2.5507794780790157e+01  2.5841560892138027e+01 
 2.6179694288782080e+01  2.6522252116071144e+01  2.6869292267093350e+01  2.7220873392460213e+01 
 2.7577054910218710e+01  2.7937897015893093e+01  2.8303460692658057e+01  2.8673807721645055e+01 
 2.9049000692383451e+01  2.9429103013378288e+01  2.9814178922826507e+01  3.0204293499473305e+01 
 3.0599512673610654e+01  3.0999903238219645e+01  3.1405532860258667e+01  3.1816470092099330e+01 
 3.2232784383111785e+01  3.2654546091402125e+01  3.3081826495702892e+01  3.3514697807419381e+01 
 3.3953233182833550e+01  3.4397506735467594e+01  3.4847593548609325e+01  3.5303569688001417e+01 
 3.5765512214696692e+01  3.6233499198081624e+01  3.6707609729070278e+01  3.7187923933470799e+01 
 3.7674522985526934e+01  3.8167489121636628e+01  3.8666905654250193e+01  3.9172856985950311e+01 
 3.9685428623716241e+01  4.0204707193374809e+01  4.0730780454240076e+01  4.1263737313945313e+01 
 4.1803667843468290e+01  4.2350663292353588e+01  4.2904816104133971e+01  4.3466219931953567e+01 
 4.4034969654395461e+01  4.4611161391516447e+01  4.5194892521091475e+01  4.5786261695070785e+01 
 4.6385368856252292e+01  4.6992315255172166e+01  4.7607203467216429e+01  4.8230137409956399e+01 
 4.8861222360711039e+01  4.9500564974339078e+01  5.0148273301263920e+01  5.0804456805734503e+01 
 5.1469226384324692e+01  5.2142694384675551e+01  5.2824974624482103e+01  5.3516182410728732e+01 
 5.4216434559176456e+01  5.4925849414105052e+01  5.5644546868313469e+01  5.6372648383382021e+01 
 5.7110277010199731e+01  5.7857557409760147e+01  5.8614615874229386e+01  5.9381580348289845e+01 
 6.0158580450763068e+01  6.0945747496515693e+01  6.1743214518652017e+01  6.2551116290996823e+01 
 6.3369589350872502e+01  6.4198772022174353e+01  6.5038804438747121e+01  6.5889828568068694e+01 
 6.6751988235242422e+01  6.7625429147304118e+01  6.8510298917846754e+01  6.9406747091967645e+01 
 7.0314925171541859e+01  7.1234986640826378e+01  7.2167086992399362e+01  7.3111383753438716e+01 
 7.4068036512344548e+01  7.5037206945710082e+01  7.6019058845645233e+01  7.7013758147458020e+01 
 7.8021472957697924e+01  7.9042373582566341e+01  8.0076632556698684e+01  8.1124424672323400e+01 
 8.2185927008801571e+01  8.3261318962554697e+01  8.4350782277382478e+01  8.5454501075178158e+01 
 8.6572661887045527e+01  8.7705453684823112e+01  8.8853067913020908e+01  9.0015698521174883e+01 
 9.1193541996625015e+01  9.2386797397722034e+01  9.3595666387468782e+01  9.4820353267601746e+01 
 9.6061065013118551e+01  9.7318011307257194e+01  9.8591404576933058e+01  9.9881460028639509e+01 
 1.0118839568481832e+02  1.0251243242070623e+02  1.0385379400166255e+02  1.0521270712098723e+02 
 1.0658940143823179e+02  1.0798410961801251e+02  1.0939706736933128e+02  1.1082851348541108e+02 
 1.1227868988405248e+02  1.1374784164851845e+02  1.1523621706895388e+02  1.1674406768434730e+02 
 1.1827164832504157e+02 
  </PP_R>
  <PP_RAB>
 3.0170327418483045e-07  3.0565102150955907e-07  3.0965042458440178e-07  3.1370215931799724e-07 
 3.1780691046315891e-07  3.2196537173260039e-07  3.2617824591617308e-07  3.3044624499964137e-07 
 3.3477009028500867e-07  3.3915051251241927e-07  3.4358825198365547e-07  3.4808405868725033e-07 
 3.5263869242523704e-07  3.5725292294155771e-07  3.6192753005215240e-07  3.6666330377674805e-07 
 3.7146104447237629e-07  3.7632156296863339e-07  3.8124568070471405e-07  3.8623422986823532e-07 
 3.9128805353587919e-07  3.9640800581587405e-07  4.0159495199234108e-07  4.0684976867153018e-07 
 4.1217334392996612e-07  4.1756657746453873e-07  4.2303038074455170e-07  4.2856567716576363e-07 
 4.3417340220644436e-07  4.3985450358547271e-07  4.4560994142250335e-07  4.5144068840022903e-07 
 4.5734772992876736e-07  4.6333206431219504e-07  4.6939470291726670e-07  4.7553667034433602e-07 
 4.8175900460051696e-07  4.8806275727510829e-07  4.9444899371731582e-07  5.0091879321629794e-07 
 5.0747324918356883e-07  5.1411346933778755e-07  5.2084057589196388e-07  5.2765570574311671e-07 
 5.3456001066441182e-07  5.4155465749981379e-07  5.4864082836128571e-07  5.5581972082856890e-07 
 5.6309254815157678e-07  5.7046053945543753e-07  5.7792493994821712e-07  5.8548701113136512e-07 
 5.9314803101291010e-07  6.0090929432344586e-07  6.0877211273494471e-07  6.1673781508243220e-07 
 6.2480774758856421e-07  6.3298327409114160e-07  6.4126577627360186e-07  6.4965665389852756e-07 
 6.5815732504420718e-07  6.6676922634429738e-07  6.7549381323061503e-07  6.8433256017910926e-07 
 6.9328696095905149e-07  7.0235852888548565e-07  7.1154879707498282e-07  7.2085931870474134e-07 
 7.3029166727507529e-07  7.3984743687534356e-07  7.4952824245335198e-07  7.5933572008828493e-07 
 7.6927152726720516e-07  7.7933734316517432e-07  7.8953486892903662e-07  7.9986582796491725e-07 
 8.1033196622948210e-07  8.2093505252500832e-07  8.3167687879831648e-07  8.4255926044361255e-07 
 8.5358403660929597e-07  8.6475307050877900e-07  8.7606824973537398e-07  8.8753148658130150e-07 
 8.9914471836087193e-07  9.1090990773789770e-07  9.2282904305738403e-07  9.3490413868156942e-07 
 9.4713723533035426e-07  9.5953040042618805e-07  9.7208572844346906e-07  9.8480534126251529e-07 
 9.9769138852816685e-07  1.0107460480130817e-06  1.0239715259857841e-06  1.0373700575835294e-06 
 1.0509439071900483e-06  1.0646953688182295e-06  1.0786267664978191e-06  1.0927404546681827e-06 
 1.1070388185762134e-06  1.1215242746794428e-06  1.1361992710544293e-06  1.1510662878104893e-06 
 1.1661278375088375e-06  1.1813864655872214e-06  1.1968447507901039e-06  1.2125053056044761e-06 
 1.2283707767013755e-06  1.2444438453831785e-06  1.2607272280367483e-06  1.2772236765925086e-06 
 1.2939359789895296e-06  1.3108669596466920e-06  1.3280194799400264e-06  1.3453964386862842e-06 
 1.3630007726328538e-06  1.3808354569540719e-06  1.3989035057540374e-06  1.4172079725760007e-06 
 1.4357519509184218e-06  1.4545385747577774e-06  1.4735710190782089e-06  1.4928525004081060e-06 
 1.5123862773637054e-06  1.5321756511998047e-06  1.5522239663676829e-06  1.5725346110803210e-06 
 1.5931110178850159e-06  1.6139566642434915e-06  1.6350750731195980e-06  1.6564698135746977e-06 
 1.6781445013708518e-06  1.7001027995818823e-06  1.7223484192124511e-06  1.7448851198252233e-06 
 1.7677167101762407e-06  1.7908470488586147e-06  1.8142800449546351e-06  1.8380196586964167e-06 
 1.8620699021351810e-06  1.8864348398193122e-06  1.9111185894812708e-06  1.9361253227334985e-06 
 1.9614592657734340e-06  1.9871247000977474e-06  2.0131259632259271e-06  2.0394674494333261e-06 
 2.0661536104938091e-06  2.0931889564321112e-06  2.1205780562860444e-06  2.1483255388786691e-06 
 2.1764360936005866e-06  2.2049144712024514e-06  2.2337654845978594e-06  2.2629940096767437e-06 
 2.2926049861294063e-06  2.3226034182813466e-06  2.3529943759389968e-06  2.3837829952465355e-06 
 2.4149744795539045e-06  2.4465741002961914e-06  2.4785871978845115e-06  2.5110191826085509e-06 
 2.5438755355509197e-06  2.5771618095134671e-06  2.6108836299557162e-06  2.6450466959455833e-06 
 2.6796567811225328e-06  2.7147197346733364e-06  2.7502414823205934e-06  2.7862280273242025e-06 
 2.8226854514959221e-06  2.8596199162272119e-06  2.8970376635305127e-06  2.9349450170941805e-06 
 2.9733483833511907e-06  3.0122542525618420e-06  3.0516691999106368e-06  3.0915998866174815e-06 
 3.1320530610634723e-06  3.1730355599313715e-06  3.2145543093610328e-06  3.2566163261199242e-06 
 3.2992287187889920e-06  3.3423986889640182e-06  3.3861335324727127e-06  3.4304406406077214e-06 
 3.4753275013757719e-06  3.5208017007631704e-06  3.5668709240178471e-06  3.6135429569481816e-06 
 3.6608256872388204e-06  3.7087271057837224e-06  3.7572553080366309e-06  3.8064184953792280e-06 
 3.8562249765071910e-06  3.9066831688343708e-06  3.9578015999153673e-06  4.0095889088867000e-06 
 4.0620538479268451e-06  4.1152052837353701e-06  4.1690521990314338e-06  4.2236036940718798e-06 
 4.2788689881892098e-06  4.3348574213496681e-06  4.3915784557317127e-06  4.4490416773251569e-06 
 4.5072567975512193e-06  4.5662336549037764e-06  4.6259822166120890e-06  4.6865125803252931e-06 
 4.7478349758189259e-06  4.8099597667237783e-06  4.8728974522773796e-06  4.9366586690983808e-06 
 5.0012541929841851e-06  5.0666949407320719e-06  5.1329919719841680e-06  5.2001564910965470e-06 
 5.2681998490327942e-06  5.3371335452823543e-06  5.4069692298039615e-06  5.4777187049945185e-06 
 5.5493939276837160e-06  5.6220070111547875e-06  5.6955702271916648e-06  5.7700960081529478e-06 
 5.8455969490729925e-06  5.9220858097905182e-06  5.9995755171050331e-06  6.0780791669615115e-06 
 6.1576100266636231e-06  6.2381815371159470e-06  6.3198073150955195e-06  6.4025011555530957e-06 
 6.4862770339445341e-06  6.5711491085926744e-06  6.6571317230801380e-06  6.7442394086734187e-06 
 6.8324868867787065e-06  6.9218890714298434e-06  7.0124610718088158e-06  7.1042181947992580e-06 
 7.1971759475733485e-06  7.2913500402125572e-06  7.3867563883626757e-06  7.4834111159236250e-06 
 7.5813305577744053e-06  7.6805312625337507e-06  7.7810299953568764e-06  7.8828437407688162e-06 
 7.9859897055348764e-06  8.0904853215686017e-06  8.1963482488778119e-06  8.3035963785491821e-06 
 8.4122478357718889e-06  8.5223209829008041e-06  8.6338344225597803e-06  8.7468070007855314e-06 
 8.8612578102126606e-06  8.9772061933003648e-06  9.0946717456013568e-06  9.2136743190735573e-06 
 9.3342340254351128e-06  9.4563712395633474e-06  9.5801066029381483e-06  9.7054610271304234e-06 
 9.8324556973362263e-06  9.9611120759570711e-06  1.0091451906227161e-05  1.0223497215888035e-05 
 1.0357270320911312e-05  1.0492793829270122e-05  1.0630090644759946e-05  1.0769183970869376e-05 
 1.0910097314701584e-05  1.1052854490947069e-05  1.1197479625908381e-05  1.1343997161577557e-05 
 1.1492431859766849e-05  1.1642808806293547e-05  1.1795153415219515e-05  1.1949491433146263e-05 
 1.2105848943566155e-05  1.2264252371270601e-05  1.2424728486815908e-05  1.2587304411047535e-05 
 1.2752007619683631e-05  1.2918865947958465e-05  1.3087907595326663e-05  1.3259161130228949e-05 
 1.3432655494920331e-05  1.3608420010361374e-05  1.3786484381173522e-05  1.3966878700659266e-05 
 1.4149633455887933e-05  1.4334779532848144e-05  1.4522348221667566e-05  1.4712371221901054e-05 
 1.4904880647887901e-05  1.5099909034179298e-05  1.5297489341036719e-05  1.5497654960002273e-05 
 1.5700439719542000e-05  1.5905877890762883e-05  1.6114004193204837e-05  1.6324853800708327e-05 
 1.6538462347358871e-05  1.6754865933509257e-05  1.6974101131880624e-05  1.7196204993743269e-05 
 1.7421215055178487e-05  1.7649169343422203e-05  1.7880106383291694e-05  1.8114065203696337e-05 
 1.8351085344233638e-05  1.8591206861871469e-05  1.8834470337717832e-05  1.9080916883879144e-05 
 1.9330588150408245e-05  1.9583526332343434e-05  1.9839774176839475e-05  2.0099374990391984e-05 
 2.0362372646156326e-05  2.0628811591362288e-05  2.0898736854825754e-05  2.1172194054558701e-05 
 2.1449229405478759e-05  2.1729889727219561e-05  2.2014222452043514e-05  2.2302275632857831e-05 
 2.2594097951335676e-05  2.2889738726143435e-05  2.3189247921275710e-05  2.3492676154499329e-05 
 2.3800074705907902e-05  2.4111495526588278e-05  2.4426991247400310e-05  2.4746615187871761e-05 
 2.5070421365209298e-05  2.5398464503427590e-05  2.5730800042597759e-05  2.6067484148216915e-05 
 2.6408573720700263e-05  2.6754126404997362e-05  2.7104200600334341e-05  2.7458855470083369e-05 
 2.7818150951761582e-05  2.8182147767160530e-05  2.8550907432608363e-05  2.8924492269366230e-05 
 2.9302965414160708e-05  2.9686390829854072e-05  3.0074833316254166e-05  3.0468358521065744e-05 
 3.0867032950984993e-05  3.1270923982939494e-05  3.1680099875474930e-05  3.2094629780291022e-05 
 3.2514583753928308e-05  3.2940032769607862e-05  3.3371048729225946e-05  3.3807704475505590e-05 
 3.4250073804307235e-05  3.4698231477100270e-05  3.5152253233598070e-05  3.5612215804558120e-05 
 3.6078196924749662e-05  3.6550275346091082e-05  3.7028530850959191e-05  3.7513044265672587e-05 
 3.8003897474151557e-05  3.8501173431756643e-05  3.9004956179308184e-05  3.9515330857289601e-05 
 4.0032383720236201e-05  4.0556202151312470e-05  4.1086874677079998e-05  4.1624490982458683e-05 
 4.2169141925883727e-05  4.2720919554660875e-05  4.3279917120522731e-05  4.3846229095388297e-05 
 4.4419951187329255e-05  4.5001180356744647e-05  4.5590014832747493e-05  4.6186554129765736e-05 
 4.6790899064360352e-05  4.7403151772263716e-05  4.8023415725640684e-05  4.8651795750575709e-05 
 4.9288398044788516e-05  4.9933330195582049e-05  5.0586701198024788e-05  5.1248621473371227e-05 
 5.1919202887723361e-05  5.2598558770936232e-05  5.3286803935771061e-05  5.3984054697298764e-05 
 5.4690428892557652e-05  5.5406045900467832e-05  5.6131026662006948e-05  5.6865493700649215e-05 
 5.7609571143072266e-05  5.8363384740134856e-05  5.9127061888129019e-05  5.9900731650310411e-05 
 6.0684524778710230e-05  6.1478573736232754e-05  6.2283012719041613e-05  6.3097977679239564e-05 
 6.3923606347844605e-05  6.4760038258066809e-05  6.5607414768889763e-05  6.6465879088960678e-05 
 6.7335576300792832e-05  6.8216653385285003e-05  6.9109259246561588e-05  7.0013544737137500e-05 
 7.0929662683413011e-05  7.1857767911501463e-05  7.2798017273395405e-05  7.3750569673474873e-05 
 7.4715586095362650e-05  7.5693229629130850e-05  7.6683665498863615e-05  7.7687061090580270e-05 
 7.8703585980523892e-05  7.9733411963820374e-05  8.0776713083511984e-05  8.1833665659971101e-05 
 8.2904448320698780e-05  8.3989242030513265e-05  8.5088230122133435e-05  8.6201598327162457e-05 
 8.7329534807476994e-05  8.8472230187026642e-05  8.9629877584050397e-05  9.0802672643713626e-05 
 9.1990813571172757e-05  9.3194501165072484e-05  9.4413938851481034e-05  9.5649332718269797e-05 
 9.6900891549942580e-05  9.8168826862920919e-05  9.9453352941290300e-05  1.0075468687301537e-04 
 1.0207304858662785e-04  1.0340866088839522e-04  1.0476174949997536e-04  1.0613254309656408e-04 
 1.0752127334554186e-04  1.0892817494562602e-04  1.1035348566653573e-04  1.1179744638917492e-04 
 1.1326030114634264e-04  1.1474229716397457e-04  1.1624368490292496e-04  1.1776471810129519e-04 
 1.1930565381731593e-04  1.2086675247279081e-04  1.2244827789710815e-04  1.2405049737182895e-04 
 1.2567368167585766e-04  1.2731810513120516e-04  1.2898404564934919e-04  1.3067178477820250e-04 
 1.3238160774969477e-04  1.3411380352797782e-04  1.3586866485826087e-04  1.3764648831628558e-04 
 1.3944757435844780e-04  1.4127222737257521e-04  1.4312075572937014e-04  1.4499347183452458e-04 
 1.4689069218151756e-04  1.4881273740510324e-04  1.5075993233549910e-04  1.5273260605328293e-04 
 1.5473109194500811e-04  1.5675572775954708e-04  1.5880685566517107e-04  1.6088482230737820e-04 
 1.6298997886747668e-04  1.6512268112193570e-04  1.6728328950251227e-04  1.6947216915716518e-04 
 1.7168969001176581e-04  1.7393622683261652e-04  1.7621215928978712e-04  1.7851787202127951e-04 
 1.8085375469803334e-04  1.8322020208978056e-04  1.8561761413176273e-04  1.8804639599232106e-04 
 1.9050695814137072e-04  1.9299971641977123e-04  1.9552509210960472e-04  1.9808351200537353e-04 
 2.0067540848612899e-04  2.0330121958854548e-04  2.0596138908094902e-04  2.0865636653831523e-04 
 2.1138660741824879e-04  2.1415257313795667e-04  2.1695473115222860e-04  2.1979355503243858e-04 
 2.2266952454657907e-04  2.2558312574034285e-04  2.2853485101926633e-04  2.3152519923194716e-04 
 2.3455467575435058e-04  2.3762379257521928e-04  2.4073306838260077e-04  2.4388302865150697e-04 
 2.4707420573272048e-04  2.5030713894276345e-04  2.5358237465504280e-04  2.5690046639218947e-04 
 2.6026197491960438e-04  2.6366746834022937e-04  2.6711752219055787e-04  2.7061271953790218e-04 
 2.7415365107893286e-04  2.7774091523950805e-04  2.8137511827580923e-04  2.8505687437679883e-04 
 2.8878680576802096e-04  2.9256554281675845e-04  2.9639372413856632e-04  3.0027199670519929e-04 
 3.0420101595395179e-04  3.0818144589842846e-04  3.1221395924076352e-04  3.1629923748530998e-04 
 3.2043797105381404e-04  3.2463085940209957e-04  3.2887861113827687e-04  3.3318194414249947e-04 
 3.3754158568828738e-04  3.4195827256543822e-04  3.4643275120454641e-04  3.5096577780315160e-04 
 3.5555811845353839e-04  3.6021054927220619e-04  3.6492385653103703e-04  3.6969883679017563e-04 
 3.7453629703265077e-04  3.7943705480075702e-04  3.8440193833422150e-04  3.8943178671017832e-04 
 3.9452744998497445e-04  3.9968978933783191e-04  4.0491967721638752e-04  4.1021799748414063e-04 
 4.1558564556982709e-04  4.2102352861874890e-04  4.2653256564608393e-04  4.3211368769220204e-04 
 4.3776783798001246e-04  4.4349597207437132e-04  4.4929905804357440e-04  4.5517807662296181e-04 
 4.6113402138066615e-04  4.6716789888552753e-04  4.7328072887720541e-04  4.7947354443851739e-04 
 4.8574739217003291e-04  4.9210333236695094e-04  4.9854243919829247e-04  5.0506580088843821e-04 
 5.1167451990103926e-04  5.1836971312533826e-04  5.2515251206492559e-04  5.3202406302896570e-04 
 5.3898552732592638e-04  5.4603808145984288e-04  5.5318291732914953e-04  5.6042124242811368e-04 
 5.6775428005090549e-04  5.7518326949833548e-04  5.8270946628730244e-04  5.9033414236297696e-04 
 5.9805858631376311e-04  6.0588410358907363e-04  6.1381201671995348e-04  6.2184366554259105e-04 
 6.2998040742475326e-04  6.3822361749518513e-04  6.4657468887600715e-04  6.5503503291815951e-04 
 6.6360607943992183e-04  6.7228927696855612e-04  6.8108609298511160e-04  6.8999801417243226e-04 
 6.9902654666641022e-04  7.0817321631052568e-04  7.1743956891371892e-04  7.2682717051163344e-04 
 7.3633760763128350e-04  7.4597248755917795e-04  7.5573343861295669e-04  7.6562211041657962e-04 
 7.7564017417911771e-04  7.8578932297719063e-04  7.9607127204110132e-04  8.0648775904471417e-04 
 8.1704054439912398e-04  8.2773141155017269e-04  8.3856216727985419e-04  8.4953464201166528e-04 
 8.6065069011995079e-04  8.7191219024329841e-04  8.8332104560203252e-04  8.9487918431986309e-04 
 9.0658855974974260e-04  9.1845115080398825e-04  9.3046896228872250e-04  9.4264402524268953e-04 
 9.5497839728050818e-04  9.6747416294040679e-04  9.8013343403652417e-04  9.9295835001580622e-04 
 1.0059510783195780e-03  1.0191138147498467e-03  1.0324487838403974e-03  1.0459582392327450e-03 
 1.0596444640570051e-03  1.0735097713177469e-03  1.0875565042848987e-03  1.1017870368897642e-03 
 1.1162037741262237e-03  1.1308091524571836e-03  1.1456056402263440e-03  1.1605957380753547e-03 
 1.1757819793664305e-03  1.1911669306104941e-03  1.2067531919009254e-03  1.2225433973529752e-03 
 1.2385402155489493e-03  1.2547463499891964e-03  1.2711645395490098e-03  1.2877975589415012e-03 
 1.3046482191865368e-03  1.3217193680858037e-03  1.3390138907040969e-03  1.3565347098569017e-03 
 1.3742847866043569e-03  1.3922671207516780e-03  1.4104847513561373e-03  1.4289407572406654e-03 
 1.4476382575141847e-03  1.4665804120987428e-03  1.4857704222635490e-03  1.5052115311659951e-03 
 1.5249070243997598e-03  1.5448602305500718e-03  1.5650745217562637e-03  1.5855533142816608e-03 
 1.6063000690909421e-03  1.6273182924350490e-03  1.6486115364437528e-03  1.6701833997259700e-03 
 1.6920375279779395e-03  1.7141776145993498e-03  1.7366074013175365e-03  1.7593306788198390e-03 
 1.7823512873942396e-03  1.8056731175783783e-03  1.8293001108170639e-03  1.8532362601283892e-03 
 1.8774856107785579e-03  1.9020522609655452e-03  1.9269403625117080e-03  1.9521541215654361e-03 
 1.9776977993120246e-03  2.0035757126938085e-03  2.0297922351397418e-03  2.0563517973045155e-03 
 2.0832588878173506e-03  2.1105180540405832e-03  2.1381339028381870e-03  2.1661111013543356e-03 
 2.1944543778021665e-03  2.2231685222628603e-03  2.2522583874951731e-03  2.2817288897555646e-03 
 2.3115850096290607e-03  2.3418317928709798e-03  2.3724743512596805e-03  2.4035178634604624e-03 
 2.4349675759007786e-03  2.4668288036568758e-03  2.4991069313520823e-03  2.5318074140668039e-03 
 2.5649357782604491e-03  2.5984976227054158e-03  2.6324986194332955e-03  2.6669445146934607e-03 
 2.7018411299241951e-03  2.7371943627365293e-03  2.7730101879109544e-03  2.8092946584071681e-03 
 2.8460539063870460e-03  2.8832941442509872e-03  2.9210216656878254e-03  2.9592428467384788e-03 
 2.9979641468735156e-03  3.0371921100848186e-03  3.0769333659915426e-03  3.1171946309605132e-03 
 3.1579827092413407e-03  3.1993044941163334e-03  3.2411669690654869e-03  3.2835772089467030e-03 
 3.3265423811914626e-03  3.3700697470161359e-03  3.4141666626491475e-03  3.4588405805741941e-03 
 3.5040990507897319e-03  3.5499497220849484e-03  3.5964003433324216e-03  3.6434587647976974e-03 
 3.6911329394660091e-03  3.7394309243863437e-03  3.7883608820331077e-03  3.8379310816855998e-03 
 3.8881499008255513e-03  3.9390258265529082e-03  3.9905674570202155e-03  4.0427835028856952e-03 
 4.0956827887853788e-03  4.1492742548244884e-03  4.2035669580883384e-03  4.2585700741729999e-03 
 4.3142928987360057e-03  4.3707448490673323e-03  4.4279354656809470e-03  4.4858744139271763e-03 
 4.5445714856261745e-03  4.6040366007227638e-03  4.6642798089629274e-03  4.7253112915922428e-03 
 4.7871413630765358e-03  4.8497804728450476e-03  4.9132392070564256e-03  4.9775282903877721e-03 
 5.0426585878471939e-03  5.1086411066099766e-03  5.1754869978788360e-03  5.2432075587684965e-03 
 5.3118142342149302e-03  5.3813186189095785e-03  5.4517324592588817e-03  5.5230676553694501e-03 
 5.5953362630592101e-03  5.6685504958948699e-03  5.7427227272560336e-03  5.8178654924263395e-03 
 5.8939914907119497e-03  5.9711135875877581e-03  6.0492448168716975e-03  6.1283983829274764e-03 
 6.2085876628961622e-03  6.2898262089569048e-03  6.3721277506173556e-03  6.4555061970339427e-03 
 6.5399756393625585e-03  6.6255503531399990e-03  6.7122448006965733e-03  6.8000736336002541e-03 
 6.8890516951328491e-03  6.9791940227985298e-03  7.0705158508652206e-03  7.1630326129392191e-03 
 7.2567599445735155e-03  7.3517136859102350e-03  7.4479098843576652e-03  7.5453647973022951e-03 
 7.6440948948563667e-03  7.7441168626413573e-03  7.8454476046078952e-03  7.9481042458925209e-03 
 8.0521041357119582e-03  8.1574648502951205e-03  8.2642041958535355e-03  8.3723402115906571e-03 
 8.4818911727505171e-03  8.5928755937062923e-03  8.7053122310892794e-03  8.8192200869588056e-03 
 8.9346184120136247e-03  9.0515267088453304e-03  9.1699647352343431e-03  9.2899525074890098e-03 
 9.4115103038284291e-03  9.5346586678095001e-03  9.6594184117988410e-03  9.7858106204901270e-03 
 9.9138566544674685e-03  1.0043578153815335e-02  1.0174997041775886e-02  1.0308135528453973e-02 
 1.0443016114570727e-02  1.0579661595266234e-02  1.0718095063951959e-02  1.0858339916213593e-02 
 1.1000419853764968e-02  1.1144358888453694e-02  1.1290181346319220e-02  1.1437911871703997e-02 
 1.1587575431418430e-02  1.1739197318960323e-02  1.1892803158789543e-02  1.2048418910658621e-02 
 1.2206070874000007e-02  1.2365785692370726e-02  1.2527590357955242e-02  1.2691512216127111e-02 
 1.2857578970070531e-02  1.3025818685462173e-02  1.3196259795214368e-02  1.3368931104280331e-02 
 1.3543861794522263e-02  1.3721081429643171e-02  1.3900619960183191e-02  1.4082507728581302e-02 
 1.4266775474303274e-02  1.4453454339036711e-02  1.4642575871954062e-02  1.4834172035044524e-02 
 1.5028275208515669e-02  1.5224918196265803e-02  1.5424134231427883e-02  1.5625956981986010e-02 
 1.5830420556465406e-02  1.6037559509696750e-02  1.6247408848656174e-02  1.6460004038381430e-02 
 1.6675381007965572e-02  1.6893576156629082e-02  1.7114626359871404e-02  1.7338568975703014e-02 
 1.7565441850958992e-02  1.7795283327695227e-02  1.8028132249668340e-02  1.8264027968900347e-02 
 1.8503010352329249e-02  1.8745119788546653e-02  1.8990397194623518e-02  1.9238884023025257e-02 
 1.9490622268617291e-02  1.9745654475762289e-02  2.0004023745510295e-02  2.0265773742882767e-02 
 2.0530948704252289e-02  2.0799593444818475e-02  2.1071753366181879e-02  2.1347474464016979e-02 
 2.1626803335845549e-02  2.1909787188911768e-02  2.2196473848160321e-02  2.2486911764318968e-02 
 2.2781150022086815e-02  2.3079238348429731e-02  2.3381227120984352e-02  2.3687167376572001e-02 
 2.3997110819824044e-02  2.4311109831920079e-02  2.4629217479440503e-02  2.4951487523334873e-02 
 2.5277974428007687e-02  2.5608733370522808e-02  2.5943820249928817e-02  2.6283291696705863e-02 
 2.6627205082336430e-02  2.6975618529001235e-02  2.7328590919402027e-02  2.7686181906712886e-02 
 2.8048451924661769e-02  2.8415462197743949e-02  2.8787274751569097e-02  2.9163952423343756e-02 
 2.9545558872490989e-02  2.9932158591408967e-02  3.0323816916370323e-02  3.0720600038564166e-02 
 3.1122575015282518e-02  3.1529809781253200e-02  3.1942373160120968e-02  3.2360334876078672e-02 
 3.2783765565651164e-02  3.3212736789632782e-02  3.3647321045181380e-02  3.4087591778070490e-02 
 3.4533623395101860e-02  3.4985491276680367e-02  3.5443271789553484e-02  3.5907042299717459e-02 
 3.6376881185492309e-02  3.6852867850768009e-02  3.7335082738423876e-02  3.7823607343923663e-02 
 3.8318524229088394e-02  3.8819917036049652e-02  3.9327870501385150e-02  3.9842470470439519e-02 
 4.0363803911832405e-02  4.0891958932156081e-02  4.1427024790866095e-02  4.1969091915366095e-02 
 4.2518251916290301e-02  4.3074597602985910e-02  4.3638222999198124e-02  4.4209223358960402e-02 
 4.4787695182692572e-02  4.5373736233509661e-02  4.5967445553744095e-02  4.6568923481684080e-02 
 4.7178271668531016e-02  4.7795593095578792e-02  4.8420992091617834e-02  4.9054574350567016e-02 
 4.9696446949336080e-02  5.0346718365921930e-02  5.1005498497741775e-02  5.1672898680205671e-02 
 5.2349031705533011e-02  5.3034011841814346e-02  5.3727954852323026e-02  5.4430978015079498e-02 
 5.5143200142671489e-02  5.5864741602333741e-02  5.6595724336290287e-02  5.7336271882362969e-02 
 5.8086509394849641e-02  5.8846563665675540e-02  5.9616563145821470e-02  6.0396637967032228e-02 
 6.1186919963809247e-02  6.1987542695690949e-02  6.2798641469824570e-02  6.3620353363833426e-02 
 6.4452817248983482e-02  6.5296173813652436e-02  6.6150565587107121e-02  6.7016136963590767e-02 
 6.7893034226726157e-02  6.8781405574237828e-02  6.9681401142997965e-02  7.0593173034399756e-02 
 7.1516875340062916e-02  7.2452664167875630e-02  7.3400697668377077e-02  7.4361136061485242e-02 
 7.5334141663574494e-02  7.6319878914907421e-02  7.7318514407425681e-02  7.8330216912904330e-02 
 7.9355157411474753e-02  8.0393509120520665e-02  8.1445447523952427e-02  8.2511150401863631e-02 
 8.3590797860577271e-02  8.4684572363083535e-02  8.5792658759876642e-02  8.6915244320194984e-02 
 8.8052518763670123e-02  8.9204674292389860e-02  9.0371905623380738e-02  9.1554410021515861e-02 
 9.2752387332852959e-02  9.3966040018408997e-02  9.5195573188376376e-02  9.6441194636787270e-02 
 9.7703114876631178e-02  9.8981547175432075e-02  1.0027670759129130e-01  1.0158881500940167e-01 
 1.0291809117904008e-01  1.0426476075104255e-01  1.0562905131577216e-01  1.0701119344158150e-01 
 1.0841142071377947e-01  1.0982996977410774e-01  1.1126708036073378e-01  1.1272299534876719e-01 
 1.1419796079130619e-01  1.1569222596102108e-01  1.1720604339228212e-01  1.1873966892383814e-01 
 1.2029336174205420e-01  1.2186738442471451e-01  1.2346200298539878e-01  1.2507748691843906e-01 
 1.2671410924446508e-01  1.2837214655654527e-01  1.3005187906693189e-01  1.3175359065441661e-01 
 1.3347756891230822e-01  1.3522410519703554e-01  1.3699349467738761e-01  1.3878603638439793e-01 
 1.4060203326188142e-01  1.4244179221763259e-01  1.4430562417529383e-01  1.4619384412690198e-01 
 1.4810677118612312e-01  1.5004472864218313e-01  1.5200804401450463e-01  1.5399704910805842e-01 
 1.5601208006943937e-01  1.5805347744367590e-01  1.6012158623178296e-01  1.6221675594906809e-01 
 1.6433934068420045e-01  1.6648969915905168e-01  1.6866819478932238e-01  1.7087519574595911e-01 
 1.7311107501737638e-01  1.7537621047249272e-01  1.7767098492459124e-01  1.7999578619601614e-01 
 1.8235100718371558e-01  1.8473704592564208e-01  1.8715430566802205e-01  1.8960319493350528e-01 
 1.9208412759020624e-01  1.9459752292164872e-01  1.9714380569762588e-01  1.9972340624598731e-01 
 2.0233676052536531e-01  2.0498431019885352e-01  2.0766650270864748e-01  2.1038379135166552e-01 
 2.1313663535615582e-01  2.1592549995930713e-01  2.1875085648587514e-01  2.2161318242783742e-01 
 2.2451296152509084e-01  2.2745068384720457e-01  2.3042684587624310e-01  2.3344195059067288e-01 
 2.3649650755036697e-01  2.3959103298272158e-01  2.4272604986990012e-01  2.4590208803721819e-01 
 2.4911968424268527e-01  2.5237938226771828e-01  2.5568173300904196e-01  2.5902729457179186e-01 
 2.6241663236383389e-01  2.6585031919132251e-01  2.6932893535550384e-01  2.7285306875078918e-01 
 2.7642331496411016e-01  2.8004027737557424e-01  2.8370456726043775e-01  2.8741680389241259e-01 
 2.9117761464832503e-01  2.9498763511414400e-01  2.9884750919239639e-01  3.0275788921098817e-01 
 3.0671943603344975e-01  3.1073281917062284e-01  3.1479871689380995e-01  3.1891781634940358e-01 
 3.2309081367501546e-01  3.2731841411712637e-01  3.3160133215027204e-01  3.3594029159779432e-01 
 3.4033602575416705e-01  3.4478927750892485e-01  3.4930079947221354e-01  3.5387135410198273e-01 
 3.5850171383284318e-01  3.6319266120661020e-01  3.6794498900455475e-01  3.7275950038138572e-01 
 3.7763700900098485e-01  3.8257833917391770e-01  3.8758432599674458e-01  3.9265581549315293e-01 
 3.9779366475693850e-01  4.0299874209685538e-01  4.0827192718336264e-01  4.1361411119729125e-01 
 4.1902619698045318e-01  4.2450909918822760e-01  4.3006374444413759e-01  4.3569107149645192e-01 
 4.4139203137683614e-01  4.4716758756107872e-01  4.5301871613192118e-01  4.5894640594401842e-01 
 4.6495165879105699e-01  4.7103548957506108e-01  4.7719892647791357e-01  4.8344301113512034e-01 
 4.8976879881185015e-01  4.9617735858127615e-01  5.0266977350525244e-01  5.0924714081735400e-01 
 5.1591057210831115e-01  5.2266119351387252e-01  5.2950014590512096e-01  5.3642858508128910e-01 
 5.4344768196508775e-01  5.5055862280059664e-01  5.5776260935374156e-01  5.6506085911539639e-01 
 5.7245460550714100e-01  5.7994509808971373e-01  5.8753360277418920e-01  5.9522140203592022e-01 
 6.0300979513127972e-01  6.1090009831723813e-01  6.1889364507381350e-01  6.2699178632943320e-01 
 6.3519589068924354e-01  6.4350734466640802e-01  6.5192755291643090e-01  6.6045793847454848e-01 
 6.6909994299622100e-01  6.7785502700078215e-01  6.8672467011826732e-01  6.9571037133947344e-01 
 7.0481364926929391e-01  7.1403604238336560e-01  7.2337910928807503e-01  7.3284442898396629e-01 
 7.4243360113259649e-01  7.5214824632688193e-01  7.6199000636498204e-01  7.7196054452776797e-01 
 7.8206154585991983e-01  7.9229471745470392e-01  8.0266178874247618e-01  8.1316451178295868e-01 
 8.2380466156134247e-01  8.3458403628826650e-01  8.4550445770371252e-01  8.5656777138489293e-01 
 8.6777584705815147e-01  8.7913057891495350e-01  8.9063388593200776e-01  9.0228771219557935e-01 
 9.1409402723004407e-01  9.2605482633074288e-01  9.3817213090119167e-01  9.5044798879470327e-01 
 9.6288447466047911e-01  9.7548369029423099e-01  9.8824776499338796e-01  1.0011788559169543e+00 
 1.0142791484500731e+00  1.0275508565733624e+00  1.0409962232370829e+00  1.0546175207402042e+00 
 1.0684170511144204e+00  1.0823971465132110e+00  1.0965601696059721e+00  1.1109085139773160e+00 
 1.1254446045315918e+00  1.1401708979027003e+00  1.1550898828692717e+00  1.1702040807752734e+00 
 1.1855160459561251e+00  1.2010283661703864e+00  1.2167436630370940e+00  1.2326645924788227e+00 
 1.2487938451705412e+00  1.2651341469943436e+00  1.2816882595001298e+00  1.2984589803723137e+00 
 1.3154491439026381e+00  1.3326616214691809e+00  1.3500993220216131e+00  1.3677651925728340e+00 
 1.3856622186970131e+00  1.4037934250341626e+00  1.4221618758013066e+00  1.4407706753103440e+00 
 1.4596229684926822e+00  1.4787219414307398e+00  1.4980708218964003e+00  1.5176728798965149e+00 
 1.5375314282255403e+00 
  </PP_RAB>
</PP_MESH>


<PP_LOCAL>
3.8642977904953199e+02 3.8642977897676724e+02 3.8642977890204224e+02 3.8642977882590804e+02 
3.8642977874722931e+02 3.8642977866666905e+02 3.8642977858377412e+02 3.8642977849912984e+02 
3.8642977841150667e+02 3.8642977832244014e+02 3.8642977823038740e+02 3.8642977813637395e+02 
3.8642977803942784e+02 3.8642977794030924e+02 3.8642977783851734e+02 3.8642977773402600e+02 
3.8642977762637634e+02 3.8642977751653558e+02 3.8642977740305059e+02 3.8642977728713066e+02 
3.8642977716841472e+02 3.8642977704600918e+02 3.8642977692067319e+02 3.8642977679192421e+02 
3.8642977665972813e+02 3.8642977652418159e+02 3.8642977638513327e+02 3.8642977624219264e+02 
3.8642977609553492e+02 3.8642977594513633e+02 3.8642977579066837e+02 3.8642977563221240e+02 
3.8642977546971684e+02 3.8642977530272537e+02 3.8642977513134150e+02 3.8642977495543312e+02 
3.8642977477473431e+02 3.8642977458978243e+02 3.8642977439970821e+02 3.8642977420437018e+02 
3.8642977400426861e+02 3.8642977379863424e+02 3.8642977358754706e+02 3.8642977337108675e+02 
3.8642977314890629e+02 3.8642977292089040e+02 3.8642977268679658e+02 3.8642977244631504e+02 
3.8642977219985352e+02 3.8642977194659687e+02 3.8642977168681716e+02 3.8642977142049102e+02 
3.8642977114678268e+02 3.8642977086586137e+02 3.8642977057785771e+02 3.8642977028207383e+02 
3.8642976997850997e+02 3.8642976966670221e+02 3.8642976934702455e+02 3.8642976901870384e+02 
3.8642976868187731e+02 3.8642976833614017e+02 3.8642976798125017e+02 3.8642976761710690e+02 
3.8642976724322654e+02 3.8642976685973804e+02 3.8642976646589278e+02 3.8642976606170259e+02 
3.8642976564700871e+02 3.8642976522134069e+02 3.8642976478427175e+02 3.8642976433599563e+02 
3.8642976387583639e+02 3.8642976340340226e+02 3.8642976291864585e+02 3.8642976242106761e+02 
3.8642976191031141e+02 3.8642976138625227e+02 3.8642976084818781e+02 3.8642976029630046e+02 
3.8642975972968321e+02 3.8642975914809085e+02 3.8642975855119289e+02 3.8642975793858523e+02 
3.8642975730989377e+02 3.8642975666446699e+02 3.8642975600221837e+02 3.8642975532245879e+02 
3.8642975462482627e+02 3.8642975390885942e+02 3.8642975317397162e+02 3.8642975241971243e+02 
3.8642975164556196e+02 3.8642975085105132e+02 3.8642975003547048e+02 3.8642974919864230e+02 
3.8642974833969657e+02 3.8642974745811296e+02 3.8642974655333643e+02 3.8642974562480003e+02 
3.8642974467158172e+02 3.8642974369330966e+02 3.8642974268937502e+02 3.8642974165894412e+02 
3.8642974060140097e+02 3.8642973951594405e+02 3.8642973840189484e+02 3.8642973725853204e+02 
3.8642973608510221e+02 3.8642973488072141e+02 3.8642973364447420e+02 3.8642973237579281e+02 
3.8642973107374110e+02 3.8642972973729258e+02 3.8642972836570021e+02 3.8642972695799642e+02 
3.8642972551314443e+02 3.8642972403026221e+02 3.8642972250827063e+02 3.8642972094633006e+02 
3.8642971934308878e+02 3.8642971769765325e+02 3.8642971600888569e+02 3.8642971427566738e+02 
3.8642971249677635e+02 3.8642971067097164e+02 3.8642970879716023e+02 3.8642970687401368e+02 
3.8642970490007986e+02 3.8642970287419359e+02 3.8642970079487418e+02 3.8642969866098980e+02 
3.8642969647078610e+02 3.8642969422275598e+02 3.8642969191573115e+02 3.8642968954775478e+02 
3.8642968711746403e+02 3.8642968462323535e+02 3.8642968206321035e+02 3.8642967943573592e+02 
3.8642967673906071e+02 3.8642967397139063e+02 3.8642967113071552e+02 3.8642966821534566e+02 
3.8642966522308365e+02 3.8642966215210134e+02 3.8642965900008119e+02 3.8642965576518714e+02 
3.8642965244496492e+02 3.8642964903729677e+02 3.8642964553985053e+02 3.8642964195031698e+02 
3.8642963826628159e+02 3.8642963448511091e+02 3.8642963060432845e+02 3.8642962662138450e+02 
3.8642962253337612e+02 3.8642961833781277e+02 3.8642961403171699e+02 3.8642960961220950e+02 
3.8642960507620609e+02 3.8642960042067898e+02 3.8642959564263003e+02 3.8642959073866763e+02 
3.8642958570554771e+02 3.8642958053977907e+02 3.8642957523798736e+02 3.8642956979648022e+02 
3.8642956421165297e+02 3.8642955847974906e+02 3.8642955259678462e+02 3.8642954655883761e+02 
3.8642954036190065e+02 3.8642953400167420e+02 3.8642952747392798e+02 3.8642952077419733e+02 
3.8642951389798048e+02 3.8642950684060833e+02 3.8642949959737479e+02 3.8642949216329811e+02 
3.8642948453341137e+02 3.8642947670250629e+02 3.8642946866531332e+02 3.8642946041641306e+02 
3.8642945195017279e+02 3.8642944326094243e+02 3.8642943434278936e+02 3.8642942518969801e+02 
3.8642941579545601e+02 3.8642940615382889e+02 3.8642939625815313e+02 3.8642938610179988e+02 
3.8642937567787868e+02 3.8642936497939058e+02 3.8642935399903945e+02 3.8642934272943018e+02 
3.8642933116296268e+02 3.8642931929177337e+02 3.8642930710785134e+02 3.8642929460298348e+02 
3.8642928176867474e+02 3.8642926859626095e+02 3.8642925507684055e+02 3.8642924120126963e+02 
3.8642922696017155e+02 3.8642921234390701e+02 3.8642919734259158e+02 3.8642918194606222e+02 
3.8642916614394295e+02 3.8642914992554830e+02 3.8642913327989618e+02 3.8642911619571896e+02 
3.8642909866148676e+02 3.8642908066530526e+02 3.8642906219505477e+02 3.8642904323820585e+02 
3.8642902378196271e+02 3.8642900381317565e+02 3.8642898331829269e+02 3.8642896228348502e+02 
3.8642894069454917e+02 3.8642891853683426e+02 3.8642889579544749e+02 3.8642887245490186e+02 
3.8642884849946341e+02 3.8642882391295217e+02 3.8642879867867146e+02 3.8642877277963493e+02 
3.8642874619828848e+02 3.8642871891667704e+02 3.8642869091629433e+02 3.8642866217827941e+02 
3.8642863268317012e+02 3.8642860241098663e+02 3.8642857134127564e+02 3.8642853945303762e+02 
3.8642850672471360e+02 3.8642847313415217e+02 3.8642843865861960e+02 3.8642840327482207e+02 
3.8642836695883130e+02 3.8642832968607490e+02 3.8642829143134514e+02 3.8642825216879100e+02 
3.8642821187181869e+02 3.8642817051322874e+02 3.8642812806497352e+02 3.8642808449840828e+02 
3.8642803978404828e+02 3.8642799389162269e+02 3.8642794679014099e+02 3.8642789844769857e+02 
3.8642784883164222e+02 3.8642779790837739e+02 3.8642774564348383e+02 3.8642769200159904e+02 
3.8642763694643531e+02 3.8642758044077010e+02 3.8642752244638217e+02 3.8642746292403763e+02 
3.8642740183347939e+02 3.8642733913336082e+02 3.8642727478133082e+02 3.8642720873379477e+02 
3.8642714094612472e+02 3.8642707137245014e+02 3.8642699996569172e+02 3.8642692667758206e+02 
3.8642685145852516e+02 3.8642677425764265e+02 3.8642669502271303e+02 3.8642661370012456e+02 
3.8642653023490635e+02 3.8642644457057662e+02 3.8642635664915616e+02 3.8642626641121882e+02 
3.8642617379566690e+02 3.8642607873990909e+02 3.8642598117959591e+02 3.8642588104873738e+02 
3.8642577827960270e+02 3.8642567280267065e+02 3.8642556454658006e+02 3.8642545343809780e+02 
3.8642533940203879e+02 3.8642522236127934e+02 3.8642510223662606e+02 3.8642497894680321e+02 
3.8642485240841745e+02 3.8642472253584685e+02 3.8642458924122406e+02 3.8642445243436646e+02 
3.8642431202272491e+02 3.8642416791128210e+02 3.8642402000255896e+02 3.8642386819644577e+02 
3.8642371239027551e+02 3.8642355247859308e+02 3.8642338835322016e+02 3.8642321990309836e+02 
3.8642304701423922e+02 3.8642286956968906e+02 3.8642268744935177e+02 3.8642250053001408e+02 
3.8642230868519408e+02 3.8642211178506966e+02 3.8642190969639807e+02 3.8642170228245817e+02 
3.8642148940287439e+02 3.8642127091359714e+02 3.8642104666676431e+02 3.8642081651063836e+02 
3.8642058028946616e+02 3.8642033784339139e+02 3.8642008900834145e+02 3.8641983361591321e+02 
3.8641957149326885e+02 3.8641930246303156e+02 3.8641902634310605e+02 3.8641874294663432e+02 
3.8641845208180831e+02 3.8641815355178414e+02 3.8641784715450200e+02 3.8641753268260021e+02 
3.8641720992323155e+02 3.8641687865793824e+02 3.8641653866251175e+02 3.8641618970681702e+02 
3.8641583155466475e+02 3.8641546396363469e+02 3.8641508668490417e+02 3.8641469946309218e+02 
3.8641430203610253e+02 3.8641389413491044e+02 3.8641347548338047e+02 3.8641304579812885e+02 
3.8641260478828144e+02 3.8641215215529155e+02 3.8641168759274302e+02 3.8641121078614202e+02 
3.8641072141268859e+02 3.8641021914108205e+02 3.8640970363128611e+02 3.8640917453427886e+02 
3.8640863149185827e+02 3.8640807413634849e+02 3.8640750209039254e+02 3.8640691496668228e+02 
3.8640631236768166e+02 3.8640569388538051e+02 3.8640505910100569e+02 3.8640440758472630e+02 
3.8640373889539848e+02 3.8640305258020953e+02 3.8640234817442371e+02 3.8640162520104519e+02 
3.8640088317049845e+02 3.8640012158027781e+02 3.8639933991463283e+02 3.8639853764421116e+02 
3.8639771422568265e+02 3.8639686910140546e+02 3.8639600169900592e+02 3.8639511143101748e+02 
3.8639419769447750e+02 3.8639325987050614e+02 3.8639229732392067e+02 3.8639130940275089e+02 
3.8639029543784471e+02 3.8638925474237857e+02 3.8638818661143353e+02 3.8638709032146181e+02 
3.8638596512984185e+02 3.8638481027436222e+02 3.8638362497268059e+02 3.8638240842183450e+02 
3.8638115979765172e+02 3.8637987825423164e+02 3.8637856292334345e+02 3.8637721291384526e+02 
3.8637582731107369e+02 3.8637440517624134e+02 3.8637294554577733e+02 3.8637144743068876e+02 
3.8636990981588207e+02 3.8636833165946121e+02 3.8636671189205839e+02 3.8636504941606154e+02 
3.8636334310490241e+02 3.8636159180227452e+02 3.8635979432135986e+02 3.8635794944400726e+02 
3.8635605591992601e+02 3.8635411246581361e+02 3.8635211776450024e+02 3.8635007046404991e+02 
3.8634796917684662e+02 3.8634581247864094e+02 3.8634359890758566e+02 3.8634132696325952e+02 
3.8633899510562117e+02 3.8633660175398467e+02 3.8633414528592999e+02 3.8633162403621844e+02 
3.8632903629564362e+02 3.8632638030987914e+02 3.8632365427829524e+02 3.8632085635271000e+02 
3.8631798463616303e+02 3.8631503718160388e+02 3.8631201199058876e+02 3.8630890701190447e+02 
3.8630572014018315e+02 3.8630244921448298e+02 3.8629909201679237e+02 3.8629564627054998e+02 
3.8629210963908179e+02 3.8628847972402104e+02 3.8628475406367568e+02 3.8628093013135680e+02 
3.8627700533366101e+02 3.8627297700870378e+02 3.8626884242432027e+02 3.8626459877620539e+02 
3.8626024318599963e+02 3.8625577269934251e+02 3.8625118428386423e+02 3.8624647482712521e+02 
3.8624164113449746e+02 3.8623667992699251e+02 3.8623158783904000e+02 3.8622636141620291e+02 
3.8622099711281493e+02 3.8621549128958787e+02 3.8620984021113048e+02 3.8620404004341543e+02 
3.8619808685116669e+02 3.8619197659519682e+02 3.8618570512965101e+02 3.8617926819920177e+02 
3.8617266143615183e+02 3.8616588035745968e+02 3.8615892036171925e+02 3.8615177672600458e+02 
3.8614444460268055e+02 3.8613691901610446e+02 3.8612919485925266e+02 3.8612126689023876e+02 
3.8611312972877187e+02 3.8610477785248793e+02 3.8609620559321064e+02 3.8608740713310044e+02 
3.8607837650070172e+02 3.8606910756689336e+02 3.8605959404072649e+02 3.8604982946515855e+02 
3.8603980721266589e+02 3.8602952048075247e+02 3.8601896228733068e+02 3.8600812546598740e+02 
3.8599700266112416e+02 3.8598558632296221e+02 3.8597386870243139e+02 3.8596184184591198e+02 
3.8594949758984347e+02 3.8593682755518790e+02 3.8592382314176052e+02 3.8591047552239144e+02 
3.8589677563695346e+02 3.8588271418622321e+02 3.8586828162558140e+02 3.8585346815855462e+02 
3.8583826373018132e+02 3.8582265802020709e+02 3.8580664043609983e+02 3.8579020010589051e+02 
3.8577332587081474e+02 3.8575600627776998e+02 3.8573822957157535e+02 3.8571998368702407e+02 
3.8570125624073728e+02 3.8568203452280085e+02 3.8566230548817924e+02 3.8564205574791674e+02 
3.8562127156010320e+02 3.8559993882060212e+02 3.8557804305354443e+02 3.8555556940157220e+02 
3.8553250261582946e+02 3.8550882704569113e+02 3.8548452662823149e+02 3.8545958487741058e+02 
3.8543398487299532e+02 3.8540770924917649e+02 3.8538074018290541e+02 3.8535305938192391e+02 
3.8532464807248431e+02 3.8529548698675757e+02 3.8526555634991274e+02 3.8523483586686586e+02 
3.8520330470868993e+02 3.8517094149867148e+02 3.8513772429801622e+02 3.8510363059118242e+02 
3.8506863727084237e+02 3.8503272062245662e+02 3.8499585630846087e+02 3.8495801935203991e+02 
3.8491918412049694e+02 3.8487932430819768e+02 3.8483841291907595e+02 3.8479642224870588e+02 
3.8475332386590912e+02 3.8470908859390579e+02 3.8466368649098530e+02 3.8461708683068946e+02 
3.8456925808149890e+02 3.8452016788600986e+02 3.8446978303958542e+02 3.8441806946847669e+02 
3.8436499220739256e+02 3.8431051537651558e+02 3.8425460215794169e+02 3.8419721477153564e+02 
3.8413831445019224e+02 3.8407786141447934e+02 3.8401581484665962e+02 3.8395213286407449e+02 
3.8388677249186964e+02 3.8381968963505761e+02 3.8375083904989583e+02 3.8368017431456843e+02 
3.8360764779915553e+02 3.8353321063487567e+02 3.8345681268258738e+02 3.8337840250053011e+02 
3.8329792731129430e+02 3.8321533296799913e+02 3.8313056391966632e+02 3.8304356317577458e+02 
3.8295427226996884e+02 3.8286263122292462e+02 3.8276857850433214e+02 3.8267205099399746e+02 
3.8257298394204082e+02 3.8247131092816579e+02 3.8236696381999855e+02 3.8225987273046906e+02 
3.8214996597421231e+02 3.8203717002299646e+02 3.8192140946012574e+02 3.8180260693383667e+02 
3.8168068310964316e+02 3.8155555662163016e+02 3.8142714402267347e+02 3.8129535973356883e+02 
3.8116011599105764e+02 3.8102132279472812e+02 3.8087888785278250e+02 3.8073271652665028e+02 
3.8058271177443413e+02 3.8042877409317703e+02 3.8027080145993102e+02 3.8010868927161852e+02 
3.7994233028367393e+02 3.7977161454745095e+02 3.7959642934638413e+02 3.7941665913089969e+02 
3.7923218545205833e+02 3.7904288689392729e+02 3.7884863900467411e+02 3.7864931422637034e+02 
3.7844478182350906e+02 3.7823490781022588e+02 3.7801955487622280e+02 3.7779858231139946e+02 
3.7757184592918389e+02 3.7733919798857829e+02 3.7710048711491197e+02 3.7685555821932053e+02 
3.7660425241695395e+02 3.7634640694392937e+02 3.7608185507304285e+02 3.7581042602825664e+02 
3.7553194489798432e+02 3.7524623254719984e+02 3.7495310552839436e+02 3.7465237599141466e+02 
3.7434385159221773e+02 3.7402733540058267e+02 3.7370262580682038e+02 3.7336951642753394e+02 
3.7302779601047752e+02 3.7267724833858244e+02 3.7231765213320159e+02 3.7194878095665507e+02 
3.7157040311414517e+02 3.7118228155513003e+02 3.7078417377424017e+02 3.7037583171184195e+02 
3.6995700165434710e+02 3.6952742413438841e+02 3.6908683383097633e+02 3.6863495946977730e+02 
3.6817152372364365e+02 3.6769624311355597e+02 3.6720882791013418e+02 3.6670898203589081e+02 
3.6619640296841072e+02 3.6567078164465630e+02 3.6513180236660332e+02 3.6457914270843452e+02 
3.6401247342552472e+02 3.6343145836546995e+02 3.6283575438142975e+02 3.6222501124806195e+02 
3.6159887158035281e+02 3.6095697075565886e+02 3.6029893683929589e+02 3.5962439051403038e+02 
3.5893294501384742e+02 3.5822420606239075e+02 3.5749777181649034e+02 3.5675323281521725e+02 
3.5599017193492818e+02 3.5520816435078262e+02 3.5440677750524713e+02 3.5358557108411924e+02 
3.5274409700063484e+02 3.5188189938825008e+02 3.5099851460271276e+02 3.5009347123407383e+02 
3.4916629012931196e+02 3.4821648442628265e+02 3.4724355959972564e+02 3.4624701352010686e+02 
3.4522633652609392e+02 3.4418101151150648e+02 3.4311051402760808e+02 3.4201431240165209e+02 
3.4089186787261548e+02 3.3974263474510303e+02 3.3856606056243299e+02 3.3736158629995202e+02 
3.3612864657966571e+02 3.3486666990730760e+02 3.3357507893300021e+02 3.3225329073670628e+02 
3.3090071713969638e+02 3.2951676504329589e+02 3.2810083679621118e+02 3.2665233059176211e+02 
3.2517064089638524e+02 3.2365515891079593e+02 3.2210527306523130e+02 3.2052036955021794e+02 
3.1889983288433069e+02 3.1724304652043645e+02 3.1554939349191858e+02 3.1381825710041318e+02 
3.1204902164657273e+02 3.1024107320539900e+02 3.0839380044766943e+02 3.0650659550898820e+02 
3.0457885490796752e+02 3.0260998051504043e+02 3.0059938057336012e+02 2.9854647077322630e+02 
2.9645067538141649e+02 2.9431142842675700e+02 2.9212817494320103e+02 2.8990037227160298e+02 
2.8762749142129366e+02 2.8530901849245629e+02 2.8294445616019146e+02 2.8053332522102835e+02 
2.7807516620248782e+02 2.7556954103615260e+02 2.7301603479450540e+02 2.7041425749160874e+02 
2.6776384594746787e+02 2.6506446571569353e+02 2.6231581307380384e+02 2.5951761707523326e+02 
2.5666964166179844e+02 2.5377168783504302e+02 2.5082359588452533e+02 2.4782524767072496e+02 
2.4477656895983574e+02 2.4167753180727590e+02 2.3852815698627268e+02 2.3532851645739376e+02 
2.3207873587436711e+02 2.2877899712098861e+02 2.2542954087332282e+02 2.2203066918081984e+02 
2.1858274805931742e+02 2.1508621008824812e+02 2.1154155700369373e+02 2.0794936227821665e+02 
2.0431027367767891e+02 2.0062501578451767e+02 1.9689439247618736e+02 1.9311928934671519e+02 
1.8930067605853827e+02 1.8543960861102161e+02 1.8153723151127537e+02 1.7759477983213230e+02 
1.7361358114139321e+02 1.6959505728572705e+02 1.6554072601190859e+02 1.6145220240743214e+02 
1.5733120014191218e+02 1.5317953249015426e+02 1.4899911311727635e+02 1.4479195660587064e+02 
1.4056017870487997e+02 1.3630599627965898e+02 1.3203172694259854e+02 1.2773978834373594e+02 
1.2343269710095657e+02 1.1911306734974011e+02 1.1478360889291922e+02 1.1044712493162405e+02 
1.0610650935949180e+02 1.0176474360333822e+02 9.7424892994836696e+01 9.3090102659335201e+01 
8.8763592909779902e+01 8.4448654135811111e+01 8.0148641180453311e+01 7.5866967199474843e+01 
7.1607097001389064e+01 6.7372539869271293e+01 6.3166841869026442e+01 5.8993577652478990e+01 
5.4856341767647542e+01 5.0758739492804004e+01 4.6704377215379033e+01 4.2696852381440820e+01 
3.8739743046308185e+01 3.4836597061836301e+01 3.0990920940985625e+01 2.7206168445411002e+01 
2.3485728946934735e+01 1.9832915618838992e+01 1.6250953517864598e+01 1.2742967622573625e+01 
9.3119708982285623e+00 5.9608524625312365e+00 2.6923659303006420e+00 -4.9088198156193225e-01 
-3.5864425048032866e+00 -6.5920354402166996e+00 -9.5055592604256436e+00 -1.2325100607337889e+01 
-1.5048943097035194e+01 -1.7675575346310641e+01 -2.0203698137550688e+01 -2.2632230642226933e+01 
-2.4960315627949541e+01 -2.7187323579868469e+01 -2.9312855674188068e+01 -3.1336745549679527e+01 
-3.3259059832297382e+01 -3.5080097378274452e+01 -3.6800387212317332e+01 -3.8420685149626998e+01 
-3.9941969103335360e+01 -4.1365433092398277e+01 -4.2692479978866402e+01 -4.3924712977570955e+01 
-4.5063925995397220e+01 -4.6112092871254490e+01 -4.7071355601341779e+01 -4.7944011647111509e+01 
-4.8732500435197025e+01 -4.9439389169248209e+01 -5.0067358082871614e+01 -5.0619185270480280e+01 
-5.1097731238612333e+01 -5.1505923324014212e+01 -5.1846740126354618e+01 -5.2123196102745737e+01 
-5.2338326468244567e+01 -5.2495172541181098e+01 -5.2596767664566393e+01 -5.2646123825068301e+01 
-5.2646219079269407e+01 -5.2599985883345710e+01 -5.2510300407190158e+01 -5.2379972897655556e+01 
-5.2211739138349486e+01 -5.2008253035654633e+01 -5.1772080342761079e+01 -5.1505693515886989e+01 
-5.1211467679925924e+01 -5.0891677664878621e+01 -5.0548496059956882e+01 -5.0183992219505747e+01 
-4.9800132144140917e+01 -4.9398779151951011e+01 -4.8981695248404925e+01 -4.8550543099808571e+01 
-4.8106888513759529e+01 -4.7652203330982644e+01 -4.7187868636040726e+01 -4.6715178199492335e+01 
-4.6235342070845775e+01 -4.5749490249822500e+01 -4.5258676372649674e+01 -4.4763881359989924e+01 
-4.4266016983318728e+01 -4.3765929316721966e+01 -4.3264402050873976e+01 -4.2762159655076893e+01 
-4.2259870381440727e+01 -4.1758149112366951e+01 -4.1257560058326568e+01 -4.0758619317419210e+01 
-4.0261797311344580e+01 -3.9767521114253476e+01 -3.9276176691557126e+01 -3.8788111065297940e+01 
-3.8303634421286219e+01 -3.7823022171074278e+01 -3.7346516979175554e+01 -3.6874330762945128e+01 
-3.6406646669416112e+01 -3.5943621030315860e+01 -3.5485385293625022e+01 -3.5032047927520864e+01 
-3.4583696290464992e+01 -3.4140398459619782e+01 -3.3702205008742723e+01 -3.3269150726216651e+01 
-3.2841256263903098e+01 -3.2418529708009054e+01 -3.2000968064067159e+01 -3.1588558649373034e+01 
-3.1181280387706000e+01 -3.0779105002802289e+01 -3.0381998108759678e+01 -2.9989920197251301e+01 
-2.9602827523044514e+01 -2.9220672890796390e+01 -2.8843406347387031e+01 -2.8470975785122732e+01 
-2.8103327461974306e+01 -2.7740406445607753e+01 -2.7382156988320062e+01 -2.7028522840128549e+01 
-2.6679447507201509e+01 -2.6334874462589273e+01 -2.5994747315850280e+01 -2.5659009947699268e+01 
-2.5327606615265186e+01 -2.5000482032968034e+01 -2.4677581433427743e+01 -2.4358850612232263e+01 
-2.4044235959830409e+01 -2.3733684483293189e+01 -2.3427143820212923e+01 -2.3124562246588951e+01 
-2.2825888680183098e+01 -2.2531072680516345e+01 -2.2240064446418259e+01 -2.1952814811827142e+01 
-2.1669275240367320e+01 -2.1389397819093876e+01 -2.1113135251690171e+01 -2.0840440851322718e+01 
-2.0571268533297861e+01 -2.0305572807620706e+01 -2.0043308771523812e+01 -1.9784432102011962e+01 
-1.9528899048451855e+01 -1.9276666425225962e+01 -1.9027691604461896e+01 -1.8781932508844179e+01 
-1.8539347604512024e+01 -1.8299895894044973e+01 -1.8063536909536900e+01 -1.7830230705758268e+01 
-1.7599937853406015e+01 -1.7372619432440285e+01 -1.7148237025507040e+01 -1.6926752711445520e+01 
-1.6708129058879525e+01 -1.6492329119891433e+01 -1.6279316423777910e+01 -1.6069054970886384e+01 
-1.5861509226530840e+01 -1.5656644114986507e+01 -1.5454425013561933e+01 -1.5254817746747678e+01 
-1.5057788580440567e+01 -1.4863304216242542e+01 -1.4671331785833164e+01 -1.4481838845414782e+01 
-1.4294793370229453e+01 -1.4110163749146681e+01 -1.3927918779321073e+01 -1.3748027660918959e+01 
-1.3570459991913182e+01 -1.3395185762945042e+01 -1.3222175352252679e+01 -1.3051399520664905e+01 
-1.2882829406659690e+01 -1.2716436521486605e+01 -1.2552192744352004e+01 -1.2390070317666630e+01 
-1.2230041842354504e+01 -1.2072080273222420e+01 -1.1916158914389234e+01 -1.1762251414774186e+01 
-1.1610331763643533e+01 -1.1460374286214648e+01 -1.1312353639316933e+01 -1.1166244807108757e+01 
-1.1022023096849727e+01 -1.0879664134727543e+01 -1.0739143861738786e+01 -1.0600438529622862e+01 
-1.0463524696848513e+01 -1.0328379224652132e+01 -1.0194979273127240e+01 -1.0063302297364563e+01 
-9.9333260436417721e+00 -9.8050285456626369e+00 -9.6783881208446338e+00 -9.5533833666545505e+00 
-9.4299931569914115e+00 -9.3081966386161010e+00 -9.1879732276271220e+00 -9.0693026059818784e+00 
-8.9521647180628641e+00 -8.8365397672882207e+00 -8.7224082127660658e+00 -8.6097507659920449e+00 
-8.4985483875895174e+00 -8.3887822840918602e+00 -8.2804339047663262e+00 -8.1734849384789321e+00 
-8.0679173105998121e+00 -7.9637131799486216e+00 -7.8608549357792503e+00 -7.7593251948036190e+00 
-7.6591067982538554e+00 -7.5601828089824128e+00 -7.4625365085996540e+00 -7.3661513946484058e+00 
-7.2710111778150086e+00 -7.1770997791763715e+00 -7.0844013274826061e+00 -6.9929001564747457e+00 
-6.9025808022371082e+00 -6.8134280005838601e+00 -6.7254266844793271e+00 -6.6385619814916375e+00 
-6.5528192112792398e+00 -6.4681838831098935e+00 -6.3846416934116830e+00 -6.3021785233557361e+00 
-6.2207804364700303e+00 -6.1404336762841476e+00 -6.0611246640043825e+00 -5.9828399962188987e+00 
-5.9055664426325132e+00 -5.8292909438307507e+00 -5.7540006090727731e+00 -5.6796827141128068e+00 
-5.6063246990497202e+00 -5.5339141662043669e+00 -5.4624388780243542e+00 -5.3918867550158609e+00 
-5.3222458737021761e+00 -5.2535044646086080e+00 -5.1856509102734067e+00 -5.1186737432843943e+00 
-5.0525616443409245e+00 -4.9873034403409449e+00 -4.9228881024926459e+00 -4.8593047444506192e+00 
-4.7965426204760195e+00 -4.7345911236205156e+00 -4.6734397839336879e+00 -4.6130782666935852e+00 
-4.5534963706601248e+00 -4.4946840263510701e+00 -4.4366312943402493e+00 -4.3793283635777849e+00 
-4.3227655497319892e+00 -4.2669332935526985e+00 -4.2118221592557328e+00 -4.1574228329282246e+00 
-4.1037261209545512e+00 -4.0507229484625835e+00 -3.9984043577900112e+00 -3.9467615069705024e+00 
-3.8957856682393461e+00 -3.8454682265584679e+00 -3.7958006781604650e+00 -3.7467746291114441e+00 
-3.6983817938924290e+00 -3.6506139939990883e+00 -3.6034631565595472e+00 -3.5569213129700565e+00 
-3.5109805975482740e+00 -3.4656332462039505e+00 -3.4208715951267781e+00 -3.3766880794911884e+00 
-3.3330752321778756e+00 -3.2900256825118430e+00 -3.2475321550167342e+00 -3.2055874681852639e+00 
-3.1641845332655194e+00 -3.1233163530629682e+00 -3.0829760207578794e+00 -3.0431567187380795e+00 
-3.0038517174467545e+00 -2.9650543742451352e+00 -2.9267581322898795e+00 -2.8889565194249487e+00 
-2.8516431470877959e+00 -2.8148117092296885e+00 -2.7784559812499645e+00 -2.7425698189440659e+00 
-2.7071471574651498e+00 -2.6721820102991178e+00 -2.6376684682528784e+00 -2.6036006984556797e+00 
-2.5699729433733416e+00 -2.5367795198352132e+00 -2.5040148180737218e+00 -2.4716733007762830e+00 
-2.4397495021494966e+00 -2.4082380269954133e+00 -2.3771335497997312e+00 -2.3464308138317742e+00 
-2.3161246302560863e+00 -2.2862098772555126e+00 -2.2566814991655959e+00 -2.2275345056201585e+00 
-2.1987639707079181e+00 -2.1703650321399985e+00 -2.1423328904281891e+00 -2.1146628080738217e+00 
-2.0873501087671209e+00 -2.0603901765968975e+00 -2.0337784552704461e+00 -2.0075104473435217e+00 
-1.9815817134602709e+00 -1.9559878716029508e+00 -1.9307245963513722e+00 -1.9057876181518885e+00 
-1.8811727225958310e+00 -1.8568757497072654e+00 -1.8328925932399442e+00 -1.8092191999833425e+00 
-1.7858515690776546e+00 -1.7627857513376404e+00 -1.7400178485852023e+00 -1.7175440129905863e+00 
-1.6953604464220866e+00 -1.6734633998041542e+00 -1.6518491724837936e+00 -1.6305141116051434e+00 
-1.6094546114921355e+00 -1.5886671130391252e+00 -1.5681481031094024e+00 -1.5478941139414493e+00 
-1.5279017225628901e+00 -1.5081675502119982e+00 -1.4886882617666763e+00 -1.4694605651808152e+00 
-1.4504812109279281e+00 -1.4317469914519734e+00 -1.4132547406252705e+00 -1.3950013332134161e+00 
-1.3769836843471130e+00 -1.3591987490008188e+00 -1.3416435214781302e+00 -1.3243150349038129e+00 
-1.3072103607223924e+00 -1.2903266082032210e+00 -1.2736609239519379e+00 -1.2572104914282369e+00 
-1.2409725304698720e+00 -1.2249442968227913e+00 -1.2091230816773595e+00 -1.1935062112105610e+00 
-1.1780910461341172e+00 -1.1628749812484409e+00 -1.1478554450023506e+00 -1.1330298990584726e+00 
-1.1183958378642562e+00 -1.1039507882285295e+00 -1.0896923089035226e+00 -1.0756179901722938e+00 
-1.0617254534414788e+00 -1.0480123508393049e+00 -1.0344763648187938e+00 -1.0211152077660905e+00 
-1.0079266216138527e+00 -9.9490837745962890e-01 -9.8205827518917577e-01 -9.6937414310462311e-01 
-9.5685383755745945e-01 -9.4449524258624773e-01 -9.3229626955902312e-01 -9.2025485682030916e-01 
-9.0836896934269373e-01 -8.9663659838290299e-01 -8.8505576114232087e-01 -8.7362450043189011e-01 
-8.6234088434134315e-01 -8.5120300591270481e-01 -8.4020898281801093e-01 -8.2935695704119206e-01 
-8.1864509456406298e-01 -8.0807158505636978e-01 -7.9763464156983954e-01 -7.8733250023618084e-01 
-7.7716341996899097e-01 -7.6712568216950017e-01 -7.5721759043612913e-01 -7.4743747027779295e-01 
-7.3778366883090729e-01 -7.2825455458005051e-01 -7.1884851708223385e-01 -7.0956396669473343e-01 
-7.0039933430643520e-01 -6.9135307107265287e-01 -6.8242364815336909e-01 -6.7360955645485743e-01 
-6.6490930637464252e-01 -6.5632142754975353e-01 -6.4784446860822886e-01 -6.3947699692383142e-01 
-6.3121759837393143e-01 -6.2306487710051428e-01 -6.1501745527428309e-01 -6.0707397286179410e-01 
-5.9923308739561365e-01 -5.9149347374743566e-01 -5.8385382390413287e-01 -5.7631284674669836e-01 
-5.6886926783204428e-01 -5.6152182917761784e-01 -5.5426928904879869e-01 -5.4711042174904323e-01 
-5.4004401741273922e-01 -5.3306888180073475e-01 -5.2618383609851027e-01 -5.1938771671695483e-01 
-5.1267937509571759e-01 -5.0605767750909791e-01 -4.9952150487444374e-01 -4.9306975256302182e-01 
-4.8670133021333767e-01 -4.8041516154685576e-01 -4.7421018418610988e-01 -4.6808534947515762e-01 
-4.6203962230235501e-01 -4.5607198092542051e-01 -4.5018141679875784e-01 -4.4436693440300951e-01 
-4.3862755107681156e-01 -4.3296229685072157e-01 -4.2737021428329153e-01 -4.2185035829925782e-01 
-4.1640179602982136e-01 -4.1102360665499049e-01 -4.0571488124796024e-01 -4.0047472262150152e-01 
-3.9530224517633450e-01 -3.9019657475145914e-01 -3.8515684847642306e-01 -3.8018221462549012e-01 
-3.7527183247369927e-01 -3.7042487215477971e-01 -3.6564051452090135e-01 -3.6091795100423685e-01 
-3.5625638348031174e-01 -3.5165502413311944e-01 -3.4711309532197854e-01 -3.4262982945010989e-01 
-3.3820446883491034e-01 
</PP_LOCAL>


<PP_NONLOCAL>
  <PP_BETA>
  1  1      Beta    L
  1189  
 -6.9103150716945402e-09  -7.0923393258875608e-09  -7.2791582716337800e-09  -7.4708982056590488e-09 
 -7.6676887514650051e-09  -7.8696629469593101e-09  -8.0769573343945352e-09  -8.2897120526758583e-09 
 -8.5080709321002577e-09  -8.7321815915914113e-09  -8.9621955384956098e-09  -9.1982682710065968e-09 
 -9.4405593832881923e-09  -9.6892326733661488e-09  -9.9444562538617856e-09  -1.0206402665642601e-08 
 -1.0475248994466451e-08  -1.0751176990698303e-08  -1.1034373192180416e-08  -1.1325029050339069e-08 
 -1.1623341059613048e-08  -1.1929510890291306e-08  -1.2243745524849987e-08  -1.2566257397880235e-08 
 -1.2897264539702290e-08  -1.3236990723762262e-08  -1.3585665617911471e-08  -1.3943524939670867e-08 
 -1.4310810615584884e-08  -1.4687770944773108e-08  -1.5074660766790146e-08  -1.5471741633906644e-08 
 -1.5879281987928755e-08  -1.6297557341675197e-08  -1.6726850465234190e-08  -1.7167451577127112e-08 
 -1.7619658540507180e-08  -1.8083777064526417e-08  -1.8560120911006653e-08  -1.9049012106554681e-08 
 -1.9550781160264547e-08  -2.0065767287154076e-08  -2.0594318637487671e-08  -2.1136792532138965e-08 
 -2.1693555704153427e-08  -2.2264984546674028e-08  -2.2851465367397414e-08  -2.3453394649732774e-08 
 -2.4071179320839644e-08  -2.4705237026726571e-08  -2.5355996414595636e-08  -2.6023897422624348e-08 
 -2.6709391577380985e-08  -2.7412942299073738e-08  -2.8135025214840475e-08  -2.8876128480291138e-08 
 -2.9636753109519620e-08  -3.0417413313808458e-08  -3.1218636849255614e-08  -3.2040965373557618e-08 
 -3.2884954812191251e-08  -3.3751175734240394e-08  -3.4640213738122883e-08  -3.5552669847477194e-08 
 -3.6489160917477959e-08  -3.7450320051853501e-08  -3.8436797030888651e-08  -3.9449258750700943e-08 
 -4.0488389674088361e-08  -4.1554892293252331e-08  -4.2649487604709659e-08  -4.3772915596714112e-08 
 -4.4925935749516682e-08  -4.6109327548804083e-08  -4.7323891012660405e-08  -4.8570447232411326e-08 
 -4.9849838927712426e-08  -5.1162931016260962e-08  -5.2510611198513604e-08  -5.3893790557806075e-08 
 -5.5313404176280821e-08  -5.6770411767038885e-08  -5.8265798322942934e-08  -5.9800574782510713e-08 
 -6.1375778713348816e-08  -6.2992475013588369e-08  -6.4651756631797803e-08  -6.6354745305857935e-08 
 -6.8102592321301210e-08  -6.9896479289624966e-08  -7.1737618947106351e-08  -7.3627255974660206e-08 
 -7.5566667839291120e-08  -7.7557165657711158e-08  -7.9600095082705871e-08  -8.1696837212847493e-08 
 -8.3848809526172480e-08  -8.6057466838451402e-08  -8.8324302286701106e-08  -9.0650848338604200e-08 
 -9.3038677828516698e-08  -9.5489405020766193e-08  -9.8004686700956976e-08  -1.0058622329602310e-07 
 -1.0323576002378281e-07  -1.0595508807277511e-07  -1.0874604581317225e-07  -1.1161052003959267e-07 
 -1.1455044724664550e-07  -1.1756781493808028e-07  -1.2066466297041478e-07  -1.2384308493196128e-07 
 -1.2710522955817331e-07  -1.3045330218427588e-07  -1.3388956623616070e-07  -1.3741634476055043e-07 
 -1.4103602199547072e-07  -1.4475104498208983e-07  -1.4856392521901662e-07  -1.5247724036017177e-07 
 -1.5649363595738606e-07  -1.6061582724889854e-07  -1.6484660099496579e-07  -1.6918881736182279e-07 
 -1.7364541185527132e-07  -1.7821939730519833e-07  -1.8291386590236975e-07  -1.8773199128887672e-07 
 -1.9267703070364409e-07  -1.9775232718445657e-07  -2.0296131182798694e-07  -2.0830750610935494e-07 
 -2.1379452426278764e-07  -2.1942607572498977e-07  -2.2520596764287138e-07  -2.3113810744733481e-07 
 -2.3722650549485869e-07  -2.4347527777865926e-07  -2.4988864871127431e-07  -2.5647095398043495e-07 
 -2.6322664348017277e-07  -2.7016028431912718e-07  -2.7727656390810088e-07  -2.8458029312894375e-07 
 -2.9207640958690627e-07  -2.9976998094866644e-07  -3.0766620836828337e-07  -3.1577043000339274e-07 
 -3.2408812462402517e-07  -3.3262491531648297e-07  -3.4138657328478288e-07  -3.5037902175223232e-07 
 -3.5960833996577864e-07  -3.6908076730583389e-07  -3.7880270750436461e-07  -3.8878073297408389e-07 
 -3.9902158925168020e-07  -4.0953219955809293e-07  -4.2031966947890259e-07  -4.3139129176801290e-07 
 -4.4275455127786551e-07  -4.5441713001952473e-07  -4.6638691235605009e-07  -4.7867199033266701e-07 
 -4.9128066914734353e-07  -5.0422147276546541e-07  -5.1750314968241443e-07  -5.3113467883793390e-07 
 -5.4512527568628989e-07  -5.5948439842632603e-07  -5.7422175439563032e-07  -5.8934730663312609e-07 
 -6.0487128061453514e-07  -6.2080417116525744e-07  -6.3715674955535327e-07  -6.5394007078140577e-07 
 -6.7116548104020597e-07  -6.8884462539930315e-07  -7.0698945566960044e-07  -7.2561223848533857e-07 
 -7.4472556359690795e-07  -7.6434235238210422e-07  -7.8447586658159324e-07  -8.0513971726446486e-07 
 -8.2634787402996152e-07  -8.4811467445160234e-07  -8.7045483377005430e-07  -8.9338345484135667e-07 
 -9.1691603834717150e-07  -9.4106849327400556e-07  -9.6585714766845937e-07  -9.9129875967579781e-07 
 -1.0174105288692748e-06  -1.0442101078779145e-06  -1.0717156143205636e-06  -1.0999456430543187e-06 
 -1.1289192787455933e-06  -1.1586561087723317e-06  -1.1891762364660771e-06  -1.2205002947028732e-06 
 -1.2526494598521565e-06  -1.2856454660930974e-06  -1.3195106201080630e-06  -1.3542678161631047e-06 
 -1.3899405515857360e-06  -1.4265529426503731e-06  -1.4641297408822735e-06  -1.5026963497909120e-06 
 -1.5422788420441623e-06  -1.5829039770948900e-06  -1.6245992192718354e-06  -1.6673927563470691e-06 
 -1.7113135185925401e-06  -1.7563911983386123e-06  -1.8026562700478102e-06  -1.8501400109173606e-06 
 -1.8988745220244310e-06  -1.9488927500283788e-06  -2.0002285094447206e-06  -2.0529165055057701e-06 
 -2.1069923576235840e-06  -2.1624926234708517e-06  -2.2194548236962554e-06  -2.2779174672907972e-06 
 -2.3379200776223807e-06  -2.3995032191562111e-06  -2.4627085248790751e-06  -2.5275787244460298e-06 
 -2.5941576730685984e-06  -2.6624903811639221e-06  -2.7326230447849908e-06  -2.8046030768524912e-06 
 -2.8784791392094207e-06  -2.9543011755200943e-06  -3.0321204450359164e-06  -3.1119895572505868e-06 
 -3.1939625074683435e-06  -3.2780947133092282e-06  -3.3644430521760548e-06  -3.4530658997085055e-06 
 -3.5440231692503249e-06  -3.6373763523563229e-06  -3.7331885603666603e-06  -3.8315245670764874e-06 
 -3.9324508525299420e-06  -4.0360356479680157e-06  -4.1423489819609231e-06  -4.2514627277560267e-06 
 -4.3634506518736387e-06  -4.4783884639834336e-06  -4.5963538680954095e-06  -4.7174266151001265e-06 
 -4.8416885566937633e-06  -4.9692237007246992e-06  -5.1001182679990923e-06  -5.2344607505840179e-06 
 -5.3723419716477813e-06  -5.5138551468779314e-06  -5.6590959475186590e-06  -5.8081625650703005e-06 
 -5.9611557776948133e-06  -6.1181790183720694e-06  -6.2793384448530997e-06  -6.4447430114573958e-06 
 -6.6145045427627020e-06  -6.7887378092366078e-06  -6.9675606048607784e-06  -7.1510938267994486e-06 
 -7.3394615571652688e-06  -7.5327911469366854e-06  -7.7312133020824239e-06  -7.9348621719496028e-06 
 -8.1438754399740646e-06  -8.3583944167724428e-06  -8.5785641356773658e-06  -8.8045334507792645e-06 
 -9.0364551375398996e-06  -9.2744859960450921e-06  -9.5187869569671879e-06  -9.7695231903085384e-06 
 -1.0026864217001637e-05  -1.0290984023442985e-05  -1.0562061179040785e-05  -1.0840278956858900e-05 
 -1.1125825457441332e-05  -1.1418893735903808e-05  -1.1719681932381249e-05  -1.2028393405921633e-05 
 -1.2345236871918560e-05  -1.2670426543177382e-05  -1.3004182274720422e-05  -1.3346729712546002e-05 
 -1.3698300446680401e-05  -1.4059132167896885e-05  -1.4429468828447158e-05  -1.4809560807018957e-05 
 -1.5199665078040624e-05  -1.5600045385446272e-05  -1.6010972421020352e-05  -1.6432724007441135e-05 
 -1.6865585286148040e-05  -1.7309848910159148e-05  -1.7765815241970313e-05  -1.8233792556668687e-05 
 -1.8714097250399422e-05  -1.9207054054325731e-05  -1.9712996254227512e-05  -2.0232265915887334e-05 
 -2.0765214116415992e-05  -2.1312201181674678e-05  -2.1873596929954209e-05  -2.2449780922076456e-05 
 -2.3041142718087197e-05  -2.3648082140714340e-05  -2.4271009545769955e-05  -2.4910346099678875e-05 
 -2.5566524064322197e-05  -2.6239987089388600e-05  -2.6931190512431050e-05  -2.7640601666832478e-05 
 -2.8368700197888850e-05  -2.9115978387224117e-05  -2.9882941485756075e-05  -3.0670108055439064e-05 
 -3.1478010320015329e-05  -3.2307194525012073e-05  -3.3158221307228534e-05  -3.4031666073963081e-05 
 -3.4928119392237587e-05  -3.5848187388282489e-05  -3.6792492157553856e-05  -3.7761672185559235e-05 
 -3.8756382779778746e-05  -3.9777296512972970e-05  -4.0825103678179265e-05  -4.1900512755703940e-05 
 -4.3004250892427287e-05  -4.4137064393746650e-05  -4.5299719228490222e-05  -4.6493001547145296e-05 
 -4.7717718213750873e-05  -4.8974697351816045e-05  -5.0264788904635566e-05  -5.1588865210379282e-05 
 -5.2947821592349838e-05  -5.4342576964805768e-05  -5.5774074454762361e-05  -5.7243282040192058e-05 
 -5.8751193205058432e-05  -6.0298827611624310e-05  -6.1887231790497344e-05  -6.3517479848874077e-05 
 -6.5190674197468284e-05  -6.6907946296614732e-05  -6.8670457422056482e-05  -7.0479399450933919e-05 
 -7.2335995668511565e-05  -7.4241501596188355e-05  -7.6197205841356535e-05  -7.8204430969683049e-05 
 -8.0264534400410455e-05  -8.2378909325282068e-05  -8.4548985651717923e-05  -8.6776230970882391e-05 
 -8.9062151551302224e-05  -9.1408293358707907e-05  -9.3816243102796897e-05  -9.6287629311625917e-05 
 -9.8824123434365933e-05  -1.0142744097317004e-04  -1.0409934264492329e-04  -1.0684163557366664e-04 
 -1.0965617451450629e-04  -1.1254486310984062e-04  -1.1550965517876380e-04  -1.1855255604051998e-04 
 -1.2167562387291233e-04  -1.2488097110659323e-04  -1.2817076585618298e-04  -1.3154723338919746e-04 
 -1.3501265763378068e-04  -1.3856938272627551e-04  -1.4221981459968541e-04  -1.4596642261411298e-04 
 -1.4981174123028539e-04  -1.5375837172731409e-04  -1.5780898396585625e-04  -1.6196631819788610e-04 
 -1.6623318692431064e-04  -1.7061247680170245e-04  -1.7510715059944730e-04  -1.7972024920865165e-04 
 -1.8445489370417888e-04  -1.8931428746122802e-04  -1.9430171832790385e-04  -1.9942056085526299e-04 
 -2.0467427858636810e-04  -2.1006642640591217e-04  -2.1560065295202942e-04  -2.2128070309194423e-04 
 -2.2711042046315226e-04  -2.3309375008188387e-04  -2.3923474102063665e-04  -2.4553754915661302e-04 
 -2.5200643999295693e-04  -2.5864579155472384e-04  -2.6546009736157667e-04  -2.7245396947924924e-04 
 -2.7963214165188584e-04  -2.8699947251739980e-04  -2.9456094890807654e-04  -3.0232168923869203e-04 
 -3.1028694698447896e-04  -3.1846211425134519e-04  -3.2685272544080365e-04  -3.3546446101214794e-04 
 -3.4430315134446697e-04  -3.5337478070117715e-04  -3.6268549129980218e-04  -3.7224158748982853e-04 
 -3.8204954004152097e-04  -3.9211599054867293e-04  -4.0244775594834315e-04  -4.1305183316071755e-04 
 -4.2393540385230729e-04  -4.3510583932580279e-04  -4.4657070553997971e-04  -4.5833776826314203e-04 
 -4.7041499836369618e-04  -4.8281057724154099e-04  -4.9553290240406025e-04  -5.0859059319059827e-04 
 -5.2199249664943619e-04  -5.3574769357134819e-04  -5.4986550468398814e-04  -5.6435549701141011e-04 
 -5.7922749040320923e-04  -5.9449156423783424e-04  -6.1015806430479410e-04  -6.2623760987058662e-04 
 -6.4274110093331884e-04  -6.5967972567111753e-04  -6.7706496808959927e-04  -6.9490861587375721e-04 
 -7.1322276844985682e-04  -7.3201984526298318e-04  -7.5131259427614031e-04  -7.7111410069690669e-04 
 -7.9143779593782973e-04  -8.1229746681692151e-04  -8.3370726500481664e-04  -8.5568171672527793e-04 
 -8.7823573271600083e-04  -9.0138461845679541e-04  -9.2514408467246514e-04  -9.4953025811789465e-04 
 -9.7455969265307233e-04  -1.0002493806159968e-03  -1.0266167645016128e-03  -1.0536797489552289e-03 
 -1.0814567130889871e-03  -1.1099665231303498e-03  -1.1392285454116804e-03  -1.1692626597103561e-03 
 -1.2000892729490669e-03  -1.2317293332662685e-03  -1.2642043444670036e-03  -1.2975363808646269e-03 
 -1.3317481025242879e-03  -1.3668627709192841e-03  -1.4029042650117792e-03  -1.4398970977696803e-03 
 -1.4778664331318284e-03  -1.5168381034339729e-03  -1.5568386273084411e-03  -1.5978952280707058e-03 
 -1.6400358526064676e-03  -1.6832891907733588e-03  -1.7276846953315893e-03  -1.7732526024185204e-03 
 -1.8200239525823839e-03  -1.8680306123909647e-03  -1.9173052966314390e-03  -1.9678815911180966e-03 
 -2.0197939761251397e-03  -2.0730778504623160e-03  -2.1277695562115641e-03  -2.1839064041435955e-03 
 -2.2415266998336123e-03  -2.3006697704962904e-03  -2.3613759925604316e-03  -2.4236868200045365e-03 
 -2.4876448134751217e-03  -2.5532936702102097e-03  -2.6206782547911985e-03  -2.6898446307469714e-03 
 -2.7608400930348724e-03  -2.8337132014238675e-03  -2.9085138148060661e-03  -2.9852931264635449e-03 
 -3.0641037003182607e-03  -3.1449995081936455e-03  -3.2280359681175035e-03  -3.3132699836966009e-03 
 -3.4007599845943003e-03  -3.4905659681437389e-03  -3.5827495421299053e-03  -3.6773739687749338e-03 
 -3.7745042099623840e-03  -3.8742069737369260e-03  -3.9765507621173568e-03  -4.0816059202619607e-03 
 -4.1894446870263747e-03  -4.3001412469555736e-03  -4.4137717837527167e-03  -4.5304145352691744e-03 
 -4.6501498500612628e-03  -4.7730602455608364e-03  -4.8992304679082678e-03  -5.0287475534980470e-03 
 -5.1617008922886986e-03  -5.2981822929304874e-03  -5.4382860497660208e-03  -5.5821090117607990e-03 
 -5.7297506534223748e-03  -5.8813131477687894e-03  -6.0369014414091236e-03  -6.1966233318005541e-03 
 -6.3605895467489888e-03  -6.5289138262218738e-03  -6.7017130065447897e-03  -6.8791071070548587e-03 
 -7.0612194192871871e-03  -7.2481765987725067e-03  -7.4401087595268667e-03  -7.6371495713170494e-03 
 -7.8394363597876701e-03  -8.0471102095391496e-03  -8.2603160702482848e-03  -8.4792028659262959e-03 
 -8.7039236074122183e-03  -8.9346355082027418e-03  -9.1715001037225297e-03  -9.4146833741428158e-03 
 -9.6643558708592887e-03  -9.9206928467435781e-03  -1.0183874390286719e-02  -1.0454085563756457e-02 
 -1.0731516545493744e-02  -1.1016362776478628e-02  -1.1308825111298413e-02  -1.1609109973656384e-02 
 -1.1917429516562651e-02  -1.2234001787353446e-02  -1.2559050897689352e-02  -1.2892807198687741e-02 
 -1.3235507461348531e-02  -1.3587395062438046e-02  -1.3948720175999508e-02  -1.4319739970664153e-02 
 -1.4700718812941100e-02  -1.5091928476669930e-02  -1.5493648358823756e-02  -1.5906165701856479e-02 
 -1.6329775822792356e-02  -1.6764782349260775e-02  -1.7211497462684997e-02  -1.7670242148837473e-02 
 -1.8141346455979791e-02  -1.8625149760809770e-02  -1.9122001042443642e-02  -1.9632259164664191e-02 
 -2.0156293166672033e-02  -2.0694482562579965e-02  -2.1247217649894207e-02  -2.1814899827231209e-02 
 -2.2397941921520035e-02  -2.2996768524945206e-02  -2.3611816341884962e-02  -2.4243534546103968e-02 
 -2.4892385148459019e-02  -2.5558843375377276e-02  -2.6243398058366882e-02  -2.6946552034816846e-02 
 -2.7668822560343392e-02  -2.8410741732934008e-02  -2.9172856929137386e-02  -2.9955731252541026e-02 
 -3.0759943994770046e-02  -3.1586091109232058e-02  -3.2434785697820899e-02  -3.3306658510779727e-02 
 -3.4202358459904950e-02  -3.5122553145258736e-02  -3.6067929395530364e-02  -3.7039193822167929e-02 
 -3.8037073387367101e-02  -3.9062315985978056e-02  -4.0115691041348593e-02  -4.1197990115084286e-02 
 -4.2310027530658170e-02  -4.3452641010750206e-02  -4.4626692328137263e-02  -4.5833067969890763e-02 
 -4.7072679814562444e-02  -4.8346465821961421e-02  -4.9655390735030863e-02  -5.1000446793235808e-02 
 -5.2382654456759124e-02  -5.3803063140683186e-02  -5.5262751958194516e-02  -5.6762830471703267e-02 
 -5.8304439450600695e-02  -5.9888751634197629e-02  -6.1516972498187217e-02  -6.3190341022754684e-02 
 -6.4910130460215029e-02  -6.6677649099799535e-02  -6.8494241026915606e-02  -7.0361286873894258e-02 
 -7.2280204558887964e-02  -7.4252450009205731e-02  -7.6279517864955002e-02  -7.8362942158413246e-02 
 -8.0504296964052605e-02  -8.2705197013610954e-02  -8.4967298270010996e-02  -8.7292298453296682e-02 
 -8.9681937511061544e-02  -9.2137998025090456e-02  -9.4662305545117745e-02  -9.7256728839714798e-02 
 -9.9923180053359983e-02  -1.0266361475769378e-01  -1.0548003188382835e-01  -1.0837447352136050e-01 
 -1.1134902456840093e-01  -1.1440581221549914e-01  -1.1754700524479492e-01  -1.2077481312404378e-01 
 -1.2409148487336154e-01  -1.2749930768057713e-01  -1.3100060523898471e-01  -1.3459773577901837e-01 
 -1.3829308976294269e-01  -1.4208908720903446e-01  -1.4598817460891600e-01  -1.4999282139869602e-01 
 -1.5410551594133540e-01  -1.5832876097419943e-01  -1.6266506847206477e-01  -1.6711695387189371e-01 
 -1.7168692960147847e-01  -1.7637749784957321e-01  -1.8119114251035603e-01  -1.8613032022999063e-01 
 -1.9119745047768835e-01  -1.9639490455798034e-01  -2.0172499347489073e-01  -2.0718995455238329e-01 
 -2.1279193670877045e-01  -2.1853298427579732e-01  -2.2441501924578683e-01  -2.3043982182261008e-01 
 -2.3660900914429003e-01  -2.4292401203686159e-01  -2.4938604965058381e-01  -2.5599610182093480e-01 
 -2.6275487898789712e-01  -2.6966278949802452e-01  -2.7671990410468555e-01  -2.8392591747278684e-01 
 -2.9128010648527641e-01  -2.9878128513997210e-01  -3.0642775581678400e-01  -3.1421725668747119e-01 
 -3.2214690503275140e-01  -3.3021313622519544e-01  -3.3841163813095354e-01  -3.4673728067945830e-01 
 -3.5518404034787998e-01  -3.6374491930688380e-01  -3.7241185897626994e-01  -3.8117564774406787e-01 
 -3.9002582261085678e-01  -3.9895056453317002e-01  -4.0793658725644105e-01  -4.1696901944952919e-01 
 -4.2603127998042584e-01  -4.3510494620685758e-01  -4.4416961519712045e-01  -4.5320275784660929e-01 
 -4.6217956591497017e-01  -4.7107279207894714e-01  -4.7985258317764568e-01  -4.8848630692161732e-01 
 -4.9693837244595324e-01  -5.0517004521175946e-01  -5.1313925690148221e-01  -5.2080041111272091e-01 
 -5.2810418583381591e-01  -5.3499733388402193e-01  -5.4142248272249893e-01  -5.4731793527498518e-01 
 -5.5261747369563363e-01  -5.5725016827498064e-01  -5.6114019402357196e-01  -5.6420665780473200e-01 
 -5.6636343925863419e-01  -5.6751904915255824e-01  -5.6757650920705249e-01  -5.6643325788264443e-01 
 -5.6398108706294492e-01  -5.6010611503371266e-01  -5.5468880162743162e-01  -5.4760401187287167e-01 
 -5.3872113494993212e-01  -5.2790426569231741e-01  -5.1501245629159631e-01  -4.9990004622272649e-01 
 -4.8241707871665190e-01  -4.6240981233250128e-01  -4.3972133630936738e-01  -4.1419229838368821e-01 
 -3.8566175361792060e-01  -3.5396814247296343e-01  -3.1895040584291973e-01  -2.8044924402608157e-01 
 -2.3830852560114740e-01  -1.9237685088139361e-01  -1.4250927300342095e-01  -8.8569177742651273e-02 
 -3.0430320810958290e-02  3.2020981337138182e-02  9.8883514298611697e-02  1.7023869277159900e-01 
 2.4614796646932696e-01  3.2665012384979536e-01  4.1175851731369467e-01  5.0145823853294458e-01 
 5.9570327782404431e-01  6.9441370688478132e-01  7.9747292965987981e-01  9.0472505145594118e-01 
 1.0159724215324568e+00  1.1309734090747823e+00  1.2494404765088354e+00  1.3710386173326061e+00 
 1.4953842277949583e+00  1.6220444826210016e+00  1.7505372843502853e+00  1.8803318535164157e+00 
 2.0108500226830852e+00  2.1414682911258698e+00  2.2715206886260213e+00  2.4003024863884277e+00 
 2.5270747805394169e+00  2.6510699590868834e+00  2.7714980467795134e+00  2.8875539041771301e+00 
 2.9984252376759053e+00  3.1033013564914302e+00  3.2013825909901730e+00  3.2918902646026220e+00 
 3.3740770892162626e+00  3.4472378318431240e+00  3.5107200789698121e+00  3.5639349049056577e+00 
 3.6063672323609040e+00  3.6375856582880997e+00  3.6572515067728033e+00  3.6651268647216555e+00 
 3.6610813566609748e+00  3.6450974235547058e+00  3.6172738884427624e+00  3.5778276197596917e+00 
 3.5270931416434164e+00  3.4655200887894879e+00  3.3936684599778473e+00  3.3122016870631681e+00 
 3.2218776022116784e+00  3.1235374524841388e+00  3.0180931745349753e+00  2.9065132004765202e+00 
 2.7898071164330855e+00  2.6690095359585935e+00  2.5451635797000369e+00  2.4193043692942657e+00 
 2.2924429468112799e+00  2.1655510209477908e+00  2.0395469179805903e+00  1.9152830799949514e+00 
 1.7935354061752899e+00  1.6749946761931449e+00  1.5602602292125396e+00  1.4498359992015926e+00 
 1.3441289290347151e+00  1.2434497051513345e+00  1.1480156752860717e+00  1.0579557388510707e+00 
 9.7331693787805840e-01  8.9407243127297487e-01  8.2013051101340073e-01  7.5134426142162258e-01 
 6.8752157332376285e-01  6.2843515842990250e-01  5.7383222026563208e-01  5.2344355411507315e-01 
 4.7699184817392254e-01  4.3419901395970451e-01  3.9479242631064027e-01  3.5851000471301353e-01 
 3.2510411736897954e-01  2.9434433549909916e-01  2.6601910617305630e-01  2.3993644606940340e-01 
 2.1592378494377848e-01  1.9382710564504213e-01  1.7350953713231151e-01  1.5484955843905232e-01 
 1.3773896563592639e-01  1.2208074162247166e-01  1.0778695133365986e-01  9.4776764126181051e-02 
 8.2974682200939412e-02  7.2309030360855106e-02  6.2710739509529365e-02  5.4112435182065481e-02 
 4.6447823944680541e-02  3.9651355321806393e-02  3.3658125357522800e-02  2.8403980087192738e-02 
 2.3825772953027437e-02  1.9861729223038596e-02  1.6451872302033783e-02  1.3538470900430021e-02 
 1.1066471746676534e-02  8.9838892899338982e-03  7.2421310718867845e-03  5.7962446469414768e-03 
 4.6050787106246176e-03  3.6313570381879090e-03  2.8416689402683245e-03  2.2063838091990174e-03 
 1.6995001662928832e-03  1.2984413464877066e-03  9.8381071035818471e-04  7.3911919180165203e-04 
 5.5049723687358850e-04  4.0640193958737224e-04  2.9732860257482177e-04  2.1553419945712887e-04 
 1.5477842586392114e-04  1.1008630493715742e-04  7.7534743056516118e-05  5.4064066564372804e-05 
 3.7314441723939878e-05  2.5486197027036040e-05  1.7222422543630380e-05  1.1511795005482126e-05 
 7.6093416188056233e-06  4.9727774722467725e-06  3.2120961179641538e-06  2.0502279440328662e-06 
 1.2927758355366085e-06  8.0506663968309166e-07  4.9499938579946317e-07  3.0041038508799295e-07 
 1.7990049197893694e-07  1.0627298595889394e-07  6.1908287634283665e-08  3.5552360013671676e-08 
 2.0120382430530575e-08  1.1217664995672981e-08  6.1590420196766094e-09  3.3289725278269918e-09 
 1.7706422692067046e-09  9.2641918354780842e-10  4.7661620128412675e-10  2.4101152182854729e-10 
 1.1973798627132877e-10  5.8420461080629874e-11  2.7979806274690481e-11  1.3148833581113486e-11 
 6.0595973329699795e-12  2.7374654610521595e-12  1.2119684708371359e-12  5.2523852104408288e-13 
 2.2286254746948937e-13  9.2565990129671750e-14  3.7532929224711347e-14  1.4854682962610919e-14 
 5.8270109030222553e-15  2.2663591574813306e-15  7.5679680146278554e-16  3.4709404401222762e-16 
 1.5901002338092013e-16  0.0000000000000000e+00  0.0000000000000000e+00  0.0000000000000000e+00 
 0.0000000000000000e+00  0.0000000000000000e+00  0.0000000000000000e+00  0.0000000000000000e+00 
 0.0000000000000000e+00  0.0000000000000000e+00  0.0000000000000000e+00  0.0000000000000000e+00 
 0.0000000000000000e+00  0.0000000000000000e+00  0.0000000000000000e+00  0.0000000000000000e+00 
 0.0000000000000000e+00  0.0000000000000000e+00  0.0000000000000000e+00  0.0000000000000000e+00 
 0.0000000000000000e+00  0.0000000000000000e+00  0.0000000000000000e+00  0.0000000000000000e+00 
 0.0000000000000000e+00  0.0000000000000000e+00  0.0000000000000000e+00  0.0000000000000000e+00 
 0.0000000000000000e+00  0.0000000000000000e+00  0.0000000000000000e+00  0.0000000000000000e+00 
 0.0000000000000000e+00  0.0000000000000000e+00  0.0000000000000000e+00  0.0000000000000000e+00 
 0.0000000000000000e+00  0.0000000000000000e+00  0.0000000000000000e+00  0.0000000000000000e+00 
 0.0000000000000000e+00  0.0000000000000000e+00  0.0000000000000000e+00  0.0000000000000000e+00 
 0.0000000000000000e+00  0.0000000000000000e+00  0.0000000000000000e+00  0.0000000000000000e+00 
 0.0000000000000000e+00  0.0000000000000000e+00  0.0000000000000000e+00  0.0000000000000000e+00 
 0.0000000000000000e+00  0.0000000000000000e+00  0.0000000000000000e+00  0.0000000000000000e+00 
 0.0000000000000000e+00  0.0000000000000000e+00  0.0000000000000000e+00  0.0000000000000000e+00 
 0.0000000000000000e+00  0.0000000000000000e+00  0.0000000000000000e+00  0.0000000000000000e+00 
 0.0000000000000000e+00  0.0000000000000000e+00  0.0000000000000000e+00  0.0000000000000000e+00 
 0.0000000000000000e+00  0.0000000000000000e+00  0.0000000000000000e+00  0.0000000000000000e+00 
 0.0000000000000000e+00  0.0000000000000000e+00  0.0000000000000000e+00  0.0000000000000000e+00 
 0.0000000000000000e+00  0.0000000000000000e+00  0.0000000000000000e+00  0.0000000000000000e+00 
 0.0000000000000000e+00  0.0000000000000000e+00  0.0000000000000000e+00  0.0000000000000000e+00 
 0.0000000000000000e+00  0.0000000000000000e+00  0.0000000000000000e+00  0.0000000000000000e+00 
 0.0000000000000000e+00  0.0000000000000000e+00  0.0000000000000000e+00  0.0000000000000000e+00 
 0.0000000000000000e+00  0.0000000000000000e+00  0.0000000000000000e+00  0.0000000000000000e+00 
 0.0000000000000000e+00  0.0000000000000000e+00  0.0000000000000000e+00  0.0000000000000000e+00 
 0.0000000000000000e+00  0.0000000000000000e+00  0.0000000000000000e+00  0.0000000000000000e+00 
 0.0000000000000000e+00  0.0000000000000000e+00  0.0000000000000000e+00  0.0000000000000000e+00 
 0.0000000000000000e+00  0.0000000000000000e+00  0.0000000000000000e+00  0.0000000000000000e+00 
 0.0000000000000000e+00  0.0000000000000000e+00  0.0000000000000000e+00  0.0000000000000000e+00 
 0.0000000000000000e+00  0.0000000000000000e+00  0.0000000000000000e+00  0.0000000000000000e+00 
 0.0000000000000000e+00  0.0000000000000000e+00  0.0000000000000000e+00  0.0000000000000000e+00 
 0.0000000000000000e+00  0.0000000000000000e+00  0.0000000000000000e+00  0.0000000000000000e+00 
 0.0000000000000000e+00  0.0000000000000000e+00  0.0000000000000000e+00  0.0000000000000000e+00 
 0.0000000000000000e+00  0.0000000000000000e+00  0.0000000000000000e+00  0.0000000000000000e+00 
 0.0000000000000000e+00  0.0000000000000000e+00  0.0000000000000000e+00  0.0000000000000000e+00 
 0.0000000000000000e+00  0.0000000000000000e+00  0.0000000000000000e+00  0.0000000000000000e+00 
 0.0000000000000000e+00  0.0000000000000000e+00  0.0000000000000000e+00  0.0000000000000000e+00 
 0.0000000000000000e+00  0.0000000000000000e+00  0.0000000000000000e+00  0.0000000000000000e+00 
 0.0000000000000000e+00  0.0000000000000000e+00  0.0000000000000000e+00  0.0000000000000000e+00 
 0.0000000000000000e+00  0.0000000000000000e+00  0.0000000000000000e+00  0.0000000000000000e+00 
 0.0000000000000000e+00  0.0000000000000000e+00  0.0000000000000000e+00  0.0000000000000000e+00 
 0.0000000000000000e+00  0.0000000000000000e+00  0.0000000000000000e+00  0.0000000000000000e+00 
 0.0000000000000000e+00  0.0000000000000000e+00  0.0000000000000000e+00  0.0000000000000000e+00 
 0.0000000000000000e+00  0.0000000000000000e+00  0.0000000000000000e+00  0.0000000000000000e+00 
 0.0000000000000000e+00  0.0000000000000000e+00  0.0000000000000000e+00  0.0000000000000000e+00 
 0.0000000000000000e+00  0.0000000000000000e+00  0.0000000000000000e+00  0.0000000000000000e+00 
 0.0000000000000000e+00  0.0000000000000000e+00  0.0000000000000000e+00  0.0000000000000000e+00 
 0.0000000000000000e+00  0.0000000000000000e+00  0.0000000000000000e+00  0.0000000000000000e+00 
 0.0000000000000000e+00  0.0000000000000000e+00  0.0000000000000000e+00  0.0000000000000000e+00 
 0.0000000000000000e+00  0.0000000000000000e+00  0.0000000000000000e+00  0.0000000000000000e+00 
 0.0000000000000000e+00  0.0000000000000000e+00  0.0000000000000000e+00  0.0000000000000000e+00 
 0.0000000000000000e+00  0.0000000000000000e+00  0.0000000000000000e+00  0.0000000000000000e+00 
 0.0000000000000000e+00  0.0000000000000000e+00  0.0000000000000000e+00  0.0000000000000000e+00 
 0.0000000000000000e+00  0.0000000000000000e+00  0.0000000000000000e+00  0.0000000000000000e+00 
 0.0000000000000000e+00  0.0000000000000000e+00  0.0000000000000000e+00  0.0000000000000000e+00 
 0.0000000000000000e+00  0.0000000000000000e+00  0.0000000000000000e+00  0.0000000000000000e+00 
 0.0000000000000000e+00  0.0000000000000000e+00  0.0000000000000000e+00  0.0000000000000000e+00 
 0.0000000000000000e+00  0.0000000000000000e+00  0.0000000000000000e+00  0.0000000000000000e+00 
 0.0000000000000000e+00  0.0000000000000000e+00  0.0000000000000000e+00  0.0000000000000000e+00 
 0.0000000000000000e+00  0.0000000000000000e+00  0.0000000000000000e+00  0.0000000000000000e+00 
 0.0000000000000000e+00  0.0000000000000000e+00  0.0000000000000000e+00  0.0000000000000000e+00 
 0.0000000000000000e+00  0.0000000000000000e+00  0.0000000000000000e+00  0.0000000000000000e+00 
 0.0000000000000000e+00  0.0000000000000000e+00  0.0000000000000000e+00  0.0000000000000000e+00 
 0.0000000000000000e+00  0.0000000000000000e+00  0.0000000000000000e+00  0.0000000000000000e+00 
 0.0000000000000000e+00  0.0000000000000000e+00  0.0000000000000000e+00  0.0000000000000000e+00 
 0.0000000000000000e+00  0.0000000000000000e+00  0.0000000000000000e+00  0.0000000000000000e+00 
 0.0000000000000000e+00  0.0000000000000000e+00  0.0000000000000000e+00  0.0000000000000000e+00 
 0.0000000000000000e+00  0.0000000000000000e+00  0.0000000000000000e+00  0.0000000000000000e+00 
 0.0000000000000000e+00  0.0000000000000000e+00  0.0000000000000000e+00  0.0000000000000000e+00 
 0.0000000000000000e+00  0.0000000000000000e+00  0.0000000000000000e+00  0.0000000000000000e+00 
 0.0000000000000000e+00  0.0000000000000000e+00  0.0000000000000000e+00  0.0000000000000000e+00 
 0.0000000000000000e+00  0.0000000000000000e+00  0.0000000000000000e+00  0.0000000000000000e+00 
 0.0000000000000000e+00  0.0000000000000000e+00  0.0000000000000000e+00  0.0000000000000000e+00 
 0.0000000000000000e+00 
  </PP_BETA>
  <PP_BETA>
  2  2      Beta    L
  1189  
 -3.8697281014063331e-12  -4.0236290589531103e-12  -4.1836507319925998e-12  -4.3500365443376215e-12 
 -4.5230396008835996e-12  -4.7029230726298631e-12  -4.8899605970134937e-12  -5.0844366941645766e-12 
 -5.2866471997161376e-12  -5.4968997148271866e-12  -5.7155140741033282e-12  -5.9428228321268552e-12 
 -6.1791717693363259e-12  -6.4249204180252760e-12  -6.6804426092600899e-12  -6.9461270415491185e-12 
 -7.2223778721279810e-12  -7.5096153317606103e-12  -7.8082763639912272e-12  -8.1188152898196568e-12 
 -8.4417044988111093e-12  -8.7774351676917182e-12  -9.1265180075230120e-12  -9.4894840405917903e-12 
 -9.8668854081973881e-12  -1.0259296210564918e-11  -1.0667313380162366e-11  -1.1091557589749857e-11 
 -1.1532674196542499e-11  -1.1991334223923026e-11  -1.2468235382197665e-11  -1.2964103129947916e-11 
 -1.3479691777592742e-11  -1.4015785634840147e-11  -1.4573200203773210e-11  -1.5152783419385881e-11 
 -1.5755416939455449e-11  -1.6382017485713835e-11  -1.7033538238357895e-11  -1.7710970286020147e-11 
 -1.8415344133405405e-11  -1.9147731268886909e-11  -1.9909245794446561e-11  -2.0701046120438563e-11 
 -2.1524336727754594e-11  -2.2380370000071301e-11  -2.3270448128966958e-11  -2.4195925094805678e-11 
 -2.5158208726402190e-11  -2.6158762842600570e-11  -2.7199109479024632e-11  -2.8280831203386978e-11 
 -2.9405573522879362e-11  -3.0575047387305818e-11  -3.1791031791766679e-11  -3.3055376482852672e-11 
 -3.4370004772465519e-11  -3.5736916463545521e-11  -3.7158190892156806e-11  -3.8635990090557634e-11 
 -4.0172562076067737e-11  -4.1770244270735058e-11  -4.3431467057004770e-11  -4.5158757474798423e-11 
 -4.6954743065628188e-11  -4.8822155869592873e-11  -5.0763836581336698e-11  -5.2782738871292263e-11 
 -5.4881933878781858e-11  -5.7064614883810698e-11  -5.9334102164660453e-11  -6.1693848048671043e-11 
 -6.4147442163894429e-11  -6.6698616899609622e-11  -6.9351253084004125e-11  -7.2109385887660334e-11 
 -7.4977210961825571e-11  -7.7959090820804549e-11  -8.1059561478182295e-11  -8.4283339346973083e-11 
 -8.7635328414190812e-11  -9.1120627700756342e-11  -9.4744539018088195e-11  -9.8512575033176558e-11 
 -1.0243046765440946e-10  -1.0650417675090656e-10  -1.1073989921862538e-10  -1.1514407840703030e-10 
 -1.1972341392066546e-10  -1.2448487181053952e-10  -1.2943569517082745e-10  -1.3458341515700806e-10 
 -1.3993586244219717e-10  -1.4550117912910529e-10  -1.5128783113573897e-10  -1.5730462107368699e-10 
 -1.6356070163858241e-10  -1.7006558953310929e-10  -1.7682917994373328e-10  -1.8386176159317936e-10 
 -1.9117403239155233e-10  -1.9877711570991078e-10  -2.0668257730104746e-10  -2.1490244289321749e-10 
 -2.2344921648357700e-10  -2.3233589935915974e-10  -2.4157600987432616e-10  -2.5118360401477323e-10 
 -2.6117329677937932e-10  -2.7156028441242091e-10  -2.8236036751996832e-10  -2.9358997510563547e-10 
 -3.0526618956224010e-10  -3.1740677265739348e-10  -3.3003019255254967e-10  -3.4315565189661378e-10 
 -3.5680311703684444e-10  -3.7099334839148843e-10  -3.8574793203034880e-10  -4.0108931251132317e-10 
 -4.1704082702286910e-10  -4.3362674088432833e-10  -4.5087228445811492e-10  -4.6880369152991570e-10 
 -4.8744823921529183e-10  -5.0683428945337918e-10  -5.2699133215081278e-10  -5.4795003004150429e-10 
 -5.6974226533051045e-10  -5.9240118819295071e-10  -6.1596126720174527e-10  -6.4045834176088506e-10 
 -6.6592967662399780e-10  -6.9241401858113969e-10  -7.1995165540004213e-10  -7.4858447711147880e-10 
 -7.7835603973197883e-10  -8.0931163152081332e-10  -8.4149834187205623e-10  -8.7496513294650528e-10 
 -9.0976291415243975e-10  -9.4594461958850044e-10  -9.8356528856650991e-10  -1.0226821493367195e-09 
 -1.0633547061428357e-09  -1.1056448297392672e-09  -1.1496168515082745e-09  -1.1953376613201969e-09 
 -1.2428768092856214e-09  -1.2923066115542668e-09  -1.3437022603215435e-09  -1.3971419382101052e-09 
 -1.4527069372004064e-09  -1.5104817822911631e-09  -1.5705543600778508e-09  -1.6330160524448072e-09 
 -1.6979618755743226e-09  -1.7654906244841706e-09  -1.8357050233134566e-09  -1.9087118815853775e-09 
 -1.9846222566846194e-09  -2.0635516227965291e-09  -2.1456200465650629e-09  -2.2309523697367126e-09 
 -2.3196783990682393e-09  -2.4119331037871010e-09  -2.5078568209049612e-09  -2.6075954686965725e-09 
 -2.7113007686687833e-09  -2.8191304763573369e-09  -2.9312486213025243e-09  -3.0478257565687476e-09 
 -3.1690392181875500e-09  -3.2950733949187864e-09  -3.4261200087402705e-09  -3.5623784064925731e-09 
 -3.7040558631226303e-09  -3.8513678969874453e-09  -4.0045385976974711e-09  -4.1638009669984693e-09 
 -4.3293972732102921e-09  -4.5015794197618067e-09  -4.6806093283825556e-09  -4.8667593375340276e-09 
 -5.0603126166866565e-09  -5.2615635970727303e-09  -5.4708184195704082e-09  -5.6883954004002261e-09 
 -5.9146255153424336e-09  -6.1498529032117784e-09  -6.3944353893555610e-09  -6.6487450299713645e-09 
 -6.9131686780723465e-09  -7.1881085719611219e-09  -7.4739829471073428e-09  -7.7712266723597698e-09 
 -8.0802919114605665e-09  -8.4016488108681692e-09  -8.7357862149349554e-09  -9.0832124095275896e-09 
 -9.4444558952213360e-09  -9.8200661912442974e-09  -1.0210614671394699e-08  -1.0616695433202633e-08 
 -1.1038926201658459e-08  -1.1477949268882555e-08  -1.1934432471165836e-08  -1.2409070204867157e-08 
 -1.2902584482713086e-08  -1.3415726032106735e-08  -1.3949275437116315e-08  -1.4504044325880651e-08 
 -1.5080876605237832e-08  -1.5680649744454948e-08  -1.6304276110011796e-08  -1.6952704353468898e-08 
 -1.7626920854530917e-08  -1.8327951221500639e-08  -1.9056861851405945e-08  -1.9814761552172744e-08 
 -2.0602803229311876e-08  -2.1422185639684884e-08  -2.2274155215017383e-08  -2.3160007957932879e-08 
 -2.4081091413391708e-08  -2.5038806718533878e-08  -2.6034610734043691e-08  -2.7070018260278345e-08 
 -2.8146604341531625e-08  -2.9266006661937694e-08  -3.0429928036659399e-08  -3.1640139002150748e-08 
 -3.2898480509433588e-08  -3.4206866724485114e-08  -3.5567287939996738e-08  -3.6981813602932541e-08 
 -3.8452595462493608e-08  -3.9981870843276249e-08  -4.1571966048603511e-08  -4.3225299899206846e-08 
 -4.4944387412641123e-08  -4.6731843629030083e-08  -4.8590387588962113e-08  -5.0522846469587647e-08 
 -5.2532159885210553e-08  -5.4621384358915401e-08  -5.6793697972034051e-08  -5.9052405198524457e-08 
 -6.1400941931616843e-08  -6.3842880710374808e-08  -6.6381936154122698e-08  -6.9021970613008694e-08 
 -7.1767000043299500e-08  -7.4621200116346687e-08  -7.7588912570520503e-08  -8.0674651815773981e-08 
 -8.3883111800889216e-08  -8.7219173153852603e-08  -9.0687910606224593e-08  -9.4294600712800476e-08 
 -9.8044729878305720e-08  -1.0194400270333928e-07  -1.0599835066225947e-07  -1.1021394112621197e-07 
 -1.1459718674502293e-07  -1.1915475520222321e-07  -1.2389357935803243e-07  -1.2882086779572086e-07 
 -1.3394411578737366e-07  -1.3927111669571533e-07  -1.4480997382931264e-07  -1.5056911276915387e-07 
 -1.5655729418532035e-07  -1.6278362716320428e-07  -1.6925758305950154e-07  -1.7598900990901623e-07 
 -1.8298814740415208e-07  -1.9026564246984951e-07  -1.9783256545764386e-07  -2.0570042698346230e-07 
 -2.1388119543478180e-07  -2.2238731517380052e-07  -2.3123172546434862e-07  -2.4042788015137307e-07 
 -2.4998976812298244e-07  -2.5993193458623023e-07  -2.7026950318905748e-07  -2.8101819902209453e-07 
 -2.9219437253535601e-07  -3.0381502440625371e-07  -3.1589783139700830e-07  -3.2846117324366103e-07 
 -3.4152416062363140e-07  -3.5510666422678527e-07  -3.6922934497971783e-07  -3.8391368547173015e-07 
 -3.9918202263049557e-07  -4.1505758169710152e-07  -4.3156451155213947e-07  -4.4872792144656323e-07 
 -4.6657391919317428e-07  -4.8512965087681135e-07  -5.0442334214363610e-07  -5.2448434113229624e-07 
 -5.4534316311225831e-07  -5.6703153689718638e-07  -5.8958245310394346e-07  -6.1303021433060544e-07 
 -6.3741048732978620e-07  -6.6276035725660758e-07  -6.8911838407380990e-07  -7.1652466119976090e-07 
 -7.4502087648855313e-07  -7.7465037563490482e-07  -8.0545822810027360e-07  -8.3749129566042958e-07 
 -8.7079830367870460e-07  -9.0542991521329903e-07  -9.4143880807131198e-07  -9.7887975492665520e-07 
 -1.0178097066236609e-06  -1.0582878787930424e-06  -1.1003758419118886e-06  -1.1441376149446205e-06 
 -1.1896397627072706e-06  -1.2369514971031098e-06  -1.2861447823835307e-06  -1.3372944445942045e-06 
 -1.3904782853728965e-06  -1.4457772002719381e-06  -1.5032753017852285e-06  -1.5630600472667691e-06 
 -1.6252223719352058e-06  -1.6898568271665331e-06  -1.7570617242852053e-06  -1.8269392840721736e-06 
 -1.8995957922171544e-06  -1.9751417609513715e-06  -2.0536920971064593e-06  -2.1353662768549582e-06 
 -2.2202885273979875e-06  -2.3085880158762137e-06  -2.4003990457912560e-06  -2.4958612612359822e-06 
 -2.5951198592441353e-06  -2.6983258105819509e-06  -2.8056360893172950e-06  -2.9172139115151836e-06 
 -3.0332289834224122e-06  -3.1538577595183462e-06  -3.2792837108240878e-06  -3.4096976038775744e-06 
 -3.5452977907985594e-06  -3.6862905108841434e-06  -3.8328902041930784e-06  -3.9853198375952359e-06 
 -4.1438112437815898e-06  -4.3086054737496839e-06  -4.4799531633000859e-06  -4.6581149141004522e-06 
 -4.8433616898961222e-06  -5.0359752284689980e-06  -5.2362484699703850e-06  -5.4444860022783977e-06 
 -5.6610045240562654e-06  -5.8861333262147197e-06  -6.1202147925097281e-06  -6.3636049200355707e-06 
 -6.6166738604037452e-06  -6.8798064824293358e-06  -7.1534029571791725e-06  -7.4378793662700302e-06 
 -7.7336683343403885e-06  -8.0412196866557532e-06  -8.3610011328459313e-06  -8.6934989778120088e-06 
 -9.0392188608820535e-06  -9.3986865243374030e-06  -9.7724486124758254e-06  -1.0161073502424270e-05 
 -1.0565152167961714e-05  -1.0985299077663057e-05  -1.1422153128726535e-05  -1.1876378617901560e-05 
 -1.2348666250989801e-05  -1.2839734192450918e-05  -1.3350329156704872e-05  -1.3881227542786103e-05 
 -1.4433236614070304e-05  -1.5007195724862728e-05  -1.5603977595708028e-05  -1.6224489639355180e-05 
 -1.6869675339387654e-05  -1.7540515683608986e-05  -1.8238030654356166e-05  -1.8963280777999763e-05 
 -1.9717368735979072e-05  -2.0501441039813481e-05  -2.1316689772628064e-05  -2.2164354399831899e-05 
 -2.3045723651691962e-05  -2.3962137480654213e-05  -2.4914989096376372e-05  -2.5905727081553930e-05 
 -2.6935857591743383e-05  -2.8006946642512966e-05  -2.9120622487383466e-05  -3.0278578090158026e-05 
 -3.1482573695383023e-05  -3.2734439500829131e-05  -3.4036078436036397e-05  -3.5389469051126677e-05 
 -3.6796668520252432e-05  -3.8259815764224706e-05  -3.9781134697041468e-05  -4.1362937601224953e-05 
 -4.3007628637069832e-05  -4.4717707491106355e-05  -4.6495773169291104e-05  -4.8344527940656575e-05 
 -5.0266781437376771e-05  -5.2265454917440518e-05  -5.4343585696369440e-05  -5.6504331754671192e-05 
 -5.8750976527981801e-05  -6.1086933887126693e-05  -6.3515753315613100e-05  -6.6041125292364361e-05 
 -6.8666886887813348e-05  -7.1397027581792747e-05  -7.4235695311992048e-05  -7.7187202762095693e-05 
 -8.0256033899077500e-05  -8.3446850769496966e-05  -8.6764500565033120e-05  -9.0214022967891397e-05 
 -9.3800657787140149e-05  -9.7529852897464955e-05  -1.0140727249228363e-04  -1.0543880566363175e-04 
 -1.0963057532171572e-04  -1.1398894746753927e-04  -1.1852054083253296e-04  -1.2323223689966262e-04 
 -1.2813119032106397e-04  -1.3322483974783457e-04  -1.3852091908823328e-04  -1.4402746921116926e-04 
 -1.4975285011252615e-04  -1.5570575356255143e-04  -1.6189521625325882e-04  -1.6833063346552600e-04 
 -1.7502177327634525e-04  -1.8197879132748128e-04  -1.8921224617761889e-04  -1.9673311526094989e-04 
 -2.0455281147603867e-04  -2.1268320042973970e-04  -2.2113661836190140e-04  -2.2992589077759962e-04 
 -2.3906435181467623e-04  -2.4856586437544835e-04  -2.5844484105256877e-04  -2.6871626588018723e-04 
 -2.7939571694276947e-04  -2.9049938987519040e-04  -3.0204412228901605e-04  -3.1404741916124626e-04 
 -3.2652747922319543e-04  -3.3950322238864190e-04  -3.5299431826189538e-04  -3.6702121576799839e-04 
 -3.8160517394891227e-04  -3.9676829397122310e-04  -4.1253355239266707e-04  -4.2892483573658921e-04 
 -4.4596697642533962e-04  -4.6368579012558213e-04  -4.8210811456050813e-04  -5.0126184984607451e-04 
 -5.2117600041056604e-04  -5.4188071855905211e-04  -5.6340734974666873e-04  -5.8578847962709733e-04 
 -6.0905798294514149e-04  -6.3325107434493455e-04  -6.5840436116803333e-04  -6.8455589831847993e-04 
 -7.1174524527482981e-04  -7.4001352533220458e-04  -7.6940348716054052e-04  -7.9995956876849231e-04 
 -8.3172796396582371e-04  -8.6475669142060572e-04  -8.9909566641119178e-04  -9.3479677537668040e-04 
 -9.7191395337348598e-04  -1.0105032645496609e-03  -1.0506229857527921e-03  -1.0923336933916384e-03 
 -1.1356983536761160e-03  -1.1807824163649352e-03  -1.2276539121549343e-03  -1.2763835538511768e-03 
 -1.3270448414619840e-03  -1.3797141713684257e-03  -1.4344709497232965e-03  -1.4913977102402622e-03 
 -1.5505802365398348e-03  -1.6121076892248408e-03  -1.6760727378644137e-03  -1.7425716980720256e-03 
 -1.8117046738698099e-03  -1.8835757055383963e-03  -1.9582929231586614e-03  -2.0359687060592284e-03 
 -2.1167198483912140e-03  -2.2006677310596667e-03  -2.2879385002492641e-03  -2.3786632527903703e-03 
 -2.4729782286201452e-03  -2.5710250106024957e-03  -2.6729507319798347e-03  -2.7789082917392470e-03 
 -2.8890565781854454e-03  -3.0035607010230701e-03  -3.1225922322613855e-03  -3.2463294562650982e-03 
 -3.3749576292862234e-03  -3.5086692488232019e-03  -3.6476643331653600e-03  -3.7921507114927178e-03 
 -3.9423443249136693e-03  -4.0984695388357629e-03  -4.2607594670778957e-03  -4.4294563081457156e-03 
 -4.6048116941057645e-03  -4.7870870525081174e-03  -4.9765539818216672e-03  -5.1734946408612103e-03 
 -5.3782021527005357e-03  -5.5909810235814658e-03  -5.8121475773445326e-03  -6.0420304059234115e-03 
 -6.2809708364617413e-03  -6.5293234156279601e-03  -6.7874564117210651e-03  -7.0557523351778405e-03 
 -7.3346084781099174e-03  -7.6244374735174487e-03  -7.9256678748444876e-03  -8.2387447565600586e-03 
 -8.5641303364679643e-03  -8.9023046204674862e-03  -9.2537660705067810e-03  -9.6190322964903457e-03 
 -9.9986407729216326e-03  -1.0393149581081939e-02  -1.0803138177566608e-02  -1.1229208190019612e-02 
 -1.1671984240927465e-02  -1.2132114800353592e-02  -1.2610273068513832e-02  -1.3107157889113501e-02 
 -1.3623494694385925e-02  -1.4160036482791016e-02  -1.4717564830351639e-02  -1.5296890936623208e-02 
 -1.5898856706309673e-02  -1.6524335867555928e-02  -1.7174235127962772e-02  -1.7849495369385317e-02 
 -1.8551092882590301e-02  -1.9280040642860194e-02  -2.0037389627643287e-02  -2.0824230177359716e-02 
 -2.1641693400480253e-02  -2.2490952624002275e-02  -2.3373224890450454e-02  -2.4289772502532156e-02 
 -2.5241904616576407e-02  -2.6230978885881530e-02  -2.7258403155090143e-02  -2.8325637206699270e-02 
 -2.9434194560799893e-02  -3.0585644329121628e-02  -3.1781613124435830e-02  -3.3023787026342427e-02 
 -3.4313913604433290e-02  -3.5653803999785960e-02  -3.7045335065696586e-02  -3.8490451568509214e-02 
 -3.9991168449339011e-02  -4.1549573147420832e-02  -4.3167827985737296e-02  -4.4848172619497279e-02 
 -4.6592926547939180e-02  -4.8404491689828875e-02  -5.0285355022904064e-02  -5.2238091287387094e-02 
 -5.4265365753545847e-02  -5.6369937053124361e-02  -5.8554660074291262e-02  -6.0822488919566868e-02 
 -6.3176479925979856e-02  -6.5619794746481649e-02  -6.8155703491397990e-02  -7.0787587928430942e-02 
 -7.3518944739433018e-02  -7.6353388831860713e-02  -7.9294656702471294e-02  -8.2346609850458816e-02 
 -8.5513238236824912e-02  -8.8798663786347834e-02  -9.2207143928049906e-02  -9.5743075169560751e-02 
 -9.9410996700234594e-02  -1.0321559401730086e-01  -1.0716170256870330e-01  -1.1125431140561451e-01 
 -1.1549856683689490e-01  -1.1989977607699778e-01  -1.2446341087799739e-01  -1.2919511113553805e-01 
 -1.3410068845755940e-01  -1.3918612968364882e-01  -1.4445760034179719e-01  -1.4992144802818841e-01 
 -1.5558420569443471e-01  -1.6145259482536725e-01  -1.6753352848910741e-01  -1.7383411423967315e-01 
 -1.8036165685080879e-01  -1.8712366085806523e-01  -1.9412783288439103e-01  -2.0138208372262867e-01 
 -2.0889453014631881e-01  -2.1667349641812547e-01  -2.2472751546296160e-01  -2.3306532967055230e-01 
 -2.4169589128968594e-01  -2.5062836237378083e-01  -2.5987211423463263e-01  -2.6943672635828825e-01 
 -2.7933198473392673e-01  -2.8956787954339674e-01  -3.0015460215566375e-01  -3.1110254136686161e-01 
 -3.2242227882290020e-01  -3.3412458355766733e-01  -3.4622040557576533e-01  -3.5872086840443668e-01 
 -3.7163726053486473e-01  -3.8498102566837172e-01  -3.9876375167818845e-01  -4.1299715819242716e-01 
 -4.2769308269865614e-01  -4.4286346506506852e-01  -4.5852033036762901e-01  -4.7467576990682597e-01 
 -4.9134192029170426e-01  -5.0853094046278391e-01  -5.2625498651922120e-01  -5.4452618420923149e-01 
 -5.6335659893632961e-01  -5.8275820312742677e-01  -6.0274284080223073e-01  -6.2332218917683413e-01 
 -6.4450771712779964e-01  -6.6631064033658416e-01  -6.8874187292780797e-01  -7.1181197540870766e-01 
 -7.3553109871125222e-01  -7.5990892413286248e-01  -7.8495459896658781e-01  -8.1067666760706314e-01 
 -8.3708299791468632e-01  -8.6418070261740432e-01  -8.9197605552735126e-01  -9.2047440234860867e-01 
 -9.4968006585261677e-01  -9.7959624519961708e-01  -1.0102249091880109e+00  -1.0415666832190902e+00 
 -1.0736207297723876e+00  -1.1063846221972780e+00  -1.1398542116397881e+00  -1.1740234869401367e+00 
 -1.2088844273568158e+00  -1.2444268479974210e+00  -1.2806382378654151e+00  -1.3175035904661454e+00 
 -1.3550052269551354e+00  -1.3931226118577369e+00  -1.4318321614419980e+00  -1.4711070448870964e+00 
 -1.5109169784582568e+00  -1.5512280129766363e+00  -1.5920023149600506e+00  -1.6331979419081779e+00 
 -1.6747686123150574e+00  -1.7166634711129960e+00  -1.7588268513861891e+00  -1.8011980333404158e+00 
 -1.8437110016775606e+00  -1.8862942027015592e+00  -1.9288703026758485e+00  -1.9713559491624741e+00 
 -2.0136615372998050e+00  -2.0556909832197077e+00  -2.0973415070659374e+00  -2.1385034283534603e+00 
 -2.1790599767023244e+00  -2.2188871212895251e+00  -2.2578534226856579e+00  -2.2958199110790880e+00 
 -2.3326399952358892e+00  -2.3681594068960292e+00  -2.4022161856613007e+00  -2.4346407097836362e+00 
 -2.4652557786079670e+00  -2.4938767527551682e+00  -2.5203117584398140e+00  -2.5443619625958127e+00 
 -2.5658219257197148e+00  -2.5844800395253804e+00  -2.6001190566214420e+00  -2.6125167194602588e+00 
 -2.6214464957480135e+00  -2.6266784273332502e+00  -2.6279800992866926e+00  -2.6251177354305590e+00 
 -2.6178574259489977e+00  -2.6059664918944310e+00  -2.5892149903757216e+00  -2.5673773629549697e+00 
 -2.5402342282718640e+00  -2.5075743181427588e+00  -2.4691965543340118e+00  -2.4249122608781257e+00 
 -2.3745475041855313e+00  -2.3179455503106068e+00  -2.2549694255721775e+00  -2.1855045633317736e+00 
 -2.1094615161337291e+00  -2.0267787086594100e+00  -1.9374252031057670e+00  -1.8414034447426801e+00 
 -1.7387519516210210e+00  -1.6295479087961551e+00  -1.5139096241029220e+00  -1.3919987995825651e+00 
 -1.2640225702271892e+00  -1.1302352598777377e+00  -9.9093980297785345e-01  -8.4648878052357812e-01 
 -6.9728501901164608e-01  -5.4378170251326585e-01  -3.8648195020301768e-01  -2.2593781476422239e-01 
 -6.2748661083152191e-02  1.0244111043914612e-01  2.6894502573192830e-01  4.3603820685899342e-01 
 6.0296176439354776e-01  7.6892791737589128e-01  9.3312583463650833e-01  1.0947281781724227e+00 
 1.2528983141111929e+00  1.4067981394769704e+00  1.5555964535534548e+00  1.6984777814344114e+00 
 1.8346515350024737e+00  1.9633613740816573e+00  2.0838946092041564e+00  2.1955914688789573e+00 
 2.2978540400508760e+00  2.3901546820106199e+00  2.4720437123799566e+00  2.5431561694517120e+00 
 2.6032174680711906e+00  2.6520477859095717e+00  2.6895650425917035e+00  2.7157863647162857e+00 
 2.7308279642910409e+00  2.7349033954294102e+00  2.7283201932653123e+00  2.7114749389288284e+00 
 2.6848468341628484e+00  2.6489899079511909e+00  2.6045240147137507e+00  2.5521248186087289e+00 
 2.4925129905252024e+00  2.4264428722514446e+00  2.3546908840992002e+00  2.2780439651719981e+00 
 2.1972883363268454e+00  2.1131988621284603e+00  2.0265292589567609e+00  1.9380033537419885e+00 
 1.8483075459277147e+00  1.7580845724349869e+00  1.6679286323285740e+00  1.5783817875643438e+00 
 1.4899317234151168e+00  1.4030107632815576e+00  1.3179959538927517e+00  1.2352101792271593e+00 
 1.1549241553240670e+00  1.0773591598262298e+00  1.0026903450110156e+00  9.3105048028551995e-01 
 8.6253397217436178e-01  7.9720101683663824e-01  7.3508175187900449e-01  6.7618029010109371e-01 
 6.2047853693722643e-01  5.6793971466674464e-01  5.1851153878372280e-01  4.7212901408176844e-01 
 4.2871683894943480e-01  3.8819142517090222e-01  3.5046255646905788e-01  3.1543472162363906e-01 
 2.8300816698698639e-01  2.5307971856814282e-01  2.2554342572958258e-01  2.0029107727858761e-01 
 1.7721263680834293e-01  1.5619663811831674e-01  1.3713057403320078e-01  1.1990130356984988e-01 
 1.0439549376972755e-01  9.0500104158974151e-02  7.8102914174637827e-02  6.7093087363273463e-02 
 5.7361760963248916e-02  4.8802645765918057e-02  4.1312618946402910e-02  3.4792291804759096e-02 
 2.9146534923824543e-02  2.4284944934620065e-02  2.0122239644466564e-02  1.6578571466452228e-02 
 1.3579752628331804e-02  1.1057389284301888e-02  8.9489251807531207e-03  7.1975987490156121e-03 
 5.7523202697867103e-03  4.5674779768370951e-03  3.6026835862027471e-03  2.8224687407598066e-03 
 2.1959442722844090e-03  1.6964340584727448e-03  1.3010946673693165e-03  9.9053102626366399e-04 
 7.4841712415255307e-04  5.6112935263918494e-04  4.1739860139289450e-04  3.0798573170430932e-04 
 2.2538362271064263e-04  1.6354767513376036e-04  1.1765549941258087e-04  8.3895539338802212e-05 
 5.9283592703368347e-05  4.1505589076926226e-05  2.8784560346608175e-05  1.9769474819289555e-05 
 1.3443479827033791e-05  9.0490859438760555e-06  6.0279050209592092e-06  3.9726997508019397e-06 
 2.5896937251927965e-06  1.6693087413247328e-06  1.0637249981184907e-06  6.6988741338930377e-07 
 4.1679812573230901e-07  2.5613519885642073e-07  1.5541634607513725e-07  9.3082619143253860e-08 
 5.5009998393255064e-08  3.2067752892686574e-08  1.8433080980178178e-08  1.0444181538153098e-08 
 5.8309343803027435e-09  3.2064571841380694e-09  1.7360713421704261e-09  9.2510663517587186e-10 
 4.8497552088600723e-10  2.5001719639889781e-10  1.2669435058519334e-10  6.3079115046222998e-11 
 3.0842958660978891e-11  1.4803604965078881e-11  6.9711151187588184e-12  3.2198452004538494e-12 
 1.4573147348001936e-12  6.4613005403069787e-13  2.8098083625574079e-13  1.1915480852992512e-13 
 4.9584966908967475e-14  2.0200970925312291e-14  8.1418180272915547e-15  3.3129363887155842e-15 
 1.0478306570837126e-15  4.9680779380833250e-16  0.0000000000000000e+00  0.0000000000000000e+00 
 0.0000000000000000e+00  0.0000000000000000e+00  0.0000000000000000e+00  0.0000000000000000e+00 
 0.0000000000000000e+00  0.0000000000000000e+00  0.0000000000000000e+00  0.0000000000000000e+00 
 0.0000000000000000e+00  0.0000000000000000e+00  0.0000000000000000e+00  0.0000000000000000e+00 
 0.0000000000000000e+00  0.0000000000000000e+00  0.0000000000000000e+00  0.0000000000000000e+00 
 0.0000000000000000e+00  0.0000000000000000e+00  0.0000000000000000e+00  0.0000000000000000e+00 
 0.0000000000000000e+00  0.0000000000000000e+00  0.0000000000000000e+00  0.0000000000000000e+00 
 0.0000000000000000e+00  0.0000000000000000e+00  0.0000000000000000e+00  0.0000000000000000e+00 
 0.0000000000000000e+00  0.0000000000000000e+00  0.0000000000000000e+00  0.0000000000000000e+00 
 0.0000000000000000e+00  0.0000000000000000e+00  0.0000000000000000e+00  0.0000000000000000e+00 
 0.0000000000000000e+00  0.0000000000000000e+00  0.0000000000000000e+00  0.0000000000000000e+00 
 0.0000000000000000e+00  0.0000000000000000e+00  0.0000000000000000e+00  0.0000000000000000e+00 
 0.0000000000000000e+00  0.0000000000000000e+00  0.0000000000000000e+00  0.0000000000000000e+00 
 0.0000000000000000e+00  0.0000000000000000e+00  0.0000000000000000e+00  0.0000000000000000e+00 
 0.0000000000000000e+00  0.0000000000000000e+00  0.0000000000000000e+00  0.0000000000000000e+00 
 0.0000000000000000e+00  0.0000000000000000e+00  0.0000000000000000e+00  0.0000000000000000e+00 
 0.0000000000000000e+00  0.0000000000000000e+00  0.0000000000000000e+00  0.0000000000000000e+00 
 0.0000000000000000e+00  0.0000000000000000e+00  0.0000000000000000e+00  0.0000000000000000e+00 
 0.0000000000000000e+00  0.0000000000000000e+00  0.0000000000000000e+00  0.0000000000000000e+00 
 0.0000000000000000e+00  0.0000000000000000e+00  0.0000000000000000e+00  0.0000000000000000e+00 
 0.0000000000000000e+00  0.0000000000000000e+00  0.0000000000000000e+00  0.0000000000000000e+00 
 0.0000000000000000e+00  0.0000000000000000e+00  0.0000000000000000e+00  0.0000000000000000e+00 
 0.0000000000000000e+00  0.0000000000000000e+00  0.0000000000000000e+00  0.0000000000000000e+00 
 0.0000000000000000e+00  0.0000000000000000e+00  0.0000000000000000e+00  0.0000000000000000e+00 
 0.0000000000000000e+00  0.0000000000000000e+00  0.0000000000000000e+00  0.0000000000000000e+00 
 0.0000000000000000e+00  0.0000000000000000e+00  0.0000000000000000e+00  0.0000000000000000e+00 
 0.0000000000000000e+00  0.0000000000000000e+00  0.0000000000000000e+00  0.0000000000000000e+00 
 0.0000000000000000e+00  0.0000000000000000e+00  0.0000000000000000e+00  0.0000000000000000e+00 
 0.0000000000000000e+00  0.0000000000000000e+00  0.0000000000000000e+00  0.0000000000000000e+00 
 0.0000000000000000e+00  0.0000000000000000e+00  0.0000000000000000e+00  0.0000000000000000e+00 
 0.0000000000000000e+00  0.0000000000000000e+00  0.0000000000000000e+00  0.0000000000000000e+00 
 0.0000000000000000e+00  0.0000000000000000e+00  0.0000000000000000e+00  0.0000000000000000e+00 
 0.0000000000000000e+00  0.0000000000000000e+00  0.0000000000000000e+00  0.0000000000000000e+00 
 0.0000000000000000e+00  0.0000000000000000e+00  0.0000000000000000e+00  0.0000000000000000e+00 
 0.0000000000000000e+00  0.0000000000000000e+00  0.0000000000000000e+00  0.0000000000000000e+00 
 0.0000000000000000e+00  0.0000000000000000e+00  0.0000000000000000e+00  0.0000000000000000e+00 
 0.0000000000000000e+00  0.0000000000000000e+00  0.0000000000000000e+00  0.0000000000000000e+00 
 0.0000000000000000e+00  0.0000000000000000e+00  0.0000000000000000e+00  0.0000000000000000e+00 
 0.0000000000000000e+00  0.0000000000000000e+00  0.0000000000000000e+00  0.0000000000000000e+00 
 0.0000000000000000e+00  0.0000000000000000e+00  0.0000000000000000e+00  0.0000000000000000e+00 
 0.0000000000000000e+00  0.0000000000000000e+00  0.0000000000000000e+00  0.0000000000000000e+00 
 0.0000000000000000e+00  0.0000000000000000e+00  0.0000000000000000e+00  0.0000000000000000e+00 
 0.0000000000000000e+00  0.0000000000000000e+00  0.0000000000000000e+00  0.0000000000000000e+00 
 0.0000000000000000e+00  0.0000000000000000e+00  0.0000000000000000e+00  0.0000000000000000e+00 
 0.0000000000000000e+00  0.0000000000000000e+00  0.0000000000000000e+00  0.0000000000000000e+00 
 0.0000000000000000e+00  0.0000000000000000e+00  0.0000000000000000e+00  0.0000000000000000e+00 
 0.0000000000000000e+00  0.0000000000000000e+00  0.0000000000000000e+00  0.0000000000000000e+00 
 0.0000000000000000e+00  0.0000000000000000e+00  0.0000000000000000e+00  0.0000000000000000e+00 
 0.0000000000000000e+00  0.0000000000000000e+00  0.0000000000000000e+00  0.0000000000000000e+00 
 0.0000000000000000e+00  0.0000000000000000e+00  0.0000000000000000e+00  0.0000000000000000e+00 
 0.0000000000000000e+00  0.0000000000000000e+00  0.0000000000000000e+00  0.0000000000000000e+00 
 0.0000000000000000e+00  0.0000000000000000e+00  0.0000000000000000e+00  0.0000000000000000e+00 
 0.0000000000000000e+00  0.0000000000000000e+00  0.0000000000000000e+00  0.0000000000000000e+00 
 0.0000000000000000e+00  0.0000000000000000e+00  0.0000000000000000e+00  0.0000000000000000e+00 
 0.0000000000000000e+00  0.0000000000000000e+00  0.0000000000000000e+00  0.0000000000000000e+00 
 0.0000000000000000e+00  0.0000000000000000e+00  0.0000000000000000e+00  0.0000000000000000e+00 
 0.0000000000000000e+00  0.0000000000000000e+00  0.0000000000000000e+00  0.0000000000000000e+00 
 0.0000000000000000e+00  0.0000000000000000e+00  0.0000000000000000e+00  0.0000000000000000e+00 
 0.0000000000000000e+00  0.0000000000000000e+00  0.0000000000000000e+00  0.0000000000000000e+00 
 0.0000000000000000e+00  0.0000000000000000e+00  0.0000000000000000e+00  0.0000000000000000e+00 
 0.0000000000000000e+00  0.0000000000000000e+00  0.0000000000000000e+00  0.0000000000000000e+00 
 0.0000000000000000e+00  0.0000000000000000e+00  0.0000000000000000e+00  0.0000000000000000e+00 
 0.0000000000000000e+00  0.0000000000000000e+00  0.0000000000000000e+00  0.0000000000000000e+00 
 0.0000000000000000e+00  0.0000000000000000e+00  0.0000000000000000e+00  0.0000000000000000e+00 
 0.0000000000000000e+00  0.0000000000000000e+00  0.0000000000000000e+00  0.0000000000000000e+00 
 0.0000000000000000e+00  0.0000000000000000e+00  0.0000000000000000e+00  0.0000000000000000e+00 
 0.0000000000000000e+00  0.0000000000000000e+00  0.0000000000000000e+00  0.0000000000000000e+00 
 0.0000000000000000e+00  0.0000000000000000e+00  0.0000000000000000e+00  0.0000000000000000e+00 
 0.0000000000000000e+00  0.0000000000000000e+00  0.0000000000000000e+00  0.0000000000000000e+00 
 0.0000000000000000e+00  0.0000000000000000e+00  0.0000000000000000e+00  0.0000000000000000e+00 
 0.0000000000000000e+00  0.0000000000000000e+00  0.0000000000000000e+00  0.0000000000000000e+00 
 0.0000000000000000e+00 
  </PP_BETA>
  <PP_DIJ>
 2   Number of nonzero Dij
 1 1 1.4640789086178849e+00 
 2 2 2.1515673664924706e+00 
  </PP_DIJ>
</PP_NONLOCAL>
<PP_PSWFC>
S    0   2.00          Wavefunction
 4.1876176182226709e-07  4.2424120436149579e-07  4.2979234469667424e-07  4.3541612098463337e-07 
 4.4111348365788874e-07  4.4688539558526755e-07  4.5273283223463676e-07  4.5865678183776199e-07 
 4.6465824555732171e-07  4.7073823765610844e-07  4.7689778566844267e-07  4.8313793057383108e-07 
 4.8945972697289575e-07  4.9586424326560675e-07  5.0235256183184609e-07  5.0892577921433452e-07 
 5.1558500630395186e-07  5.2233136852748271e-07  5.2916600603781895e-07  5.3609007390665012e-07 
 5.4310474231967615e-07  5.5021119677437435e-07  5.5741063828035382e-07  5.6470428356233188e-07 
 5.7209336526576650e-07  5.7957913216517940e-07  5.8716284937520487e-07  5.9484579856440125e-07 
 6.0262927817185861e-07  6.1051460362664223e-07  6.1850310757010699e-07  6.2659614008112038e-07 
 6.3479506890423377e-07  6.4310127968083853e-07  6.5151617618334700e-07  6.6004118055243777e-07 
 6.6867773353740626e-07  6.7742729473965943e-07  6.8629134285939659e-07  6.9527137594551944e-07 
 7.0436891164881079e-07  7.1358548747842762e-07  7.2292266106174916e-07  7.3238201040762628e-07 
 7.4196513417307540e-07  7.5167365193346182e-07  7.6150920445621869e-07  7.7147345397814866e-07 
 7.8156808448635289e-07  7.9179480200283690e-07  8.0215533487284097e-07  8.1265143405694208e-07 
 8.2328487342698157e-07  8.3405745006586031e-07  8.4497098457126120e-07  8.5602732136334436e-07 
 8.6722832899646913e-07  8.7857590047499382e-07  8.9007195357321120e-07  9.0171843115946637e-07 
 9.1351730152452049e-07  9.2547055871420781e-07  9.3758022286644818e-07  9.4984834055266815e-07 
 9.6227698512369130e-07  9.7486825706015344e-07  9.8762428432750558e-07  1.0005472227356595e-06 
 1.0136392563033433e-06  1.0269025976272208e-06  1.0403394882558462e-06  1.0539521990685075e-06 
 1.0677430306590314e-06  1.0817143137246093e-06  1.0958684094597100e-06  1.1102077099551519e-06 
 1.1247346386023932e-06  1.1394516505031134e-06  1.1543612328841579e-06  1.1694659055179101e-06 
 1.1847682211481646e-06  1.2002707659215764e-06  1.2159761598247533e-06  1.2318870571270697e-06 
 1.2480061468292758e-06  1.2643361531179784e-06  1.2808798358260664e-06  1.2976399908991664e-06 
 1.3146194508681992e-06  1.3318210853281215e-06  1.3492478014229344e-06  1.3669025443370388e-06 
 1.3847882977930201e-06  1.4029080845559480e-06  1.4212649669442802e-06  1.4398620473474445e-06 
 1.4587024687502039e-06  1.4777894152638765e-06  1.4971261126645144e-06  1.5167158289381219e-06 
 1.5365618748330105e-06  1.5566676044193843e-06  1.5770364156562485e-06  1.5976717509657382e-06 
 1.6185770978149625e-06  1.6397559893054664e-06  1.6612120047704042e-06  1.6829487703795363e-06 
 1.7049699597521345e-06  1.7272792945779187e-06  1.7498805452461143e-06  1.7727775314827475e-06 
 1.7959741229962810e-06  1.8194742401316984e-06  1.8432818545331539e-06  1.8674009898152917e-06 
 1.8918357222433579e-06  1.9165901814222068e-06  1.9416685509943354e-06  1.9670750693470479e-06 
 1.9928140303288809e-06  2.0188897839754073e-06  2.0453067372445349e-06  2.0720693547614378e-06 
 2.0991821595732371e-06  2.1266497339135602e-06  2.1544767199771069e-06  2.1826678207043604e-06 
 2.2112278005765649e-06  2.2401614864211177e-06  2.2694737682275005e-06  2.2991695999738900e-06 
 2.3292540004645979e-06  2.3597320541784699e-06  2.3906089121283917e-06  2.4218897927320515e-06 
 2.4535799826941000e-06  2.4856848378998613e-06  2.5182097843207453e-06  2.5511603189315191e-06 
 2.5845420106395773e-06  2.6183605012263958e-06  2.6526215063012965e-06  2.6873308162677163e-06 
 2.7224942973021156e-06  2.7581178923457174e-06  2.7942076221092217e-06  2.8307695860906860e-06 
 2.8678099636067311e-06  2.9053350148372515e-06  2.9433510818838094e-06  2.9818645898418876e-06 
 3.0208820478871886e-06  3.0604100503761561e-06  3.1004552779609153e-06  3.1410244987188161e-06 
 3.1821245692967623e-06  3.2237624360705460e-06  3.2659451363193528e-06  3.3086797994156588e-06 
 3.3519736480307125e-06  3.3958339993558109e-06  3.4402682663395749e-06  3.4852839589414267e-06 
 3.5308886854015003e-06  3.5770901535271778e-06  3.6238961719964931e-06  3.6713146516786053e-06 
 3.7193536069715781e-06  3.7680211571576885e-06  3.8173255277764876e-06  3.8672750520158683e-06 
 3.9178781721213521e-06  3.9691434408238487e-06  4.0210795227861249e-06  4.0736951960682349e-06 
 4.1269993536121610e-06  4.1810010047459050e-06  4.2357092767073023e-06  4.2911334161878079e-06 
 4.3472827908965288e-06  4.4041668911447465e-06  4.4617953314512283e-06  4.5201778521685766e-06 
 4.5793243211309055e-06  4.6392447353231242e-06  4.6999492225721205e-06  4.7614480432600948e-06 
 4.8237515920603986e-06  4.8868703996961218e-06  4.9508151347217408e-06  5.0155966053281534e-06 
 5.0812257611713856e-06  5.1477136952252871e-06  5.2150716456585366e-06  5.2833109977362807e-06 
 5.3524432857467171e-06  5.4224801949529630e-06  5.4934335635705517e-06  5.5653153847708582e-06 
 5.6381378087108565e-06  5.7119131445894838e-06  5.7866538627310391e-06  5.8623725966959063e-06 
 5.9390821454190081e-06  6.0167954753763354e-06  6.0955257227799321e-06  6.1752861958017124e-06 
 6.2560903768264873e-06  6.3379519247345849e-06  6.4208846772144704e-06  6.5049026531057406e-06 
 6.5900200547729291e-06  6.6762512705104885e-06  6.7636108769793937e-06  6.8521136416757890e-06 
 6.9417745254320715e-06  7.0326086849508842e-06  7.1246314753724288e-06  7.2178584528755310e-06 
 7.3123053773129640e-06  7.4079882148814037e-06  7.5049231408265640e-06  7.6031265421839095e-06 
 7.7026150205554575e-06  7.8034053949231765e-06  7.9055147044994055e-06  8.0089602116148507e-06 
 8.1137594046446317e-06  8.2199300009729370e-06  8.3274899499967284e-06  8.4364574361691286e-06 
 8.5468508820829395e-06  8.6586889515948933e-06  8.7719905529912103e-06  8.8867748421949728e-06 
 9.0030612260159598e-06  9.1208693654434827e-06  9.2402191789828970e-06  9.3611308460363397e-06 
 9.4836248103283694e-06  9.6077217833771392e-06  9.7334427480117876e-06  9.8608089619367213e-06 
 9.9898419613434732e-06  1.0120563564570905e-05  1.0252995875814420e-05  1.0387161288885030e-05 
 1.0523082491018997e-05  1.0660782466738878e-05  1.0800284501766780e-05  1.0941612186990707e-05 
 1.1084789422484795e-05  1.1229840421584369e-05  1.1376789715016685e-05  1.1525662155088205e-05 
 1.1676482919929406e-05  1.1829277517797870e-05  1.1984071791440560e-05  1.2140891922516095e-05 
 1.2299764436077744e-05  1.2460716205117830e-05  1.2623774455174033e-05  1.2788966768998044e-05 
 1.2956321091286781e-05  1.3125865733476232e-05  1.3297629378597705e-05  1.3471641086196047e-05 
 1.3647930297309151e-05  1.3826526839507856e-05  1.4007460931995078e-05  1.4190763190762936e-05 
 1.4376464633806669e-05  1.4564596686394157e-05  1.4755191186390338e-05  1.4948280389636097e-05 
 1.5143896975382096e-05  1.5342074051778913e-05  1.5542845161426115e-05  1.5746244286982883e-05 
 1.5952305856844547e-05  1.6161064750890183e-05  1.6372556306306893e-05  1.6586816323496440e-05 
 1.6803881072069702e-05  1.7023787296934121e-05  1.7246572224478753e-05  1.7472273568860702e-05 
 1.7700929538395959e-05  1.7932578842057081e-05  1.8167260696092261e-05  1.8405014830927330e-05 
 1.8645881498669880e-05  1.8889901480191837e-05  1.9137116092142471e-05  1.9387567194044881e-05 
 1.9641297195488678e-05  1.9898349063420639e-05  2.0158766329534517e-05  2.0422593097761701e-05 
 2.0689874051864168e-05  2.0960654463131183e-05  2.1234980198181381e-05  2.1512897726871810e-05 
 2.1794454130315386e-05  2.2079697109008559e-05  2.2368674991070717e-05  2.2661436740597025e-05 
 2.2958031966126418e-05  2.3258510929226444e-05  2.3562924553196784e-05  2.3871324431893113e-05 
 2.4183762838673260e-05  2.4500292735467451e-05  2.4820967781974510e-05  2.5145842344986000e-05 
 2.5474971507840138e-05  2.5808411080007675e-05  2.6146217606811561e-05  2.6488448379282672e-05 
 2.6835161444153385e-05  2.7186415613991624e-05  2.7542270477477107e-05  2.7902786409822321e-05 
 2.8268024583340329e-05  2.8638046978161862e-05  2.9012916393104012e-05  2.9392696456692877e-05 
 2.9777451638342749e-05  3.0167247259694233e-05  3.0562149506114069e-05  3.0962225438358905e-05 
 3.1367543004406142e-05  3.1778171051454298e-05  3.2194179338095796e-05  3.2615638546664917e-05 
 3.3042620295764053e-05  3.3475197152971019e-05  3.3913442647730534e-05  3.4357431284433137e-05 
 3.4807238555684437e-05  3.5262940955768268e-05  3.5724615994306845e-05  3.6192342210121387e-05 
 3.6666199185296794e-05  3.7146267559453901e-05  3.7632629044232822e-05  3.8125366437991270e-05 
 3.8624563640721818e-05  3.9130305669191598e-05  3.9642678672308867e-05  4.0161769946720371e-05 
 4.0687667952643708e-05  4.1220462329939064e-05  4.1760243914424709e-05  4.2307104754440806e-05 
 4.2861138127666093e-05  4.3422438558192459e-05  4.3991101833861953e-05  4.4567225023871351e-05 
 4.5150906496649676e-05  4.5742245938013556e-05  4.6341344369606008e-05  4.6948304167624225e-05 
 4.7563229081842043e-05  4.8186224254932741e-05  4.8817396242098632e-05  4.9456853031012989e-05 
 5.0104704062081158e-05  5.0761060249027112e-05  5.1426033999812106e-05  5.2099739237892366e-05 
 5.2782291423822883e-05  5.3473807577214521e-05  5.4174406299051762e-05  5.4884207794379053e-05 
 5.5603333895363231e-05  5.6331908084740568e-05  5.7070055519656297e-05  5.7817903055905607e-05 
 5.8575579272584680e-05  5.9343214497160909e-05  6.0120940830971717e-05  6.0908892175161393e-05 
 6.1707204257066173e-05  6.2516014657057505e-05  6.3335462835854104e-05  6.4165690162313536e-05 
 6.5006839941714740e-05  6.5859057444542674e-05  6.6722489935787174e-05  6.7597286704768078e-05 
 6.8483599095499272e-05  6.9381580537604770e-05  7.0291386577800080e-05  7.1213174911952663e-05 
 7.2147105417735778e-05  7.3093340187890539e-05  7.4052043564111210e-05  7.5023382171569567e-05 
 7.6007524954094171e-05  7.7004643210021618e-05  7.8014910628737281e-05  7.9038503327922294e-05 
 8.0075599891526206e-05  8.1126381408484029e-05  8.2191031512197026e-05  8.3269736420797964e-05 
 8.4362684978221431e-05  8.5470068696101169e-05  8.6592081796516446e-05  8.7728921255611386e-05 
 8.8880786848110163e-05  9.0047881192753748e-05  9.1230409798683478e-05  9.2428581112797629e-05 
 9.3642606568109104e-05  9.4872700633131884e-05  9.6119080862326159e-05  9.7381967947632198e-05 
 9.8661585771124514e-05  9.9958161458818789e-05  1.0127192543566538e-04  1.0260311148176404e-04 
 1.0395195678983637e-04  1.0531870202399316e-04  1.0670359137983514e-04  1.0810687264592801e-04 
 1.0952879726669223e-04  1.1096962040675187e-04  1.1242960101678623e-04  1.1390900190093072e-04 
 1.1540808978577516e-04  1.1692713539100915e-04  1.1846641350176552e-04  1.2002620304271589e-04 
 1.2160678715397358e-04  1.2320845326886036e-04  1.2483149319359840e-04  1.2647620318898708e-04 
 1.2814288405413009e-04  1.2983184121227864e-04  1.3154338479885982e-04  1.3327782975176147e-04 
 1.3503549590394783e-04  1.3681670807848281e-04  1.3862179618604067e-04  1.4045109532498720e-04 
 1.4230494588411707e-04  1.4418369364813685e-04  1.4608768990598627e-04  1.4801729156209404e-04 
 1.4997286125066774e-04  1.5195476745312220e-04  1.5396338461875318e-04  1.5599909328876859e-04 
 1.5806228022379419e-04  1.6015333853497266e-04  1.6227266781878311e-04  1.6442067429571025e-04 
 1.6659777095289846e-04  1.6880437769093210e-04  1.7104092147488711e-04  1.7330783648980623e-04 
 1.7560556430075528e-04  1.7793455401762478e-04  1.8029526246484686e-04  1.8268815435620457e-04 
 1.8511370247491796e-04  1.8757238785919837e-04  1.9006469999346945e-04  1.9259113700546211e-04 
 1.9515220586939914e-04  1.9774842261549176e-04  2.0038031254598321e-04  2.0304841045797872e-04 
 2.0575326087331590e-04  2.0849541827573615e-04  2.1127544735563065e-04  2.1409392326264345e-04 
 2.1695143186642728e-04  2.1984857002585977e-04  2.2278594586703764e-04  2.2576417907038416e-04 
 2.2878390116721361e-04  2.3184575584611440e-04  2.3495039926952553e-04  2.3809850040089730e-04 
 2.4129074134284227e-04  2.4452781768670104e-04  2.4781043887396186e-04  2.5113932856999564e-04 
 2.5451522505058339e-04  2.5793888160173387e-04  2.6141106693331205e-04  2.6493256560701728e-04 
 2.6850417847927685e-04  2.7212672315963930e-04  2.7580103448528198e-04  2.7952796501226867e-04 
 2.8330838552422221e-04  2.8714318555910640e-04  2.9103327395483679e-04  2.9497957941447593e-04 
 2.9898305109179660e-04  3.0304465919803197e-04  3.0716539563066812e-04  3.1134627462516630e-04 
 3.1558833343054858e-04  3.1989263300981016e-04  3.2426025876617628e-04  3.2869232129625230e-04 
 3.3318995717117295e-04  3.3775432974689597e-04  3.4238663000484378e-04  3.4708807742414073e-04 
 3.5185992088675606e-04  3.5670343961691735e-04  3.6161994415621695e-04  3.6661077737590449e-04 
 3.7167731552791537e-04  3.7682096933626256e-04  3.8204318513048753e-04  3.8734544602294312e-04 
 3.9272927313176073e-04  3.9819622685143951e-04  4.0374790817308034e-04  4.0938596005638049e-04 
 4.1511206885560398e-04  4.2092796580183611e-04  4.2683542854394743e-04  4.3283628275079313e-04 
 4.3893240377729849e-04  4.4512571839719898e-04  4.5141820660533319e-04  4.5781190349252426e-04 
 4.6430890119622179e-04  4.7091135093023270e-04  4.7762146509701669e-04  4.8444151948619544e-04 
 4.9137385556308969e-04  4.9842088285128564e-04  5.0558508141341737e-04  5.1286900443455775e-04 
 5.2027528091281618e-04  5.2780661846196688e-04  5.3546580623116348e-04  5.4325571794703893e-04 
 5.5117931508375157e-04  5.5923965016680722e-04  5.6743987021677341e-04  5.7578322033930416e-04 
 5.8427304746821204e-04  5.9291280426865256e-04  6.0170605320784495e-04  6.1065647080112194e-04 
 6.1976785204148816e-04  6.2904411502128388e-04  6.3848930575498254e-04  6.4810760321261200e-04 
 6.5790332457376353e-04  6.6788093071267678e-04  6.7804503192541148e-04  6.8840039391069631e-04 
 6.9895194401663847e-04  7.0970477776611043e-04  7.2066416567430065e-04  7.3183556037261877e-04 
 7.4322460405389340e-04  7.5483713625458418e-04  7.6667920199056851e-04  7.7875706026393776e-04 
 7.9107719295916780e-04  8.0364631414802225e-04  8.1647137982357085e-04  8.2955959808482353e-04 
 8.4291843979463074e-04  8.5655564973474544e-04  8.7047925828323850e-04  8.8469759364084280e-04 
 8.9921929463426949e-04  9.1405332412607652e-04  9.2920898306233005e-04  9.4469592519101479e-04 
 9.6052417248601314e-04  9.7670413131341121e-04  9.9324660937896974e-04  1.0101628334977868e-03 
 1.0274644682295101e-03  1.0451636354249266e-03  1.0632729347323732e-03  1.0818054651151982e-03 
 1.1007748474344448e-03  1.1201952481540620e-03  1.1400814042292794e-03  1.1604486492422948e-03 
 1.1813129408531897e-03  1.2026908896379516e-03  1.2245997893897244e-03  1.2470576489638872e-03 
 1.2700832257523482e-03  1.2936960608775027e-03  1.3179165162017007e-03  1.3427658132538097e-03 
 1.3682660741805340e-03  1.3944403648366562e-03  1.4213127401352440e-03  1.4489082917861994e-03 
 1.4772531985593300e-03  1.5063747792164234e-03  1.5363015482656192e-03  1.5670632747007873e-03 
 1.5986910438986084e-03  1.6312173228566959e-03  1.6646760289674362e-03  1.6991026025342702e-03 
 1.7345340832499872e-03  1.7710091908702795e-03  1.8085684103303443e-03  1.8472540815678352e-03 
 1.8871104943319764e-03  1.9281839882762039e-03  1.9705230586504756e-03  2.0141784679292649e-03 
 2.0592033637325470e-03  2.1056534034196790e-03  2.1535868857601843e-03  2.2030648901110927e-03 
 2.2541514235578423e-03  2.3069135765048467e-03  2.3614216872328278e-03  2.4177495159730341e-03 
 2.4759744290836247e-03  2.5361775939509151e-03  2.5984441852780469e-03  2.6628636034660711e-03 
 2.7295297058375695e-03  2.7985410515010368e-03  2.8700011607053475e-03  2.9440187895880487e-03 
 3.0207082212791291e-03  3.1001895743833739e-03  3.1825891299299240e-03  3.2680396779471467e-03 
 3.3566808848948413e-03  3.4486596832642535e-03  3.5441306847397588e-03  3.6432566184044553e-03 
 3.7462087955658072e-03  3.8531676028769409e-03  3.9643230255346929e-03  4.0798752024472033e-03 
 4.2000350153821473e-03  4.3250247142318137e-03  4.4550785806635497e-03  4.5904436325638464e-03 
 4.7313803718318686e-03  4.8781635782338181e-03  5.0310831521935082e-03  5.1904450095669186e-03 
 5.3565720316300558e-03  5.5298050736997647e-03  5.7105040360069049e-03  5.8990490006503218e-03 
 6.0958414386786570e-03  6.3013054915750473e-03  6.5158893316572472e-03  6.7400666061525139e-03 
 6.9743379699624226e-03  7.2192327123973259e-03  7.4753104834328231e-03  7.7431631253209073e-03 
 8.0234166156751777e-03  8.3167331284420432e-03  8.6238132194664113e-03  8.9453981436595827e-03 
 9.2822723110772987e-03  9.6352658895139456e-03  1.0005257561513443e-02  1.0393177443983888e-02 
 1.0800010178878956e-02  1.1226798203669498e-02  1.1674645210569377e-02  1.2144719803694432e-02 
 1.2638259363516723e-02  1.3156574128120241e-02  1.3701051500861591e-02  1.4273160594080321e-02 
 1.4874457018478617e-02  1.5506587927687851e-02  1.6171297327347095e-02  1.6870431657722576e-02 
 1.7605945658481600e-02  1.8379908523682729e-02  1.9194510354338168e-02  2.0052068915022443e-02 
 2.0955036699924177e-02  2.1906008312438788e-02  2.2907728160855362e-02  2.3963098470872777e-02 
 2.5075187613559188e-02  2.6247238744914709e-02  2.7482678750376421e-02  2.8785127484384884e-02 
 3.0158407291475776e-02  3.1606552791234359e-02  3.3133820904817160e-02  3.4744701095568348e-02 
 3.6443925790502235e-02  3.8236480943054041e-02  4.0127616690485979e-02  4.2122858051646589e-02 
 4.4228015602395102e-02  4.6449196056897644e-02  4.8792812673173508e-02  5.1265595390709559e-02 
 5.3874600596684516e-02  5.6627220405371576e-02  5.9531191322659952e-02  6.2594602154407847e-02 
 6.5825901003592216e-02  6.9233901187055136e-02  7.2827785888192068e-02  7.6617111347343586e-02 
 8.0611808377127114e-02  8.4822181975708455e-02  8.9258908797322623e-02  9.3933032226511795e-02 
 9.8855954790893333e-02  1.0403942763717869e-01  1.0949553678704683e-01  1.1523668588377368e-01 
 1.2127557513770555e-01  1.2762517617921482e-01  1.3429870253218035e-01  1.4130957542976222e-01 
 1.4867138470772456e-01  1.5639784452917632e-01  1.6450274371863374e-01  1.7299989051291437e-01 
 1.8190305157155628e-01  1.9122588513001051e-01  2.0098186822435798e-01  2.1118421796605349e-01 
 2.2184580689823946e-01  2.3297907252026342e-01  2.4459592112271616e-01  2.5670762612994835e-01 
 2.6932472119898854e-01  2.8245688837153393e-01  2.9611284161812723e-01  3.1030020615026144e-01 
 3.2502539390750196e-01  3.4029347565456375e-01  3.5610805015096936e-01  3.7247111088849411e-01 
 3.8938291093580224e-01  4.0684182649366352e-01  4.2484421985696880e-01  4.4338430261052975e-01 
 4.6245400006230808e-01  4.8204281814569189e-01  5.0213771430292453e-01  5.2272297419012237e-01 
 5.4378009640822189e-01  5.6528768784240047e-01  5.8722137255392848e-01  6.0955371747228315e-01 
 6.3225417833360431e-01  6.5528906935331477e-01  6.7862155996035756e-01  7.0221170152890211e-01 
 7.2601648641842043e-01  7.4998994081042525e-01  7.7408325188361182e-01  7.9824492890232035e-01 
 8.2242099691966186e-01  8.4655522111347759e-01  8.7058935933735926e-01  8.9446344028322533e-01 
 9.1811606466721873e-01  9.4148472698015973e-01  9.6450615548316965e-01  9.8711666817451482e-01 
 1.0092525423120344e+00  1.0308503946682204e+00  1.0518475689619922e+00  1.0721825258214401e+00 
 1.0917952292090249e+00  1.1106275216035733e+00  1.1286234786408451e+00  1.1457297327914902e+00 
 1.1618957555606486e+00  1.1770740891943001e+00  1.1912205223239534e+00  1.2042942092442113e+00 
 1.2162577388192244e+00  1.2270771650005325e+00  1.2367220150562597e+00  1.2451652926669476e+00 
 1.2523834906890945e+00  1.2583566250311256e+00  1.2630683034171060e+00  1.2665057652358034e+00 
 1.2686599700306249e+00  1.2695257148660788e+00  1.2691016983598391e+00  1.2673905768577820e+00 
 1.2643989955803301e+00  1.2601375884542714e+00  1.2546209445304701e+00  1.2478675409949527e+00 
 1.2398996443341799e+00  1.2307431822296562e+00  1.2204275893208323e+00  1.2089856302037811e+00 
 1.1964532030371307e+00  1.1828691269971248e+00  1.1682749166264959e+00  1.1527145459002377e+00 
 1.1362342046103786e+00  1.1188820494634244e+00  1.1007079520922791e+00  1.0817632460082081e+00 
 1.0621004743549689e+00  1.0417731401731491e+00  1.0208354607348167e+00  9.9934212736454686e-01 
 9.7734807202109686e-01  9.5490824131269059e-01  9.3207738124809048e-01  9.0890982898363382e-01 
 8.8545931688399360e-01  8.6177878721052248e-01  8.3792021837175190e-01  8.1393446309963935e-01 
 7.8987109880697060e-01  7.6577829028150679e-01  7.4170266478038882e-01  7.1768919950818144e-01 
 6.9378112138533132e-01  6.7001981894463536e-01  6.4644476614365864e-01  6.2309345782858150e-01 
 6.0000135653761455e-01  5.7720185029818161e-01  5.5472622103986391e-01  5.3260362321812105e-01 
 5.1086107222111754e-01  4.8952344211294535e-01  4.6861347225068617e-01  4.4815178229968761e-01 
 4.2815689516086053e-01  4.0864526731547479e-01  3.8963132608668510e-01  3.7112751331273919e-01 
 3.5314433492443698e-01  3.3569041591889143e-01  3.1877256022311823e-01  3.0239581494308554e-01 
 2.8656353849975258e-01  2.7127747216160814e-01  2.5653781448879015e-01  2.4234329821483117e-01 
 2.2869126910525198e-01  2.1557776634442952e-01  2.0299760401715239e-01  1.9094445326748063e-01 
 1.7941092473495143e-01  1.6838865088672406e-01  1.5786836788380637e-01  1.4783999663991168e-01 
 1.3829272275262219e-01  1.2921507500824181e-01  1.2059500218387265e-01  1.1241994789271570e-01 
 1.0467692324127138e-01  9.7352577089653336e-02  9.0433263728978003e-02  8.3905107812175944e-02 
 7.7754066396676799e-02  7.1965987979145385e-02  6.6526668423670346e-02  6.1421903705441268e-02 
 5.6637539412016741e-02  5.2159516963443009e-02  4.7973916530986212e-02  4.4066996651870284e-02 
 4.0425230554111666e-02  3.7035339221308285e-02  3.3884321242026783e-02  3.0959479502209963e-02 
 2.8248444791770386e-02  2.5739196408228152e-02  2.3420079850882795e-02  2.1279821708570835e-02 
 1.9307541852554028e-02  1.7492763053514004e-02  1.5825418148010209e-02  1.4295854885081040e-02 
 1.2894838587988669e-02  1.1613552769440256e-02  1.0443597840963551e-02  9.3769880585353425e-03 
 8.4061468470834188e-03  7.5239006461450082e-03  6.7234714178153188e-03  5.9984679561980630e-03 
 5.3428761349265646e-03  4.7510482260162794e-03  4.2176914193817082e-03  3.7378556678618110e-03 
 3.3069209776043760e-03  2.9205842582178286e-03  2.5748458412675648e-03  2.2659957695318495e-03 
 1.9905999529988895e-03  1.7454862809410852e-03  1.5277307726034152e-03  1.3346438421482252e-03 
 1.1637567465649264e-03  1.0128082783350575e-03  8.7973175779322652e-04  7.6264237339241530e-04 
 6.5982491151453187e-04  5.6972191110679713e-04  4.9092227231044684e-04  4.2215034241482771e-04 
 3.6225549694718698e-04  3.1020222852142963e-04  2.6506075123800660e-04  2.2599812396723552e-04 
 1.9226989177038704e-04  1.6321224102225753e-04  1.3823466049705209e-04  1.1681309776333898e-04 
 9.8483597696587385e-05  8.2836407748956362e-05  6.9510532801973822e-05  5.8188720952193011e-05 
 4.8592860424210327e-05  4.0479766949046267e-05  3.3637340366881771e-05  2.7881068888505790e-05 
 2.3050859355873054e-05  1.9008171954992019e-05  1.5633438130063084e-05  1.2823740902821749e-05 
 1.0490737392525468e-05  8.5588040379149339e-06  6.9633858218146155e-06  5.6495316720785221e-06 
 4.5705991409643790e-06  3.6871124318240493e-06  2.9657588318494918e-06  2.3785096086977238e-06 
 1.9018524248965047e-06  1.5161233063281247e-06  1.2049271606505225e-06  9.5463677056158868e-07 
 7.5396107906100687e-07  5.9357443434442703e-07  4.6579926692458240e-07  3.6433542837405666e-07 
 2.8403012809040851e-07  2.2068306095467132e-07  1.7088192472845850e-07  1.3186408222302304e-07 
 1.0140063094980059e-07  7.7699603862629924e-08  5.9325441030680481e-08  4.5132246021191728e-08 
 3.4208675005137729e-08  2.5832603837872871e-08  1.9433981387065990e-08  1.4564508970187619e-08 
 1.0872988675957475e-08  8.0853602602445334e-09  5.9885998042548704e-09  4.4177858527600790e-09 
 3.2457526195975514e-09  2.3748472076668115e-09  1.7303906290561371e-09  1.2555125498223213e-09 
 9.0708878033314344e-10  6.5256008173309767e-10  4.6745220275699883e-10  3.3345139273606605e-10 
 2.3691801315844991e-10  1.6774422263164117e-10  1.1848085609172432e-10  0.0000000000000000e+00 
 0.0000000000000000e+00  0.0000000000000000e+00  0.0000000000000000e+00  0.0000000000000000e+00 
 0.0000000000000000e+00  0.0000000000000000e+00  0.0000000000000000e+00  0.0000000000000000e+00 
 0.0000000000000000e+00  0.0000000000000000e+00  0.0000000000000000e+00  0.0000000000000000e+00 
 0.0000000000000000e+00  0.0000000000000000e+00  0.0000000000000000e+00  0.0000000000000000e+00 
 0.0000000000000000e+00  0.0000000000000000e+00  0.0000000000000000e+00  0.0000000000000000e+00 
 0.0000000000000000e+00  0.0000000000000000e+00  0.0000000000000000e+00  0.0000000000000000e+00 
 0.0000000000000000e+00  0.0000000000000000e+00  0.0000000000000000e+00  0.0000000000000000e+00 
 0.0000000000000000e+00  0.0000000000000000e+00  0.0000000000000000e+00  0.0000000000000000e+00 
 0.0000000000000000e+00  0.0000000000000000e+00  0.0000000000000000e+00  0.0000000000000000e+00 
 0.0000000000000000e+00  0.0000000000000000e+00  0.0000000000000000e+00  0.0000000000000000e+00 
 0.0000000000000000e+00  0.0000000000000000e+00  0.0000000000000000e+00  0.0000000000000000e+00 
 0.0000000000000000e+00  0.0000000000000000e+00  0.0000000000000000e+00  0.0000000000000000e+00 
 0.0000000000000000e+00  0.0000000000000000e+00  0.0000000000000000e+00  0.0000000000000000e+00 
 0.0000000000000000e+00  0.0000000000000000e+00  0.0000000000000000e+00  0.0000000000000000e+00 
 0.0000000000000000e+00  0.0000000000000000e+00  0.0000000000000000e+00  0.0000000000000000e+00 
 0.0000000000000000e+00  0.0000000000000000e+00  0.0000000000000000e+00  0.0000000000000000e+00 
 0.0000000000000000e+00  0.0000000000000000e+00  0.0000000000000000e+00  0.0000000000000000e+00 
 0.0000000000000000e+00  0.0000000000000000e+00  0.0000000000000000e+00  0.0000000000000000e+00 
 0.0000000000000000e+00  0.0000000000000000e+00  0.0000000000000000e+00  0.0000000000000000e+00 
 0.0000000000000000e+00  0.0000000000000000e+00  0.0000000000000000e+00  0.0000000000000000e+00 
 0.0000000000000000e+00  0.0000000000000000e+00  0.0000000000000000e+00  0.0000000000000000e+00 
 0.0000000000000000e+00  0.0000000000000000e+00  0.0000000000000000e+00  0.0000000000000000e+00 
 0.0000000000000000e+00  0.0000000000000000e+00  0.0000000000000000e+00  0.0000000000000000e+00 
 0.0000000000000000e+00  0.0000000000000000e+00  0.0000000000000000e+00  0.0000000000000000e+00 
 0.0000000000000000e+00  0.0000000000000000e+00  0.0000000000000000e+00  0.0000000000000000e+00 
 0.0000000000000000e+00  0.0000000000000000e+00  0.0000000000000000e+00  0.0000000000000000e+00 
 0.0000000000000000e+00  0.0000000000000000e+00  0.0000000000000000e+00  0.0000000000000000e+00 
 0.0000000000000000e+00  0.0000000000000000e+00  0.0000000000000000e+00  0.0000000000000000e+00 
 0.0000000000000000e+00  0.0000000000000000e+00  0.0000000000000000e+00  0.0000000000000000e+00 
 0.0000000000000000e+00  0.0000000000000000e+00  0.0000000000000000e+00  0.0000000000000000e+00 
 0.0000000000000000e+00  0.0000000000000000e+00  0.0000000000000000e+00  0.0000000000000000e+00 
 0.0000000000000000e+00  0.0000000000000000e+00  0.0000000000000000e+00  0.0000000000000000e+00 
 0.0000000000000000e+00  0.0000000000000000e+00  0.0000000000000000e+00  0.0000000000000000e+00 
 0.0000000000000000e+00  0.0000000000000000e+00  0.0000000000000000e+00  0.0000000000000000e+00 
 0.0000000000000000e+00  0.0000000000000000e+00  0.0000000000000000e+00  0.0000000000000000e+00 
 0.0000000000000000e+00  0.0000000000000000e+00  0.0000000000000000e+00  0.0000000000000000e+00 
 0.0000000000000000e+00  0.0000000000000000e+00  0.0000000000000000e+00  0.0000000000000000e+00 
 0.0000000000000000e+00  0.0000000000000000e+00  0.0000000000000000e+00  0.0000000000000000e+00 
 0.0000000000000000e+00  0.0000000000000000e+00  0.0000000000000000e+00  0.0000000000000000e+00 
 0.0000000000000000e+00  0.0000000000000000e+00  0.0000000000000000e+00  0.0000000000000000e+00 
 0.0000000000000000e+00  0.0000000000000000e+00  0.0000000000000000e+00  0.0000000000000000e+00 
 0.0000000000000000e+00  0.0000000000000000e+00  0.0000000000000000e+00  0.0000000000000000e+00 
 0.0000000000000000e+00  0.0000000000000000e+00  0.0000000000000000e+00  0.0000000000000000e+00 
 0.0000000000000000e+00  0.0000000000000000e+00  0.0000000000000000e+00  0.0000000000000000e+00 
 0.0000000000000000e+00  0.0000000000000000e+00  0.0000000000000000e+00  0.0000000000000000e+00 
 0.0000000000000000e+00  0.0000000000000000e+00  0.0000000000000000e+00  0.0000000000000000e+00 
 0.0000000000000000e+00  0.0000000000000000e+00  0.0000000000000000e+00  0.0000000000000000e+00 
 0.0000000000000000e+00  0.0000000000000000e+00  0.0000000000000000e+00  0.0000000000000000e+00 
 0.0000000000000000e+00  0.0000000000000000e+00  0.0000000000000000e+00  0.0000000000000000e+00 
 0.0000000000000000e+00 
P    1   6.00          Wavefunction
 6.1818288436775823e-11  6.3446640815441262e-11  6.5117885541731496e-11  6.6833152440845818e-11 
 6.8593601098655244e-11  7.0400421645626980e-11  7.2254835561398268e-11  7.4158096500543654e-11 
 7.6111491140093439e-11  7.8116340049376948e-11  8.0173998582777965e-11  8.2285857796006463e-11 
 8.4453345386505752e-11  8.6677926658630733e-11  8.8961105514250142e-11  9.1304425469441864e-11 
 9.3709470697969375e-11  9.6177867102243983e-11  9.8711283412497638e-11  1.0131143231490865e-10 
 1.0398007160944361e-10  1.0671900539819785e-10  1.0953008530503801e-10  1.1241521172737113e-10 
 1.1537633512088658e-10  1.1841545731813937e-10  1.2153463288186615e-10  1.2473597049394900e-10 
 1.2802163438096583e-10  1.3139384577729088e-10  1.3485488442673545e-10  1.3840709012374248e-10 
 1.4205286429517820e-10  1.4579467162378960e-10  1.4963504171442536e-10  1.5357657080414671e-10 
 1.5762192351738421e-10  1.6177383466732716e-10  1.6603511110476326e-10  1.7040863361561882e-10 
 1.7489735886848164e-10  1.7950432141342384e-10  1.8423263573347578e-10  1.8908549835013732e-10 
 1.9406618998435090e-10  1.9917807777439654e-10  2.0442461755220822e-10  2.0980935617965118e-10 
 2.1533593394633844e-10  2.2100808703060895e-10  2.2682965002532954e-10  2.3280455853022977e-10 
 2.3893685181252104e-10  2.4523067553759915e-10  2.5169028457167607e-10  2.5832004585823668e-10 
 2.6512444137026319e-10  2.7210807114022488e-10  2.7927565636988029e-10  2.8663204262199531e-10 
 2.9418220309613413e-10  3.0193124199073743e-10  3.0988439795376168e-10  3.1804704762421180e-10 
 3.2642470926696075e-10  3.3502304650331475e-10  3.4384787213984488e-10  3.5290515209807438e-10 
 3.6220100944767760e-10  3.7174172854591771e-10  3.8153375928612201e-10  3.9158372145806510e-10 
 4.0189840922321064e-10  4.1248479570783454e-10  4.2335003771713636e-10  4.3450148057352482e-10 
 4.4594666308234949e-10  4.5769332262843418e-10  4.6974940040685930e-10  4.8212304679152763e-10 
 4.9482262684514450e-10  5.0785672597433649e-10  5.2123415573373161e-10  5.3496395978292552e-10 
 5.4905542000036058e-10  5.6351806275825089e-10  5.7836166536279514e-10  5.9359626266403255e-10 
 6.0923215383980925e-10  6.2527990935844073e-10  6.4175037812477961e-10  6.5865469481451863e-10 
 6.7600428740168582e-10  6.9381088488442407e-10  7.1208652521427472e-10  7.3084356343432773e-10 
 7.5009468003174006e-10  7.6985288951026786e-10  7.9013154918861121e-10  8.1094436823051283e-10 
 8.3230541691272410e-10  8.5422913613709709e-10  8.7673034719323695e-10  8.9982426177831368e-10 
 9.2352649228080691e-10  9.4785306233513787e-10  9.7282041765431758e-10  9.9844543714794924e-10 
 1.0247454443330793e-09  1.0517382190456365e-09  1.0794420094603530e-09  1.1078755444273123e-09 
 1.1370580461334532e-09  1.1670092430975927e-09  1.1977493835077552e-09  1.2292992489098209e-09 
 1.2616801682567537e-09  1.2949140323278963e-09  1.3290233085280963e-09  1.3640310560766516e-09 
 1.3999609415963565e-09  1.4368372551131815e-09  1.4746849264774035e-09  1.5135295422172922e-09 
 1.5533973628367419e-09  1.5943153405685463e-09  1.6363111375953190e-09  1.6794131447503738e-09 
 1.7236505007112133e-09  1.7690531116985986e-09  1.8156516716945213e-09  1.8634776831927375e-09 
 1.9125634784959090e-09  1.9629422415737300e-09  2.0146480304968373e-09  2.0677158004616506e-09 
 2.1221814274217295e-09  2.1780817323416065e-09  2.2354545060895034e-09  2.2943385349857609e-09 
 2.3547736270242429e-09  2.4168006387844624e-09  2.4804615030525980e-09  2.5457992571701081e-09 
 2.6128580721290726e-09  2.6816832824339619e-09  2.7523214167500061e-09  2.8248202293588885e-09 
 2.8992287324430399e-09  2.9755972292203424e-09  3.0539773479516595e-09  3.1344220768441788e-09 
 3.2169857998741701e-09  3.3017243335533658e-09  3.3886949646638387e-09  3.4779564889868772e-09 
 3.5695692510520388e-09  3.6635951849332763e-09  3.7600978561196972e-09  3.8591425044892737e-09 
 3.9607960884145549e-09  4.0651273300302143e-09  4.1722067616930183e-09  4.2821067736656440e-09 
 4.3949016630565760e-09  4.5106676840491683e-09  4.6294830994538513e-09  4.7514282336183165e-09 
 4.8765855267314564e-09  5.0050395905577989e-09  5.1368772656400743e-09  5.2721876800086455e-09 
 5.4110623094374521e-09  5.5535950392872240e-09  5.6998822279777922e-09  5.8500227721323870e-09 
 6.0041181734379964e-09  6.1622726072669703e-09  6.3245929931062740e-09  6.4911890668420209e-09 
 6.6621734549481566e-09  6.8376617506294326e-09  7.0177725919701970e-09  7.2026277421418070e-09 
 7.3923521717229125e-09  7.5870741431882636e-09  7.7869252976231857e-09  7.9920407437223397e-09 
 8.2025591491329393e-09  8.4186228342042373e-09  8.6403778682065915e-09  8.8679741680852499e-09 
 9.1015655998155849e-09  9.3413100824283250e-09  9.5873696947751290e-09  9.8399107851066946e-09 
 1.0099104083537486e-08  1.0365124817473145e-08  1.0638152830078667e-08  1.0918372701867349e-08 
 1.1205973875492880e-08  1.1501150783828818e-08  1.1804102981422178e-08  1.2115035279409945e-08 
 1.2434157883989788e-08  1.2761686538538599e-08  1.3097842669474988e-08  1.3442853535964339e-08 
 1.3796952383567704e-08  1.4160378601938402e-08  1.4533377886673005e-08  1.4916202405426157e-08 
 1.5309110968401572e-08  1.5712369203334481e-08  1.6126249735083926e-08  1.6551032369956291e-08 
 1.6987004284884821e-08  1.7434460221592981e-08  1.7893702685873083e-08  1.8365042152114772e-08 
 1.8848797273222012e-08  1.9345295096060223e-08  1.9854871282579552e-08  2.0377870336763661e-08 
 2.0914645837557678e-08  2.1465560677932792e-08  2.2030987310249259e-08  2.2611307998083716e-08 
 2.3206915074691249e-08  2.3818211208277100e-08  2.4445609674257285e-08  2.5089534634692612e-08 
 2.5750421425084885e-08  2.6428716848729611e-08  2.7124879478824209e-08  2.7839379968536307e-08 
 2.8572701369241876e-08  2.9325339457148660e-08  3.0097803068526080e-08  3.0890614443768473e-08 
 3.1704309580524645e-08  3.2539438596132946e-08  3.3396566099607367e-08  3.4276271573426600e-08 
 3.5179149765384746e-08  3.6105811090769416e-08  3.7056882045139565e-08  3.8033005627983192e-08 
 3.9034841777542143e-08  4.0063067817099026e-08  4.1118378913028883e-08  4.2201488544926853e-08 
 4.3313128988130597e-08  4.4454051808965422e-08  4.5625028373048115e-08  4.6826850366994943e-08 
 4.8060330333887974e-08  4.9326302222863320e-08  5.0625621953194241e-08  5.1959167993251989e-08 
 5.3327841954736732e-08  5.4732569202581054e-08  5.6174299480938495e-08  5.7654007555679620e-08 
 5.9172693873828803e-08  6.0731385240384585e-08  6.2331135512977636e-08  6.3973026314829707e-08 
 6.5658167766489274e-08  6.7387699236828785e-08  6.9162790113801035e-08  7.0984640595463422e-08 
 7.2854482501791820e-08  7.4773580107819436e-08  7.6743230998651343e-08  7.8764766946921361e-08 
 8.0839554813276578e-08  8.2968997470495061e-08  8.5154534751864985e-08  8.7397644424470119e-08 
 8.9699843188053532e-08  9.2062687700154679e-08  9.4487775628236671e-08  9.6976746729541325e-08 
 9.9531283959428873e-08  1.0215311460897899e-07  1.0484401147264760e-07  1.0760579404679149e-07 
 1.1044032975989010e-07  1.1334953523531257e-07  1.1633537758757860e-07  1.1939987575403468e-07 
 1.2254510186498183e-07  1.2577318264666280e-07  1.2908630086019171e-07  1.3248669677835210e-07 
 1.3597666970133700e-07  1.3955857951246072e-07  1.4323484827489740e-07  1.4700796187053007e-07 
 1.5088047168202264e-07  1.5485499631925572e-07  1.5893422339129883e-07  1.6312091132512136e-07 
 1.6741789123227692e-07  1.7182806882482843e-07  1.7635442638181487e-07  1.8100002476759521e-07 
 1.8576800550343932e-07  1.9066159289377439e-07  1.9568409620852972e-07  2.0083891192306298e-07 
 2.0612952601719028e-07  2.1155951633488156e-07  2.1713255500622523e-07  2.2285241093330838e-07 
 2.2872295234170181e-07  2.3474814939928590e-07  2.4093207690419591e-07  2.4727891704371724e-07 
 2.5379296222600427e-07  2.6047861798655222e-07  2.6734040597139681e-07  2.7438296699907331e-07 
 2.8161106420341844e-07  2.8902958625935431e-07  2.9664355069385138e-07  3.0445810728432358e-07 
 3.1247854154677189e-07  3.2071027831605125e-07  3.2915888542070162e-07  3.3783007745484448e-07 
 3.4672971964972008e-07  3.5586383184750118e-07  3.6523859258009595e-07  3.7486034325571912e-07 
 3.8473559245609060e-07  3.9487102034719206e-07  4.0527348320659172e-07  4.1595001807043098e-07 
 4.2690784750324210e-07  4.3815438449385961e-07  4.4969723748076774e-07  4.6154421551031859e-07 
 4.7370333353134968e-07  4.8618281782981968e-07  4.9899111160718017e-07  5.1213688070630138e-07 
 5.2562901948887249e-07  5.3947665686829612e-07  5.5368916250221564e-07  5.6827615314891392e-07 
 5.8324749919194065e-07  5.9861333133744654e-07  6.1438404748881069e-07  6.3057031980328619e-07 
 6.4718310193550218e-07  6.6423363647280126e-07  6.8173346256751749e-07  6.9969442377144070e-07 
 7.1812867607785757e-07  7.3704869617669778e-07  7.5646728992846681e-07  7.7639760106280513e-07 
 7.9685312010765972e-07  8.1784769355522272e-07  8.3939553327096516e-07  8.6151122615224590e-07 
 8.8420974404317192e-07  9.0750645391255349e-07  9.3141712830198723e-07  9.5595795605129355e-07 
 9.8114555330872719e-07  1.0069969748335824e-06  1.0335297255990201e-06  1.0607617727031675e-06 
 1.0887115575967344e-06  1.1173980086356521e-06  1.1468405539674349e-06  1.1770591347602338e-06 
 1.2080742187837702e-06  1.2399068143516132e-06  1.2725784846345005e-06  1.3061113623546853e-06 
 1.3405281648715599e-06  1.3758522096690849e-06  1.4121074302558457e-06  1.4493183924888562e-06 
 1.4875103113325322e-06  1.5267090680645791e-06  1.5669412279408528e-06  1.6082340583315946e-06 
 1.6506155473417768e-06  1.6941144229286581e-06  1.7387601725300030e-06  1.7845830632167880e-06 
 1.8316141623846212e-06  1.8798853589984772e-06  1.9294293854057659e-06  1.9802798397331826e-06 
 2.0324712088831866e-06  2.0860388921464385e-06  2.1410192254469718e-06  2.1974495062373087e-06 
 2.2553680190612881e-06  2.3148140618027911e-06  2.3758279726391342e-06  2.4384511577183803e-06 
 2.5027261195803914e-06  2.5686964863419932e-06  2.6364070416672018e-06  2.7059037555440861e-06 
 2.7772338158903979e-06  2.8504456610107952e-06  2.9255890129290934e-06  3.0027149116196737e-06 
 3.0818757501628645e-06  3.1631253108498175e-06  3.2465188022631579e-06  3.3321128973604171e-06 
 3.4199657725880744e-06  3.5101371480548006e-06  3.6026883287933669e-06  3.6976822471415162e-06 
 3.7951835062729888e-06  3.8952584249108126e-06  3.9979750832558853e-06  4.1034033701648992e-06 
 4.2116150316125942e-06  4.3226837204744218e-06  4.4366850476667546e-06  4.5536966346828233e-06 
 4.6737981675638239e-06  4.7970714523456762e-06  4.9236004720232407e-06  5.0534714450749773e-06 
 5.1867728855923910e-06  5.3235956650598700e-06  5.4640330758320264e-06  5.6081808963569220e-06 
 5.7561374581951716e-06  5.9080037148863951e-06  6.0638833127160462e-06  6.2238826634373139e-06 
 6.3881110190044742e-06  6.5566805483757959e-06  6.7297064164459151e-06  6.9073068651695274e-06 
 7.0896032969400422e-06  7.2767203602889775e-06  7.4687860379739011e-06  7.6659317375248064e-06 
 7.8682923843211576e-06  8.0760065172739864e-06  8.2892163871899552e-06  8.5080680578965941e-06 
 8.7327115102107213e-06  8.9633007488343757e-06  9.1999939122656371e-06  9.4429533858143958e-06 
 9.6923459178160535e-06  9.9483427391393431e-06  1.0211119686087451e-05  1.0480857326795027e-05 
 1.0757741091227023e-05  1.1041961404888901e-05  1.1333713826361317e-05  1.1633199188776271e-05 
 1.1940623745355700e-05  1.2256199319137522e-05  1.2580143457018405e-05  1.2912679588247062e-05 
 1.3254037187506350e-05  1.3604451942727327e-05  1.3964165927783353e-05  1.4333427780217424e-05 
 1.4712492884161481e-05  1.5101623558611772e-05  1.5501089251230361e-05  1.5911166737848820e-05 
 1.6332140327856403e-05  1.6764302075661615e-05  1.7207951998422832e-05  1.7663398300250786e-05 
 1.8130957603092960e-05  1.8610955184517788e-05  1.9103725222624467e-05  1.9609611048312516e-05 
 2.0128965405153911e-05  2.0662150717119757e-05  2.1209539364422672e-05  2.1771513967746166e-05 
 2.2348467681142386e-05  2.2940804493890292e-05  2.3548939541617506e-05  2.4173299427000786e-05 
 2.4814322550372154e-05  2.5472459450570291e-05  2.6148173156390259e-05  2.6841939548998270e-05 
 2.7554247735692574e-05  2.8285600435406948e-05  2.9036514376368571e-05  2.9807520706338728e-05 
 3.0599165415882173e-05  3.1412009775128512e-05  3.2246630784508105e-05  3.3103621639964519e-05 
 3.3983592213166035e-05  3.4887169547260217e-05  3.5814998368738266e-05  3.6767741615998933e-05 
 3.7746080985226921e-05  3.8750717494225952e-05  3.9782372064874190e-05  4.0841786124897428e-05 
 4.1929722229685485e-05  4.3046964704908047e-05  4.4194320310718383e-05  4.5372618928368367e-05 
 4.6582714270092402e-05  4.7825484613156689e-05  4.9101833559008543e-05  5.0412690818501976e-05 
 5.1759013024218738e-05  5.3141784570949242e-05  5.4562018485445390e-05  5.6020757326606682e-05 
 5.7519074117314055e-05  5.9058073309179557e-05  6.0638891781538864e-05  6.2262699876073092e-05 
 6.3930702468510206e-05  6.5644140078923487e-05  6.7404290022213582e-05  6.9212467600435505e-05 
 7.1070027338708102e-05  7.2978364266526155e-05  7.4938915246379614e-05  7.6953160351674925e-05 
 7.9022624296048224e-05  8.1148877916259061e-05  8.3333539710958173e-05  8.5578277437733146e-05 
 8.7884809770951181e-05  9.0254908023040445e-05  9.2690397931979708e-05  9.5193161517900964e-05 
 9.7765139011852265e-05  1.0040833085991747e-04  1.0312479980604786e-04  1.0591667305712651e-04 
 1.0878614453396144e-04  1.1173547721208880e-04  1.1476700555646097e-04  1.1788313805430067e-04 
 1.2108635985061747e-04  1.2437923549111200e-04  1.2776441177743292e-04  1.3124462074000663e-04 
 1.3482268273392597e-04  1.3850150966366790e-04  1.4228410834270762e-04  1.4617358399441119e-04 
 1.5017314390092237e-04  1.5428610120710770e-04  1.5851587888699643e-04  1.6286601388054294e-04 
 1.6734016140895156e-04  1.7194209947724148e-04  1.7667573357319115e-04  1.8154510157228839e-04 
 1.8655437885882887e-04  1.9170788367385189e-04  1.9701008270117559e-04  2.0246559690340816e-04 
 2.0807920762045236e-04  2.1385586294370604e-04  2.1980068437988190e-04  2.2591897381913444e-04 
 2.3221622082299134e-04  2.3869811024844088e-04  2.4537053022543833e-04  2.5223958050604798e-04 
 2.5931158120446127e-04  2.6659308194820384e-04  2.7409087146198840e-04  2.8181198760688172e-04 
 2.8976372789873175e-04  2.9795366053116486e-04  3.0638963592990244e-04  3.1507979886667492e-04 
 3.2403260116263159e-04  3.3325681501286528e-04  3.4276154696549456e-04  3.5255625259068314e-04 
 3.6265075187702853e-04  3.7305524539493659e-04  3.8378033126890886e-04  3.9483702300313340e-04 
 4.0623676820737866e-04  4.1799146827296022e-04  4.3011349905150231e-04  4.4261573259234116e-04 
 4.5551155999774649e-04  4.6881491545867150e-04  4.8254030153750102e-04  4.9670281576826242e-04 
 5.1131817864901179e-04  5.2640276310562777e-04  5.4197362551105122e-04  5.5804853834911627e-04 
 5.7464602461756650e-04  5.9178539407062937e-04  6.0948678140768629e-04  6.2777118652112965e-04 
 6.4666051692347740e-04  6.6617763248124761e-04  6.8634639259100387e-04  7.0719170594140779e-04 
 7.2873958301409518e-04  7.5101719148572982e-04  7.7405291470380262e-04  7.9787641341955303e-04 
 8.2251869097297442e-04  8.4801216213716869e-04  8.7439072584243949e-04  9.0168984201449860e-04 
 9.2994661277606922e-04  9.5919986827705918e-04  9.8949025743541022e-04  1.0208603438887876e-03 
 1.0533547074765258e-03  1.0870200515917573e-03  1.1219053167655377e-03  1.1580618008681044e-03 
 1.1955432863372598e-03  1.2344061748704104e-03  1.2747096300450296e-03  1.3165157283624607e-03 
 1.3598896192421198e-03  1.4048996945273608e-03  1.4516177681008174e-03  1.5001192662459219e-03 
 1.5504834294327702e-03  1.6027935262506966e-03  1.6571370802570141e-03  1.7136061105615249e-03 
 1.7722973870198490e-03  1.8333127009655132e-03  1.8967591524713403e-03  1.9627494551951652e-03 
 2.0314022599335502e-03  2.1028424980801897e-03  2.1772017462633811e-03  2.2546186135195012e-03 
 2.3352391524472122e-03  2.4192172958803636e-03  2.5067153207166022e-03  2.5979043406437496e-03 
 2.6929648296175864e-03  2.7920871780628405e-03  2.8954722838944675e-03  3.0033321805889475e-03 
 3.1158907046756629e-03  3.2333842051668095e-03  3.3560622976010193e-03  3.4841886655413105e-03 
 3.6180419125423544e-03  3.7579164677857164e-03  3.9041235487748795e-03  4.0569921846848227e-03 
 4.2168703041737064e-03  4.3841258916871755e-03  4.5591482165188314e-03  4.7423491391335388e-03 
 4.9341644995135837e-03  5.1350555925506096e-03  5.3455107357789902e-03  5.5660469350279178e-03 
 5.7972116538596054e-03  6.0395846929587544e-03  6.2937801859427609e-03  6.5604487183717215e-03 
 6.8402795770506411e-03  7.1340031370312664e-03  7.4423933940355926e-03  7.7662706503344161e-03 
 8.1065043624192114e-03  8.4640161591004719e-03  8.8397830389459042e-03  9.2348407562329472e-03 
 9.6502874048256821e-03  1.0087287209590446e-02  1.0547074535129566e-02  1.1030958121729871e-02 
 1.1540325558483585e-02  1.2076648003531799e-02  1.2641485161294319e-02  1.3236490526370062e-02 
 1.3863416903505137e-02  1.4524122212614734e-02  1.5220575587291891e-02  1.5954863774521721e-02 
 1.6729197842421616e-02  1.7545920201723627e-02  1.8407511945378419e-02  1.9316600509064440e-02 
 2.0275967653501321e-02  2.1288557767262371e-02  2.2357486486224310e-02  2.3486049622848552e-02 
 2.4677732395122214e-02  2.5936218941160265e-02  2.7265402101147754e-02  2.8669393443442475e-02 
 3.0152533506229318e-02  3.1719402220080205e-02  3.3374829470095665e-02  3.5123905748955526e-02 
 3.6971992844160674e-02  3.8924734493987395e-02  4.0988066937187879e-02  4.3168229271253633e-02 
 4.5471773523122969e-02  4.7905574324582062e-02  5.0476838072322609e-02  5.3193111439734486e-02 
 5.6062289094108847e-02  5.9092620459107049e-02  6.2292715348240810e-02  6.5671548280857847e-02 
 6.9238461277917551e-02  7.3003164920873054e-02  7.6975737443476147e-02  8.1166621613540185e-02 
 8.5586619149888313e-02  9.0246882409150589e-02  9.5158903068011488e-02  1.0033449751918798e-01 
 1.0578578869404770e-01  1.1152518402150327e-01  1.1756534923172733e-01  1.2391917771431520e-01 
 1.3059975514367511e-01  1.3762031908944436e-01  1.4499421333632762e-01  1.5273483664558360e-01 
 1.6085558569912681e-01  1.6936979197661592e-01  1.7829065232599628e-01  1.8763115299912150e-01 
 1.9740398693729583e-01  2.0762146410860391e-01  2.1829541472244518e-01  2.2943708518057832e-01 
 2.4105702667313117e-01  2.5316497639840557e-01  2.6576973148358563e-01  2.7887901581658997e-01 
 2.9249934017376739e-01  3.0663585624900624e-01  3.2129220545968934e-01  3.3647036372259498e-01 
 3.5217048375202425e-01  3.6839073682046591e-01  3.8512715631895283e-01  4.0237348583209787e-01 
 4.2012103476695362e-01  4.3835854480631481e-01  4.5707207055762455e-01  4.7624487770835128e-01 
 4.9585736176383449e-01  5.1588699004526006e-01  5.3630826910169582e-01  5.5709273910277868e-01 
 5.7820899620111699e-01  5.9962274335358534e-01  6.2129686971345732e-01  6.4319155846164144e-01 
 6.6526442281043652e-01  6.8747066983458560e-01  7.0976329169373220e-01  7.3209328363554804e-01 
 7.5440988784095220e-01  7.7666086162949743e-01  7.9879276773124275e-01  8.2075128321679092e-01 
 8.4248152226468487e-01  8.6392836631368863e-01  8.8503679349007514e-01  9.0575219785424044e-01 
 9.2602068844372942e-01  9.4578935880703163e-01  9.6500652009059529e-01  9.8362189476129103e-01 
 1.0015867731846773e+00  1.0188541404843785e+00  1.0353787850805405e+00  1.0511174019510579e+00 
 1.0660287025176578e+00  1.0800735409966427e+00  1.0932150696568306e+00  1.1054188691671054e+00 
 1.1166531209969832e+00  1.1268888065374842e+00  1.1360998616509834e+00  1.1442633260727961e+00 
 1.1513594725188379e+00  1.1573719095636310e+00  1.1622876558734532e+00  1.1660971851773623e+00 
 1.1687944427266805e+00  1.1703768349176216e+00  1.1708451942887774e+00  1.1702037223429242e+00 
 1.1684599126722073e+00  1.1656244567663518e+00  1.1617111347159355e+00  1.1567366928294105e+00 
 1.1507207099903221e+00  1.1436854544048962e+00  1.1356557322367702e+00  1.1266587294963726e+00 
 1.1167238484457904e+00  1.1058825396925713e+00  1.0941681310738911e+00  1.0816156543719131e+00 
 1.0682616708481769e+00  1.0541440965375810e+00  1.0393020281953038e+00  1.0237755707422898e+00 
 1.0076056670097606e+00  9.9083393053199853e-01  9.7350248208160295e-01  9.5565379058589428e-01 
 9.3733051900371622e-01  9.1857537568056691e-01  8.9943097163634711e-01  8.7993968366798248e-01 
 8.6014352614694645e-01  8.4008402668306836e-01  8.1980211094460265e-01  7.9933799425594054e-01 
 7.7873108057398488e-01  7.5801986889450768e-01  7.3724186709498885e-01  7.1643351318060122e-01 
 6.9563010386476576e-01  6.7486573038474784e-01  6.5417322142592083e-01  6.3358409300520013e-01 
 6.1312850514444883e-01  5.9283522514793341e-01  5.7273159728382061e-01  5.5284351865785020e-01 
 5.3319542105740014e-01  5.1381025853585782e-01  4.9470950050054252e-01  4.7591313006010511e-01 
 4.5743964738400383e-01  4.3930607782484488e-01  4.2152798454685159e-01  4.0411948540258685e-01 
 3.8709327380070574e-01  3.7046064330484335e-01  3.5423151570383726e-01  3.3841447229407706e-01 
 3.2301678811602536e-01  3.0804446888893044e-01  2.9350229039045173e-01  2.7939384003130335e-01 
 2.6572156037909922e-01  2.5248679439030625e-01  2.3968983211455416e-01  2.2732995864148806e-01 
 2.1540550306688722e-01  2.0391388826142101e-01  1.9285168123305585e-01  1.8221464388180336e-01 
 1.7199778395353879e-01  1.6219540600797314e-01  1.5280116222441853e-01  1.4380810287770673e-01 
 1.3520872632567929e-01  1.2699502835842172e-01  1.1915855076854101e-01  1.1169042901088959e-01 
 1.0458143882917824e-01  9.7822041735950438e-02  9.1402429241374081e-02  8.5312565735218601e-02 
 7.9542229935205419e-02  7.4081054823633571e-02  6.8918566002780013e-02  6.4044218408035994e-02 
 5.9447431326062401e-02  5.5117621673417896e-02  5.1044235499140320e-02  4.7216777682557561e-02 
 4.3624839805275692e-02  4.0258126183799682e-02  3.7106478056497555e-02  3.4159895925699575e-02 
 3.1408560062597679e-02  2.8842849189259043e-02  2.6453357358501080e-02  2.4230909058558674e-02 
 2.2166572575400233e-02  2.0251671651228868e-02  1.8477795483087426e-02  1.6836807110571485e-02 
 1.5320850246420945e-02  1.3922354608185607e-02  1.2634039813221943e-02  1.1448917902955123e-02 
 1.0360294565610542e-02  9.3617691294620997e-03  8.4472334010423956e-03  7.6108694246973477e-03 
 6.8471462413325045e-03  6.1508157251837885e-03  5.5169075779481266e-03  4.9407235596325219e-03 
 4.4178310350310637e-03  3.9440559138313337e-03  3.5154750610029433e-03  3.1284082523544130e-03 
 2.7794097479878948e-03  2.4652595538655212e-03  2.1829544388604076e-03  1.9296987715364696e-03 
 1.7028952375243462e-03  1.5001354947735527e-03  1.3191908202043780e-03  1.1580027973980679e-03 
 1.0146740909888078e-03  8.8745934939437297e-04  7.7475627348049133e-04  6.7509688473137966e-04 
 5.8713902252775026e-04  5.0965809624323112e-04  4.4153911408766636e-04  3.8176900697531790e-04 
 3.2942926219829141e-04  2.8368887835930341e-04  2.4379764987852084e-04  2.0907978644897250e-04 
 1.7892787008399270e-04  1.5279714988533139e-04  1.3020017236654117e-04  1.1070174309515016e-04 
 9.3914213568763703e-05  7.9493085612267173e-05  6.7132924171390003e-05  5.6563568175875367e-05 
 4.7546628145572051e-05  3.9872258405673894e-05  3.3356191152572568e-05  2.7837019157820683e-05 
 2.3173713602161614e-05  1.9243363381492951e-05  1.5939122208625179e-05  1.3168349935213007e-05 
 1.0850934723717140e-05  8.9177829963217913e-06  7.3094644633568520e-06  5.9749999754012395e-06 
 4.8707804389263445e-06  3.9596055738215389e-06  3.2098318619422818e-06  2.5946196292720192e-06 
 2.0912698115834813e-06  1.6806415666866185e-06  1.3466425083854529e-06  1.0757839419617824e-06 
 8.5679407294383789e-07  6.8028273560091389e-07  5.3845174121550294e-07  4.2484547567592207e-07 
 3.3413687892658486e-07  2.6194441356009386e-07  2.0467607515887520e-07  1.5939691223559986e-07 
 1.2371690858383586e-07  9.5696435740812066e-08  7.3766808639714586e-08  5.6663774241590636e-08 
 4.3372032081926876e-08  3.3079128533516926e-08  2.5137284612816141e-08  1.9031911883576459e-08 
 1.4355744050943391e-08  1.0787664832821965e-08  8.0754472903725688e-09  6.0217376191685483e-09 
 4.4727190261489182e-09  3.3089802626362488e-09  2.4381900925705138e-09  1.7892448043817149e-09 
 1.3076120886909232e-09  9.5164236972192943e-10  6.8965906504167847e-10  4.9767322732197517e-10 
 3.5759646897844391e-10  2.5584976974462283e-10  1.8228541555069678e-10  1.2935553055877319e-10 
 9.1473984551258203e-11  6.4529359729148317e-11  0.0000000000000000e+00  0.0000000000000000e+00 
 0.0000000000000000e+00  0.0000000000000000e+00  0.0000000000000000e+00  0.0000000000000000e+00 
 0.0000000000000000e+00  0.0000000000000000e+00  0.0000000000000000e+00  0.0000000000000000e+00 
 0.0000000000000000e+00  0.0000000000000000e+00  0.0000000000000000e+00  0.0000000000000000e+00 
 0.0000000000000000e+00  0.0000000000000000e+00  0.0000000000000000e+00  0.0000000000000000e+00 
 0.0000000000000000e+00  0.0000000000000000e+00  0.0000000000000000e+00  0.0000000000000000e+00 
 0.0000000000000000e+00  0.0000000000000000e+00  0.0000000000000000e+00  0.0000000000000000e+00 
 0.0000000000000000e+00  0.0000000000000000e+00  0.0000000000000000e+00  0.0000000000000000e+00 
 0.0000000000000000e+00  0.0000000000000000e+00  0.0000000000000000e+00  0.0000000000000000e+00 
 0.0000000000000000e+00  0.0000000000000000e+00  0.0000000000000000e+00  0.0000000000000000e+00 
 0.0000000000000000e+00  0.0000000000000000e+00  0.0000000000000000e+00  0.0000000000000000e+00 
 0.0000000000000000e+00  0.0000000000000000e+00  0.0000000000000000e+00  0.0000000000000000e+00 
 0.0000000000000000e+00  0.0000000000000000e+00  0.0000000000000000e+00  0.0000000000000000e+00 
 0.0000000000000000e+00  0.0000000000000000e+00  0.0000000000000000e+00  0.0000000000000000e+00 
 0.0000000000000000e+00  0.0000000000000000e+00  0.0000000000000000e+00  0.0000000000000000e+00 
 0.0000000000000000e+00  0.0000000000000000e+00  0.0000000000000000e+00  0.0000000000000000e+00 
 0.0000000000000000e+00  0.0000000000000000e+00  0.0000000000000000e+00  0.0000000000000000e+00 
 0.0000000000000000e+00  0.0000000000000000e+00  0.0000000000000000e+00  0.0000000000000000e+00 
 0.0000000000000000e+00  0.0000000000000000e+00  0.0000000000000000e+00  0.0000000000000000e+00 
 0.0000000000000000e+00  0.0000000000000000e+00  0.0000000000000000e+00  0.0000000000000000e+00 
 0.0000000000000000e+00  0.0000000000000000e+00  0.0000000000000000e+00  0.0000000000000000e+00 
 0.0000000000000000e+00  0.0000000000000000e+00  0.0000000000000000e+00  0.0000000000000000e+00 
 0.0000000000000000e+00  0.0000000000000000e+00  0.0000000000000000e+00  0.0000000000000000e+00 
 0.0000000000000000e+00  0.0000000000000000e+00  0.0000000000000000e+00  0.0000000000000000e+00 
 0.0000000000000000e+00  0.0000000000000000e+00  0.0000000000000000e+00  0.0000000000000000e+00 
 0.0000000000000000e+00  0.0000000000000000e+00  0.0000000000000000e+00  0.0000000000000000e+00 
 0.0000000000000000e+00  0.0000000000000000e+00  0.0000000000000000e+00  0.0000000000000000e+00 
 0.0000000000000000e+00  0.0000000000000000e+00  0.0000000000000000e+00  0.0000000000000000e+00 
 0.0000000000000000e+00  0.0000000000000000e+00  0.0000000000000000e+00  0.0000000000000000e+00 
 0.0000000000000000e+00  0.0000000000000000e+00  0.0000000000000000e+00  0.0000000000000000e+00 
 0.0000000000000000e+00  0.0000000000000000e+00  0.0000000000000000e+00  0.0000000000000000e+00 
 0.0000000000000000e+00  0.0000000000000000e+00  0.0000000000000000e+00  0.0000000000000000e+00 
 0.0000000000000000e+00  0.0000000000000000e+00  0.0000000000000000e+00  0.0000000000000000e+00 
 0.0000000000000000e+00  0.0000000000000000e+00  0.0000000000000000e+00  0.0000000000000000e+00 
 0.0000000000000000e+00  0.0000000000000000e+00  0.0000000000000000e+00  0.0000000000000000e+00 
 0.0000000000000000e+00  0.0000000000000000e+00  0.0000000000000000e+00  0.0000000000000000e+00 
 0.0000000000000000e+00  0.0000000000000000e+00  0.0000000000000000e+00  0.0000000000000000e+00 
 0.0000000000000000e+00  0.0000000000000000e+00  0.0000000000000000e+00  0.0000000000000000e+00 
 0.0000000000000000e+00  0.0000000000000000e+00  0.0000000000000000e+00  0.0000000000000000e+00 
 0.0000000000000000e+00  0.0000000000000000e+00  0.0000000000000000e+00  0.0000000000000000e+00 
 0.0000000000000000e+00  0.0000000000000000e+00  0.0000000000000000e+00  0.0000000000000000e+00 
 0.0000000000000000e+00  0.0000000000000000e+00  0.0000000000000000e+00  0.0000000000000000e+00 
 0.0000000000000000e+00  0.0000000000000000e+00  0.0000000000000000e+00  0.0000000000000000e+00 
 0.0000000000000000e+00  0.0000000000000000e+00  0.0000000000000000e+00  0.0000000000000000e+00 
 0.0000000000000000e+00  0.0000000000000000e+00  0.0000000000000000e+00  0.0000000000000000e+00 
 0.0000000000000000e+00 
D    2   9.50          Wavefunction
 1.0728910451436070e-14  1.1155604409813490e-14  1.1599268193387296e-14  1.2060576700316869e-14 
 1.2540231669788089e-14  1.3038962749493928e-14  1.3557528605569318e-14  1.4096718076668639e-14 
 1.4657351373941404e-14  1.5240281328731617e-14  1.5846394689898683e-14  1.6476613472733433e-14 
 1.7131896361521174e-14  1.7813240167885371e-14  1.8521681347130349e-14  1.9258297574889685e-14 
 2.0024209386478671e-14  2.0820581881444593e-14  2.1648626495907887e-14  2.2509602845390033e-14 
 2.3404820640931733e-14  2.4335641681415938e-14  2.5303481925126609e-14  2.6309813643694307e-14 
 2.7356167661705298e-14  2.8444135685380962e-14  2.9575372723869942e-14  3.0751599606836216e-14 
 3.1974605602172932e-14  3.3246251137823892e-14  3.4568470631853328e-14  3.5943275435068811e-14 
 3.7372756890673779e-14  3.8859089515603853e-14  4.0404534308386580e-14  4.2011442188556154e-14 
 4.3682257572855562e-14  4.5419522093665862e-14  4.7225878465319250e-14  4.9104074504177311e-14 
 5.1056967308589659e-14  5.3087527605091675e-14  5.5198844267452505e-14  5.7394129015447907e-14 
 5.9676721300505513e-14  6.2050093385654596e-14  6.4517855627507915e-14  6.7083761968310606e-14 
 6.9751715646410340e-14  7.2525775133835886e-14  7.5410160310015912e-14  7.8409258881029645e-14 
 8.1527633054154264e-14  8.4770026477862234e-14  8.8141371457825754e-14  9.1646796459905203e-14 
 9.5291633911535118e-14  9.9081428313375084e-14  1.0302194467356486e-13  1.0711917727741405e-13 
 1.1137935880586649e-13  1.1580896981661055e-13  1.2041474860225771e-13  1.2520370144058568e-13 
 1.3018311325243882e-13  1.3536055868349827e-13  1.4074391362677969e-13  1.4634136720338619e-13 
 1.5216143421974185e-13  1.5821296812025513e-13  1.6450517445511652e-13  1.7104762488371668e-13 
 1.7785027173498754e-13  1.8492346314681532e-13  1.9227795880755521e-13  1.9992494632359408e-13 
 2.0787605823785896e-13  2.1614338972515978e-13  2.2473951699128501e-13  2.3367751640383800e-13 
 2.4297098438391591e-13  2.5263405808889099e-13  2.6268143691775580e-13  2.7312840487174631e-13 
 2.8399085380425879e-13  2.9528530759542670e-13  3.0702894728813184e-13  3.1923963722368831e-13 
 3.3193595221695464e-13  3.4513720581221318e-13  3.5886347966280069e-13  3.7313565407918023e-13 
 3.8797543979192580e-13  4.0340541097793579e-13  4.1944903960011569e-13  4.3613073111276673e-13 
 4.5347586158699530e-13  4.7151081631261786e-13  4.9026302993528417e-13  5.0976102818987211e-13 
 5.3003447129364013e-13  5.5111419906514844e-13  5.7303227783758052e-13  5.9582204923783117e-13 
 6.1951818090556321e-13  6.4415671922938588e-13  6.6977514418037638e-13  6.9641242632636073e-13 
 7.2410908611367570e-13  7.5290725550660232e-13  7.8285074207822433e-13  8.1398509565021566e-13 
 8.4635767758292378e-13  8.8001773282115548e-13  9.1501646480525690e-13  9.5140711336144785e-13 
 9.8924503568989154e-13  1.0285877905736999e-12  1.0694952259369758e-12  1.1120295698850782e-12 
 1.1562555253656092e-12  1.2022403685941117e-12  1.2500540513942085e-12  1.2997693076078594e-12 
 1.3514617637376092e-12  1.4052100539891311e-12  1.4610959398890719e-12  1.5192044346601597e-12 
 1.5796239325427683e-12  1.6424463432596720e-12  1.7077672318285267e-12  1.7756859639347645e-12 
 1.8463058570860460e-12  1.9197343377781960e-12  1.9960831049117139e-12  2.0754682997074378e-12 
 2.1580106823798449e-12  2.2438358158367334e-12  2.3330742566847413e-12  2.4258617538312487e-12 
 2.5223394549847782e-12  2.6226541213680283e-12  2.7269583509701449e-12  2.8354108106778600e-12 
 2.9481764776385984e-12  3.0654268902227252e-12  3.1873404089666870e-12  3.3141024878939981e-12 
 3.4459059566268108e-12  3.5829513137171916e-12  3.7254470316443573e-12  3.8736098739417896e-12 
 4.0276652249366819e-12  4.1878474326032700e-12  4.3544001650516476e-12  4.5275767811943135e-12 
 4.7076407161543203e-12  4.8948658820013219e-12  5.0895370844250943e-12  5.2919504559803875e-12 
 5.5024139065621543e-12  5.7212475917964220e-12  5.9487844000593168e-12  6.1853704588650964e-12 
 6.4313656613935080e-12  6.6871442139574152e-12  6.9530952052435197e-12  7.2296231981920920e-12 
 7.5171488454160662e-12  7.8161095290957146e-12  8.1269600263222393e-12  8.4501732009025061e-12 
 8.7862407226771718e-12  9.1356738154465209e-12  9.4990040346417211e-12  9.8767840759244920e-12 
 1.0269588615945244e-11  1.0678015186538625e-11  1.1102685083686307e-11  1.1544244312629761e-11 
 1.2003364570570685e-11  1.2480744268453973e-11  1.2977109593387598e-11  1.3493215613315508e-11 
 1.4029847425624047e-11  1.4587821351429057e-11  1.5167986177360508e-11  1.5771224446733608e-11 
 1.6398453802070535e-11  1.7050628381015099e-11  1.7728740267763627e-11  1.8433821002220256e-11 
 1.9166943149172145e-11  1.9929221929871730e-11  2.0721816918508007e-11  2.1545933806147494e-11 
 2.2402826234828176e-11  2.3293797704596481e-11  2.4220203556388362e-11  2.5183453033770631e-11 
 2.6185011426679193e-11  2.7226402300414938e-11  2.8309209813288307e-11  2.9435081126437976e-11 
 3.0605728909489608e-11  3.1822933945866167e-11  3.3088547841713207e-11  3.4404495842559828e-11 
 3.5772779762000013e-11  3.7195481026849656e-11  3.8674763843411367e-11  4.0212878489663848e-11 
 4.1812164738383818e-11  4.3475055416407758e-11  4.5204080105447943e-11  4.7001868990092547e-11 
 4.8871156858843267e-11  5.0814787264277085e-11  5.2835716848660610e-11  5.4937019841597057e-11 
 5.7121892736548196e-11  5.9393659153344603e-11  6.1755774894081913e-11  6.4211833200093590e-11 
 6.6765570217997629e-11  6.9420870683132191e-11  7.2181773829025909e-11  7.5052479531892584e-11 
 7.8037354699497408e-11  8.1140939914114021e-11  8.4367956339677322e-11  8.7723312903640310e-11 
 9.1212113764459603e-11  9.4839666076070159e-11  9.8611488061160832e-11  1.0253331740553228e-10 
 1.0661111998630789e-10  1.1085109894727501e-10  1.1525970413516419e-10  1.1984364191122058e-10 
 1.2460988535299530e-10  1.2956568486187682e-10  1.3471857919250025e-10  1.4007640692081506e-10 
 1.4564731836825869e-10  1.5143978800017803e-10  1.5746262731736259e-10  1.6372499826030418e-10 
 1.7023642714657812e-10  1.7700681916255239e-10  1.8404647343147558e-10  1.9136609868087246e-10 
 1.9897682953308711e-10  2.0689024344376328e-10  2.1511837831403869e-10  2.2367375080325345e-10 
 2.3256937537004241e-10  2.4181878407078595e-10  2.5143604714554870e-10  2.6143579442283288e-10 
 2.7183323757571590e-10  2.8264419326323907e-10  2.9388510719225369e-10  3.0557307913633088e-10 
 3.1772588894979101e-10  3.3036202361641532e-10  3.4350070537396809e-10  3.5716192095728279e-10 
 3.7136645200435704e-10  3.8613590667165491e-10  4.0149275250664250e-10  4.1746035062747712e-10 
 4.3406299126175383e-10  4.5132593069826405e-10  4.6927542970787265e-10  4.8793879349185420e-10 
 5.0734441321836396e-10  5.2752180921016354e-10  5.4850167584926596e-10  5.7031592826678335e-10 
 5.9299775088903834e-10  6.1658164791386803e-10  6.4110349579402220e-10  6.6660059780763362e-10 
 6.9311174079893384e-10  7.2067725417569964e-10  7.4933907125335555e-10  7.7914079303920960e-10 
 8.1012775455400944e-10  8.4234709379184861e-10  8.7584782342406321e-10  9.1068090536417795e-10 
 9.4689932832412217e-10  9.8455818843100129e-10  1.0237147730422834e-09  1.0644286478939105e-09 
 1.1067617477144563e-09  1.1507784704431958e-09  1.1965457751954200e-09  1.2441332841240490e-09 
 1.2936133883325059e-09  1.3450613579999897e-09  1.3985554568866934e-09  1.4541770613931704e-09 
 1.5120107843549899e-09  1.5721446037610245e-09  1.6346699965911993e-09  1.6996820779773313e-09 
 1.7672797458987780e-09  1.8375658316330424e-09  1.9106472561902344e-09  1.9866351929693898e-09 
 2.0656452368841344e-09  2.1477975802149974e-09  2.2332171954559261e-09  2.3220340254332124e-09 
 2.4143831809860686e-09  2.5104051465096480e-09  2.6102459936732186e-09  2.7140576036386779e-09 
 2.8219978981174959e-09  2.9342310796176701e-09  3.0509278812462088e-09  3.1722658264472325e-09 
 3.2984294990709037e-09  3.4296108241840802e-09  3.5660093600500062e-09  3.7078326017212508e-09 
 3.8552962967078813e-09  4.0086247732011490e-09  4.1680512813521448e-09  4.3338183481246692e-09 
 4.5061781462623121e-09  4.6853928779311354e-09  4.8717351736217476e-09  5.0654885069177243e-09 
 5.2669476257615450e-09  5.4764190008742671e-09  5.6942212920112814e-09  5.9206858327636816e-09 
 6.1561571346429174e-09  6.4009934112158595e-09  6.6555671230878313e-09  6.9202655445629447e-09 
 7.1954913528440582e-09  7.4816632406690087e-09  7.7792165533153681e-09  8.0886039509431720e-09 
 8.4102960972835775e-09  8.7447823757214764e-09  9.0925716338619154e-09  9.4541929577133923e-09 
 9.8301964766662631e-09  1.0221154200491397e-08  1.0627660889632891e-08  1.1050334960119393e-08 
 1.1489819424471276e-08  1.1946782870035753e-08  1.2421920476238891e-08  1.2915955072302858e-08 
 1.3429638237038308e-08  1.3963751442385852e-08  1.4519107242447175e-08  1.5096550509815722e-08 
 1.5696959721088748e-08  1.6321248293517510e-08  1.6970365974830343e-08  1.7645300288344090e-08 
 1.8347078035563830e-08  1.9076766858558208e-08  1.9835476864488839e-08  2.0624362314766793e-08 
 2.1444623381407779e-08  2.2297507973259789e-08  2.3184313634883518e-08  2.4106389520976716e-08 
 2.5065138449348230e-08  2.6062019035567676e-08  2.7098547912540776e-08  2.8176302038389959e-08 
 2.9296921096154200e-08  3.0462109988962188e-08  3.1673641434478163e-08  3.2933358662571078e-08 
 3.4243178220315375e-08  3.5605092888594541e-08  3.7021174714749397e-08  3.8493578165889442e-08 
 4.0024543407669790e-08  4.1616399713527259e-08  4.3271569009568160e-08  4.4992569560507029e-08 
 4.6782019802270523e-08  4.8642642327104675e-08  5.0577268027255584e-08  5.2588840403535877e-08 
 5.4680420045340567e-08  5.6855189288937271e-08  5.9116457061127775e-08  6.1467663915660589e-08 
 6.3912387270067983e-08  6.6454346850906765e-08  6.9097410355700519e-08  7.1845599340210262e-08 
 7.4703095340005819e-08  7.7674246235666460e-08  8.0763572871312039e-08  8.3975775936551520e-08 
 8.7315743122338802e-08  9.0788556561642742e-08  9.4399500566273750e-08  9.8154069671661729e-08 
 1.0205797700184861e-07  1.0611716296744993e-07  1.1033780430984646e-07  1.1472632350539655e-07 
 1.1928939854400960e-07  1.2403397309699262e-07  1.2896726708967652e-07  1.3409678769494747e-07 
 1.3943034076445183e-07  1.4497604271491098e-07  1.5074233288767923e-07  1.5673798640040067e-07 
 1.6297212751037295e-07  1.6945424351000892e-07  1.7619419917559965e-07  1.8320225179142967e-07 
 1.9048906677217414e-07  1.9806573390742407e-07  2.0594378425313637e-07  2.1413520769579560e-07 
 2.2265247121610496e-07  2.3150853788009323e-07  2.4071688658663848e-07  2.5029153260156825e-07 
 2.6024704890969973e-07  2.7059858841743527e-07  2.8136190703983549e-07  2.9255338770744161e-07 
 3.0419006532953213e-07  3.1628965275196630e-07  3.2887056774928571e-07  3.4195196109233848e-07 
 3.5555374573433406e-07  3.6969662715995701e-07  3.8440213494394875e-07  3.9969265556742679e-07 
 4.1559146654213772e-07  4.3212277189485063e-07  4.4931173906618689e-07  4.6718453728035395e-07 
 4.8576837744451244e-07  5.0509155363885544e-07  5.2518348626092552e-07  5.4607476689023808e-07 
 5.6779720494193125e-07  5.9038387618090268e-07  6.1386917317077470e-07  6.3828885773499401e-07 
 6.6368011551047771e-07  6.9008161267744210e-07  7.1753355495240149e-07  7.4607774893481616e-07 
 7.7575766590149558e-07  8.0661850814664548e-07  8.3870727796936869e-07  8.7207284941452211e-07 
 9.0676604287708621e-07  9.4283970268462382e-07  9.8034877777701167e-07  1.0193504056074176e-06 
 1.0599039993934809e-06  1.1020713388528349e-06  1.1459166645625171e-06  1.1915067760874095e-06 
 1.2389111340287111e-06  1.2882019661495118e-06  1.3394543777408733e-06  1.3927464663983901e-06 
 1.4481594413860716e-06  1.5057777477715023e-06  1.5656891955236601e-06  1.6279850937724984e-06 
 1.6927603904374210e-06  1.7601138174401500e-06  1.8301480417261981e-06  1.9029698223281916e-06 
 1.9786901737137452e-06  2.0574245356703886e-06  2.1392929499902643e-06  2.2244202442279408e-06 
 2.3129362228157823e-06  2.4049758658327908e-06  2.5006795357348740e-06  2.6001931923669605e-06 
 2.7036686165903787e-06  2.8112636428724614e-06  2.9231424011994225e-06  3.0394755686882191e-06 
 3.1604406312883931e-06  3.2862221559808002e-06  3.4170120738966633e-06  3.5530099747976756e-06 
 3.6944234133758152e-06  3.8414682278502225e-06  3.9943688713580159e-06  4.1533587566561378e-06 
 4.3186806146725298e-06  4.4905868674668716e-06  4.6693400161840982e-06  4.8552130446077411e-06 
 5.0484898389450489e-06  5.2494656245017198e-06  5.4584474199311275e-06  5.6757545097709770e-06 
 5.9017189360096950e-06  6.1366860094553637e-06  6.3810148417118087e-06  6.6350788985996804e-06 
 6.8992665758948062e-06  7.1739817982922210e-06  7.4596446425417323e-06  7.7566919857400678e-06 
 8.0655781798053378e-06  8.3867757532021956e-06  8.7207761410302545e-06  9.0680904446346091e-06 
 9.4292502219455152e-06  9.8048083098043841e-06  1.0195339679585813e-05  1.0601442327479841e-05 
 1.1023738200855715e-05  1.1462874162187814e-05  1.1919522992086403e-05  1.2394384433040538e-05 
 1.2888186275547907e-05  1.3401685488376842e-05  1.3935669394779056e-05  1.4490956896548468e-05 
 1.5068399747901334e-05  1.5668883881236485e-05  1.6293330786921527e-05  1.6942698949341934e-05 
 1.7617985341544805e-05  1.8320226980908343e-05  1.9050502548371650e-05  1.9809934073867369e-05 
 2.0599688690712972e-05  2.1420980461834122e-05  2.2275072280817009e-05  2.3163277850915217e-05 
 2.4086963745271101e-05  2.5047551551752461e-05  2.6046520105951906e-05  2.7085407816050192e-05 
 2.8165815083405002e-05  2.9289406822894725e-05  3.0457915087222079e-05  3.1673141799566114e-05 
 3.2936961599162802e-05  3.4251324804595357e-05  3.5618260499785436e-05  3.7039879747895872e-05 
 3.8518378938586049e-05  4.0056043274300915e-05  4.1655250401527231e-05  4.3318474193214013e-05 
 4.5048288688830213e-05  4.6847372198821873e-05  4.8718511580534015e-05  5.0664606692979358e-05 
 5.2688675038168505e-05  5.4793856597064706e-05  5.6983418868590576e-05  5.9260762120497656e-05 
 6.1629424861309669e-05  6.4093089542971858e-05  6.6655588504278802e-05  6.9320910165616520e-05 
 7.2093205486039238e-05  7.4976794694210471e-05  7.7976174305272934e-05  8.1096024436271566e-05 
 8.4341216433343589e-05  8.7716820824507470e-05  9.1228115612531485e-05  9.4880594923045248e-05 
 9.8679978023773413e-05  1.0263221873152379e-04  1.0674351522435356e-04  1.1102032027716889e-04 
 1.1546935193988762e-04  1.2009760467821443e-04  1.2491236099804558e-04  1.2992120357553728e-04 
 1.3513202791594315e-04  1.4055305556545287e-04  1.4619284790145051e-04  1.5206032052785998e-04 
 1.5816475830356068e-04  1.6451583103324158e-04  1.7112360985152117e-04  1.7799858433270013e-04 
 1.8515168036013253e-04  1.9259427879091148e-04  2.0033823495336700e-04  2.0839589901677213e-04 
 2.1678013727465911e-04  2.2550435438526166e-04  2.3458251661482806e-04  2.4402917613190793e-04 
 2.5385949640319855e-04  2.6408927874416134e-04  2.7473499008039240e-04  2.8581379197865578e-04 
 2.9734357100958195e-04  3.0934297050730212e-04  3.2183142379474199e-04  3.3482918894694704e-04 
 3.4835738516867461e-04  3.6243803086656313e-04  3.7709408350051137e-04  3.9234948130345727e-04 
 4.0822918696358109e-04  4.2475923336806606e-04  4.4196677151295456e-04  4.5988012068936347e-04 
 4.7852882106237931e-04  4.9794368876536954e-04  5.1815687363923417e-04  5.3920191975331800e-04 
 5.6111382885231645e-04  5.8392912688158094e-04  6.0768593375177030e-04  6.3242403651285646e-04 
 6.5818496611707732e-04  6.8501207796060762e-04  7.1295063640447638e-04  7.4204790348668468e-04 
 7.7235323204958065e-04  8.0391816351935185e-04  8.3679653058810882e-04  8.7104456506342310e-04 
 9.0672101116545331e-04  9.4388724456797722e-04  9.8260739749679604e-04  1.0229484902171543e-03 
 1.0649805692610778e-03  1.1087768527659552e-03  1.1544138833173077e-03  1.2019716887116175e-03 
 1.2515339510793622e-03  1.3031881848341138e-03  1.3570259239408156e-03  1.4131429190251676e-03 
 1.4716393448766059e-03  1.5326200189296584e-03  1.5961946313426964e-03  1.6624779873292161e-03 
 1.7315902624351117e-03  1.8036572714958047e-03  1.8788107520498639e-03  1.9571886630308914e-03 
 2.0389354996071512e-03  2.1242026250887234e-03  2.2131486208750613e-03  2.3059396554717918e-03 
 2.4027498736645648e-03  2.5037618069998382e-03  2.6091668067878080e-03  2.7191655009113597e-03 
 2.8339682757970498e-03  2.9537957849798094e-03  3.0788794857724349e-03  3.2094622056339718e-03 
 3.3457987399181000e-03  3.4881564827732737e-03  3.6368160930611718e-03  3.7920721972585464e-03 
 3.9542341314100704e-03  4.1236267243061576e-03  4.3005911241698353e-03  4.4854856712505178e-03 
 4.6786868188397682e-03  4.8805901053445315e-03  5.0916111801767002e-03  5.3121868863437336e-03 
 5.5427764027529232e-03  5.7838624493713239e-03  6.0359525585134991e-03  6.2995804156593810e-03 
 6.5753072733336707e-03  6.8637234417052179e-03  7.1654498596885755e-03  7.4811397504484234e-03 
 7.8114803653199331e-03  8.1571948202615076e-03  8.5190440290491970e-03  8.8978287375014488e-03 
 9.2943916630861823e-03  9.7096197443060899e-03  1.0144446504279018e-02  1.0599854532924493e-02 
 1.1076878092130061e-02  1.1576605848197797e-02  1.2100183735756203e-02  1.2648817957159997e-02 
 1.3223778121183824e-02  1.3826400524537990e-02  1.4458091579388046e-02  1.5120331389636376e-02 
 1.5814677478215102e-02  1.6542768667034548e-02  1.7306329110522375e-02  1.8107172482862414e-02 
 1.8947206318090302e-02  1.9828436501112139e-02  2.0752971906472246e-02  2.1723029180293618e-02 
 2.2740937659239166e-02  2.3809144418580428e-02  2.4930219439502840e-02  2.6106860883611600e-02 
 2.7341900460219861e-02  2.8638308869393215e-02  2.9999201300883488e-02  3.1427842966005599e-02 
 3.2927654636189636e-02  3.4502218158374814e-02  3.6155281913603454e-02  3.7890766181121374e-02 
 3.9712768366002113e-02  4.1625568043787066e-02  4.3633631770874530e-02  4.5741617604397426e-02 
 4.7954379270094175e-02  5.0276969911184077e-02  5.2714645345478095e-02  5.5272866751839449e-02 
 5.7957302700585127e-02  6.0773830435387727e-02  6.3728536306563041e-02  6.6827715247139860e-02 
 7.0077869173598720e-02  7.3485704182392947e-02  7.7058126401075414e-02  8.0802236338789746e-02 
 8.4725321564840292e-02  8.8834847525901747e-02  9.3138446292216737e-02  9.7643903001127061e-02 
 1.0235913974311123e-01  1.0729219661219895e-01  1.1245120962076381e-01  1.1784438516040464e-01 
 1.2347997067866186e-01  1.2936622123898905e-01  1.3551136164246858e-01  1.4192354381819852e-01 
 1.4861079923898896e-01  1.5558098619337193e-01  1.6284173184634501e-01  1.7040036915051882e-01 
 1.7826386882498982e-01  1.8643876679699314e-01  1.9493108769346223e-01  2.0374626516454897e-01 
 2.1288906000398194e-01  2.2236347718445026e-01  2.3217268303238478e-01  2.4231892381125641e-01 
 2.5280344695852502e-01  2.6362642613266091e-01  2.7478689108976689e-01  2.8628266325205542e-01 
 2.9811029768628050e-01  3.1026503211019740e-01  3.2274074350927712e-01  3.3552991297763846e-01 
 3.4862359948207777e-01  3.6201142335730513e-01  3.7568156043637846e-01  3.8962074776178585e-01 
 4.0381430176841154e-01  4.1824614963955931e-01  4.3289887417357686e-01  4.4775377193096094e-01 
 4.6279092364863794e-01  4.7798927493700627e-01  4.9332672420878826e-01  5.0878021380585403e-01 
 5.2432581965648861e-01  5.3993883482029958e-01  5.5559384321766891e-01  5.7126478176653506e-01 
 5.8692499183358571e-01  6.0254726380450718e-01  6.1810388095368252e-01  6.3356666996993805e-01 
 6.4890706511098106e-01  6.6409619203960213e-01  6.7910497926053737e-01  6.9390426445725728e-01 
 7.0846493677639266e-01  7.2275810637763505e-01  7.3675525629214744e-01  7.5042840047186510e-01 
 7.6375023768083350e-01  7.7669429638170240e-01  7.8923506784567543e-01  8.0134812580963033e-01 
 8.1301023190363531e-01  8.2419942674460500e-01  8.3489510705157643e-01  8.4507808942258278e-01 
 8.5473066156679678e-01  8.6383662184966714e-01  8.7238130801642222e-01  8.8035161593479749e-01 
 8.8773600915737072e-01  8.9452452005732863e-01  9.0070874324448080e-01  9.0628182192345152e-01 
 9.1123842781437081e-01  9.1557473521821053e-01  9.1928838977404315e-01  9.2237847242369153e-01 
 9.2484545907019777e-01  9.2669117639118759e-01  9.2791875424393044e-01  9.2853257507673903e-01 
 9.2853822074521197e-01  9.2794241711492331e-01  9.2675297681635183e-01  9.2497874050587892e-01 
 9.2262951697481799e-01  9.1971602243748718e-01  9.1624981931759497e-01  9.1224325484393443e-01 
 9.0770939975138010e-01  9.0266198736516268e-01  8.9711535334146220e-01  8.9108437631862014e-01 
 8.8458441970994306e-01  8.7763127485361880e-01  8.7024110571364155e-01  8.6243039530333210e-01 
 8.5421589398003106e-01  8.4561456973605509e-01  8.3664356058749301e-01  8.2732012913925490e-01 
 8.1766161938242210e-01  8.0768541575869024e-01  7.9740890450690971e-01  7.8684943728862000e-01 
 7.7602429707326537e-01  7.6495066624956420e-01  7.5364559691771293e-01  7.4212598347995706e-01 
 7.3040853659092586e-01  7.1850976014490853e-01  7.0644592948117124e-01  6.9423307159413650e-01 
 6.8188694709582032e-01  6.6942303384694568e-01  6.5685651217317220e-01  6.4420225158320221e-01 
 6.3147479890630109e-01  6.1868836776793124e-01  6.0585682932366525e-01  5.9299370417321418e-01 
 5.8011215537824301e-01  5.6722498250958997e-01  5.5434461665157209e-01  5.4148311629325496e-01 
 5.2865216403904103e-01  5.1586306407266025e-01  5.0312674031178006e-01  4.9045373519298685e-01 
 4.7785420902962744e-01  4.6533793988801653e-01  4.5291432393062553e-01  4.4059237617810548e-01 
 4.2838073164598295e-01  4.1628764681487029e-01  4.0432100139703175e-01  3.9248830036615806e-01 
 3.8079667622111912e-01  3.6925289145849477e-01  3.5786334123277191e-01  3.4663405618717491e-01 
 3.3557070544214557e-01  3.2467859973244206e-01  3.1396269468768562e-01  3.0342759425485089e-01 
 2.9307755426466997e-01  2.8291648614713749e-01  2.7294796080430855e-01  2.6317521265093197e-01 
 2.5360114383565208e-01  2.4422832865739896e-01  2.3505901819268701e-01  2.2609514515026616e-01 
 2.1733832896976735e-01  2.0878988118060712e-01  2.0045081103658030e-01  1.9232183144014905e-01 
 1.8440336516848305e-01  1.7669555141104290e-01  1.6919825262576021e-01  1.6191106171782887e-01 
 1.5483330954186139e-01  1.4796407272474504e-01  1.4130218180304996e-01  1.3484622966538276e-01 
 1.2859458028672355e-01  1.2254537773861027e-01  1.1669655545610765e-01  1.1104584573987199e-01 
 1.0559078946934300e-01  1.0032874600118206e-01  9.5256903225553649e-02  9.0372287751708802e-02 
 8.5671775193569749e-02  8.1152100525607784e-02  7.6809868479229063e-02  7.2641563950090554e-02 
 6.8643562387231905e-02  6.4812140135582771e-02  6.1143484704241878e-02  5.7633704933882826e-02 
 5.4278841037724457e-02  5.1074874491633455e-02  4.8017737750085172e-02  4.5103323765912133e-02 
 4.2327495292974651e-02  3.9686093952100182e-02  3.7174949041855240e-02  3.4789886076940620e-02 
 3.2526735038246893e-02  3.0381338319874208e-02  2.8349558359726475e-02  2.6427284941650107e-02 
 2.4610442158484621e-02  2.2894995026850464e-02  2.1276955746017498e-02  1.9752389594751799e-02 
 1.8317420461631494e-02  1.6968236005929085e-02  1.5701092447757525e-02  1.4512318987743765e-02 
 1.3398321857998668e-02  1.2355588007568329e-02  1.1380688426853287e-02  1.0470281116647353e-02 
 9.6211137084609086e-03  8.8300257436462956e-03  8.0939506195344957e-03  7.4099172113305471e-03 
 6.7750511789151455e-03  6.1865759679831213e-03  5.6418135151429230e-03  5.1381846667333322e-03 
 4.6732093212151458e-03  4.2445063050937466e-03  3.8497929924491249e-03  3.4868846783121413e-03 
 3.1536937163435348e-03  2.8482284315524543e-03  2.5685918191343895e-03  2.3129800409083662e-03 
 2.0796807312789658e-03  1.8670711251252484e-03  1.6736160204981578e-03  1.4978655894994919e-03 
 1.3384530511476108e-03  1.1940922204377398e-03  1.0635749481299262e-03  9.4576846603834891e-04 
 8.3961265273769419e-04  7.4411723463578972e-04  6.5835893728034909e-04  5.8147860156870866e-04 
 5.1267827921343842e-04  4.5121832138712956e-04  3.9641447393282808e-04  3.4763499189094691e-04 
 3.0429778536933654e-04  2.6586760798217316e-04  2.3185329821983320e-04  2.0180508319300429e-04 
 1.7531195324446959e-04  1.5199911494335290e-04  1.3152552898861985e-04  1.1358153856167824e-04 
 9.7886592693591381e-05  8.4187068261252295e-05  7.2254193308251530e-05  6.1882073508351886e-05 
 5.2885822759487174e-05  4.5099798119840938e-05  3.8375938579448839e-05  3.2582206504333199e-05 
 2.7601129997738918e-05  2.3328443895853236e-05  1.9671826653739749e-05  1.6549729980489288e-05 
 1.3890297749379208e-05  1.1630370437028293e-05  9.7145711324245677e-06  8.0944689990693111e-06 
 6.7278159676977072e-06  5.5778523791636236e-06  4.6126772829469603e-06  3.8046791220478625e-06 
 3.1300225954037590e-06  2.5681875800198058e-06  2.1015561124675583e-06  1.7150435690772357e-06 
 1.3957703420370700e-06  1.1327704809195634e-06  9.1673395232816509e-07  7.3977936111479063e-07 
 5.9525417195984877e-07  4.7755966732912683e-07  3.8199807452433008e-07  3.0463948862531318e-07 
 2.4220640777660220e-07  1.9197388097920927e-07  1.5168344506446701e-07  1.1946919586021158e-07 
 9.3794497960495620e-08  7.3397987446362354e-08  5.7247662043496706e-08  4.4501983384959238e-08 
 3.4477036271185661e-08  2.6618900214996655e-08  2.0480489369096604e-08  1.5702208492424163e-08 
 1.1995855328518275e-08  9.1312741090629007e-09  6.9253313650155869e-09  5.2328443588639140e-09 
 3.9391447913595819e-09  2.9540065345938537e-09  2.2067065445883035e-09  1.6420233411476092e-09 
 1.2170080212042703e-09  8.9838918027563240e-10  6.6049581271236534e-10  4.8360167220411700e-10 
 3.5261109439901870e-10  2.5602027557131576e-10  1.8509979441520999e-10  1.3325405566297345e-10 
 9.5521590964982476e-11  6.8187011827555014e-11  4.8481081676483770e-11  3.4350044602673625e-11 
 2.4279179820298082e-11  0.0000000000000000e+00  0.0000000000000000e+00  0.0000000000000000e+00 
 0.0000000000000000e+00  0.0000000000000000e+00  0.0000000000000000e+00  0.0000000000000000e+00 
 0.0000000000000000e+00  0.0000000000000000e+00  0.0000000000000000e+00  0.0000000000000000e+00 
 0.0000000000000000e+00  0.0000000000000000e+00  0.0000000000000000e+00  0.0000000000000000e+00 
 0.0000000000000000e+00  0.0000000000000000e+00  0.0000000000000000e+00  0.0000000000000000e+00 
 0.0000000000000000e+00  0.0000000000000000e+00  0.0000000000000000e+00  0.0000000000000000e+00 
 0.0000000000000000e+00  0.0000000000000000e+00  0.0000000000000000e+00  0.0000000000000000e+00 
 0.0000000000000000e+00  0.0000000000000000e+00  0.0000000000000000e+00  0.0000000000000000e+00 
 0.0000000000000000e+00  0.0000000000000000e+00  0.0000000000000000e+00  0.0000000000000000e+00 
 0.0000000000000000e+00  0.0000000000000000e+00  0.0000000000000000e+00  0.0000000000000000e+00 
 0.0000000000000000e+00  0.0000000000000000e+00  0.0000000000000000e+00  0.0000000000000000e+00 
 0.0000000000000000e+00  0.0000000000000000e+00  0.0000000000000000e+00  0.0000000000000000e+00 
 0.0000000000000000e+00  0.0000000000000000e+00  0.0000000000000000e+00  0.0000000000000000e+00 
 0.0000000000000000e+00  0.0000000000000000e+00  0.0000000000000000e+00  0.0000000000000000e+00 
 0.0000000000000000e+00  0.0000000000000000e+00  0.0000000000000000e+00  0.0000000000000000e+00 
 0.0000000000000000e+00  0.0000000000000000e+00  0.0000000000000000e+00  0.0000000000000000e+00 
 0.0000000000000000e+00  0.0000000000000000e+00  0.0000000000000000e+00  0.0000000000000000e+00 
 0.0000000000000000e+00  0.0000000000000000e+00  0.0000000000000000e+00  0.0000000000000000e+00 
 0.0000000000000000e+00  0.0000000000000000e+00  0.0000000000000000e+00  0.0000000000000000e+00 
 0.0000000000000000e+00  0.0000000000000000e+00  0.0000000000000000e+00  0.0000000000000000e+00 
 0.0000000000000000e+00  0.0000000000000000e+00  0.0000000000000000e+00  0.0000000000000000e+00 
 0.0000000000000000e+00  0.0000000000000000e+00  0.0000000000000000e+00  0.0000000000000000e+00 
 0.0000000000000000e+00  0.0000000000000000e+00  0.0000000000000000e+00  0.0000000000000000e+00 
 0.0000000000000000e+00  0.0000000000000000e+00  0.0000000000000000e+00  0.0000000000000000e+00 
 0.0000000000000000e+00  0.0000000000000000e+00  0.0000000000000000e+00  0.0000000000000000e+00 
 0.0000000000000000e+00  0.0000000000000000e+00  0.0000000000000000e+00  0.0000000000000000e+00 
 0.0000000000000000e+00  0.0000000000000000e+00  0.0000000000000000e+00  0.0000000000000000e+00 
 0.0000000000000000e+00  0.0000000000000000e+00  0.0000000000000000e+00  0.0000000000000000e+00 
 0.0000000000000000e+00  0.0000000000000000e+00  0.0000000000000000e+00  0.0000000000000000e+00 
 0.0000000000000000e+00  0.0000000000000000e+00  0.0000000000000000e+00  0.0000000000000000e+00 
 0.0000000000000000e+00  0.0000000000000000e+00  0.0000000000000000e+00  0.0000000000000000e+00 
 0.0000000000000000e+00  0.0000000000000000e+00  0.0000000000000000e+00  0.0000000000000000e+00 
 0.0000000000000000e+00 
</PP_PSWFC>


<PP_RHOATOM>
 3.5072284925798413e-13  3.5996122310904342e-13  3.6944294456176506e-13  3.7917442362663276e-13 
 3.8916223916009112e-13  3.9941314331211996e-13  4.0993406609096085e-13  4.2073212004808632e-13 
 4.3181460508657308e-13  4.4318901339613537e-13  4.5486303451815049e-13  4.6684456054410505e-13 
 4.7914169145097133e-13  4.9176274057712650e-13  5.0471624024251050e-13  5.1801094751682730e-13 
 5.3165585013968539e-13  5.4566017259668269e-13  5.6003338235554337e-13  5.7478519626651785e-13 
 5.8992558713138064e-13  6.0546479044546088e-13  6.2141331131726649e-13  6.3778193157037864e-13 
 6.5458171703241874e-13  6.7182402501601578e-13  6.8952051199682929e-13  7.0768314149382345e-13 
 7.2632419215711366e-13  7.4545626606885884e-13  7.6509229726280921e-13  7.8524556046826597e-13 
 8.0592968008437246e-13  8.2715863939079614e-13  8.4894679000102995e-13  8.7130886156470682e-13 
 8.9425997172548776e-13  9.1781563634124772e-13  9.4199177997347768e-13  9.6680474665298894e-13 
 9.9227131092920211e-13  1.0184086892104857e-12  1.0452345514032146e-12  1.0727670328574183e-12 
 1.1010247466270901e-12  1.1300267960534508e-12  1.1597927876796713e-12  1.1903428445057878e-12 
 1.2216976195927666e-12  1.2538783100249205e-12  1.2869066712401141e-12  1.3208050317374421e-12 
 1.3555963081723404e-12  1.3913040208493037e-12  1.4279523096227228e-12  1.4655659502165612e-12 
 1.5041703709739188e-12  1.5437916700477999e-12  1.5844566330447194e-12  1.6261927511330548e-12 
 1.6690282396284129e-12  1.7129920570685527e-12  1.7581139247907757e-12  1.8044243470250108e-12 
 1.8519546315161874e-12  1.9007369106898272e-12  1.9508041633751786e-12  2.0021902371005648e-12 
 2.0549298709760373e-12  2.1090587191787818e-12  2.1646133750571861e-12  2.2216313958698291e-12 
 2.2801513281761551e-12  2.3402127338959694e-12  2.4018562170553873e-12  2.4651234512373247e-12 
 2.5300572077550802e-12  2.5967013845680482e-12  2.6651010359591405e-12  2.7353024029939633e-12 
 2.8073529447823255e-12  2.8813013705632664e-12  2.9571976726352342e-12  3.0350931601537231e-12 
 3.1150404938192034e-12  3.1970937214788070e-12  3.2813083146658130e-12  3.3677412061016839e-12 
 3.4564508281859612e-12  3.5474971525000734e-12  3.6409417303517550e-12  3.7368477343875048e-12 
 3.8352800013011888e-12  3.9363050756676884e-12  4.0399912549312392e-12  4.1464086355788414e-12 
 4.2556291605300064e-12  4.3677266677748412e-12  4.4827769402933940e-12  4.6008577572899869e-12 
 4.7220489467771834e-12  4.8464324395449567e-12  4.9740923245515449e-12  5.1051149057734410e-12 
 5.2395887605529509e-12  5.3776047994828065e-12  5.5192563278682629e-12  5.6646391088083401e-12 
 5.8138514279387255e-12  5.9669941598802594e-12  6.1241708364378094e-12  6.2854877165957533e-12 
 6.4510538583573275e-12  6.6209811924764407e-12  6.7953845981318335e-12  6.9743819805947216e-12 
 7.1580943509424733e-12  7.3466459078721713e-12  7.5401641216694776e-12  7.7387798203894663e-12 
 7.9426272783078041e-12  8.1518443067020506e-12  8.3665723470244097e-12  8.5869565665290627e-12 
 8.8131459564186711e-12  9.0452934325764220e-12  9.2835559389517413e-12  9.5280945536696336e-12 
 9.7790745979353407e-12  1.0036665747808042e-11  1.0301042148919125e-11  1.0572382534212605e-11 
 1.0850870344787405e-11  1.1136693853923157e-11  1.1430046294373358e-11  1.1731125989012108e-11 
 1.2040136484922668e-11  1.2357286691018548e-11  1.2682791019290272e-11  1.3016869529773324e-11 
 1.3359748079335186e-11  1.3711658474382395e-11  1.4072838627590572e-11  1.4443532718763744e-11 
 1.4823991359931482e-11  1.5214471764795799e-11  1.5615237922642141e-11  1.6026560776832377e-11 
 1.6448718408000344e-11  1.6881996222073925e-11  1.7326687143250883e-11  1.7783091812058936e-11 
 1.8251518788634118e-11  1.8732284761354833e-11  1.9225714760972901e-11  1.9732142380386357e-11 
 2.0251910000202577e-11  2.0785369020244692e-11  2.1332880097157479e-11  2.1894813388273753e-11 
 2.2471548801906196e-11  2.3063476254233980e-11  2.3670995932957968e-11  2.4294518567902835e-11 
 2.4934465708749381e-11  2.5591270010084733e-11  2.6265375523963564e-11  2.6957238000178094e-11 
 2.7667325194440196e-11  2.8396117184684119e-11  2.9144106695703783e-11  2.9911799432344625e-11 
 3.0699714421475171e-11  3.1508384362969994e-11  3.2338355989941454e-11  3.3190190438464167e-11 
 3.4064463627042545e-11  3.4961766646077844e-11  3.5882706157598827e-11  3.6827904805526364e-11 
 3.7798001636749855e-11  3.8793652533300263e-11  3.9815530655912721e-11  4.0864326899278636e-11 
 4.1940750359295792e-11  4.3045528812632618e-11  4.4179409208931745e-11  4.5343158175985218e-11 
 4.6537562538224669e-11  4.7763429848876694e-11  4.9021588936143856e-11  5.0312890463781823e-11 
 5.1638207506451690e-11  5.2998436140237448e-11  5.4394496048728502e-11  5.5827331145077980e-11 
 5.7297910210457884e-11  5.8807227549343851e-11  6.0356303662073595e-11  6.1946185935134111e-11 
 6.3577949349646428e-11  6.5252697208526501e-11  6.6971561882816695e-11  6.8735705577692169e-11 
 7.0546321118662168e-11  7.2404632758498761e-11  7.4311897005440292e-11  7.6269403473230374e-11 
 7.8278475753569479e-11  8.0340472311569848e-11  8.2456787404821422e-11  8.4628852026691612e-11 
 8.6858134874499098e-11  8.9146143343217476e-11  9.1494424545383410e-11  9.3904566357901127e-11 
 9.6378198496452479e-11  9.8916993618242876e-11  1.0152266845383022e-10  1.0419698496880472e-10 
 1.0694175155610972e-10  1.0975882425980992e-10  1.1265010803114089e-10  1.1561755801768969e-10 
 1.1866318088658377e-10  1.2178903618258654e-10  1.2499723772202081e-10  1.2828995502346821e-10 
 1.3166941477621549e-10  1.3513790234744747e-10  1.3869776332920765e-10  1.4235140512618202e-10 
 1.4610129858538195e-10  1.4994997966883692e-10  1.5390005117043469e-10  1.5795418447807544e-10 
 1.6211512138234154e-10  1.6638567593291215e-10  1.7076873634398964e-10  1.7526726695003409e-10 
 1.7988431021313988e-10  1.8462298878342312e-10  1.8948650761382640e-10  1.9447815613078427e-10 
 1.9960131046223176e-10  2.0485943572448050e-10  2.1025608836952399e-10  2.1579491859438182e-10 
 2.2147967281413095e-10  2.2731419620032009e-10  2.3330243528650853e-10  2.3944844064271889e-10 
 2.4575636962063998e-10  2.5223048917146775e-10  2.5887517873832429e-10  2.6569493322524124e-10 
 2.7269436604475798e-10  2.7987821224622731e-10  2.8725133172698241e-10  2.9481871252857689e-10 
 3.0258547422035745e-10  3.1055687137269483e-10  3.1873829712224232e-10  3.2713528683165752e-10 
 3.3575352184626963e-10  3.4459883335023150e-10  3.5367720632474657e-10  3.6299478361101012e-10 
 3.7255787008055873e-10  3.8237293691577169e-10  3.9244662600332090e-10  4.0278575444342219e-10 
 4.1339731917781291e-10  4.2428850173944355e-10  4.3546667312697143e-10  4.4693939880723195e-10 
 4.5871444384899277e-10  4.7079977819143620e-10  4.8320358205098117e-10  4.9593425147016028e-10 
 5.0900040401248154e-10  5.2241088460737259e-10  5.3617477154946828e-10  5.5030138265663870e-10 
 5.6480028159128132e-10  5.7968128434952620e-10  5.9495446592310992e-10  6.1063016713876471e-10 
 6.2671900168005818e-10  6.4323186329672696e-10  6.6017993320756735e-10  6.7757468771401759e-10 
 6.9542790605470018e-10  7.1375167843241682e-10  7.3255841424261862e-10  7.5186085051972925e-10 
 7.7167206060799601e-10  7.9200546306292457e-10  8.1287483078946812e-10  8.3429430042335026e-10 
 8.5627838196205254e-10  8.7884196865217808e-10  9.0200034714009561e-10  9.2576920789295549e-10 
 9.5016465589734860e-10  9.7520322164310555e-10  1.0009018723999189e-09  1.0272780237946886e-09 
 1.0543495516977153e-09  1.0821348044260786e-09  1.1106526152727842e-09  1.1399223153704830e-09 
 1.1699637468988212e-09  1.2007972766447366e-09  1.2324438099252555e-09  1.2649248048826338e-09 
 1.2982622871619395e-09  1.3324788649814771e-09  1.3675977446067233e-09  1.4036427462387640e-09 
 1.4406383203284907e-09  1.4786095643282083e-09  1.5175822398925328e-09  1.5575827905408751e-09 
 1.5986383597941101e-09  1.6407768097983998e-09  1.6840267404495129e-09  1.7284175090313339e-09 
 1.7739792503826861e-09  1.8207428976069532e-09  1.8687402033394344e-09  1.9180037615877417e-09 
 1.9685670301610613e-09  2.0204643537044899e-09  2.0737309873551418e-09  2.1284031210372146e-09 
 2.1845179044136968e-09  2.2421134725128864e-09  2.3012289720484422e-09  2.3619045884522337e-09 
 2.4241815736397812e-09  2.4881022745287130e-09  2.5537101623312061e-09  2.6210498626420090e-09 
 2.6901671863443213e-09  2.7611091613563985e-09  2.8339240652424461e-09  2.9086614587120819e-09 
 2.9853722200333771e-09  3.0641085803851493e-09  3.1449241601750586e-09  3.2278740063507722e-09 
 3.3130146307323084e-09  3.4004040493945158e-09  3.4901018231295163e-09  3.5821690990198327e-09 
 3.6766686531538584e-09  3.7736649345163290e-09  3.8732241100873597e-09  3.9754141111847165e-09 
 4.0803046810850763e-09  4.1879674239610165e-09  4.2984758551717327e-09  4.4119054529465957e-09 
 4.5283337115018932e-09  4.6478401956323441e-09  4.7705065968203352e-09  4.8964167909070667e-09 
 5.0256568973713181e-09  5.1583153402628999e-09  5.2944829108393807e-09  5.4342528319562382e-09 
 5.5777208242621825e-09  5.7249851742530615e-09  5.8761468042394467e-09  6.0313093442848765e-09 
 6.1905792061734397e-09  6.3540656594674804e-09  6.5218809097179905e-09  6.6941401788925001e-09 
 6.8709617880873081e-09  7.0524672425931288e-09  7.2387813193855692e-09  7.4300321571141773e-09 
 7.6263513486663750e-09  7.8278740363850433e-09  8.0347390100212997e-09  8.2470888075067000e-09 
 8.4650698186320737e-09  8.6888323917230972e-09  8.9185309434058705e-09  9.1543240715589956e-09 
 9.3963746715519739e-09  9.6448500558733238e-09  9.8999220772553167e-09  1.0161767255406133e-08 
 1.0430566907464043e-08  1.0706507282292465e-08  1.0989779698738861e-08  1.1280580687984906e-08 
 1.1579112140119972e-08  1.1885581455074789e-08  1.2200201698057252e-08  1.2523191759637117e-08 
 1.2854776520632316e-08  1.3195187021954983e-08  1.3544660639581053e-08  1.3903441264813770e-08 
 1.4271779490017506e-08  1.4649932800005204e-08  1.5038165769269521e-08  1.5436750265255366e-08 
 1.5845965657878500e-08  1.6266099035503465e-08  1.6697445427601942e-08  1.7140308034321198e-08 
 1.7594998463201736e-08  1.8061836973292142e-08  1.8541152726919294e-08  1.9033284049382329e-08 
 1.9538578696849256e-08  2.0057394132746628e-08  2.0590097812944264e-08  2.1137067480049171e-08 
 2.1698691467136016e-08  2.2275369011254468e-08  2.2867510577067985e-08  2.3475538190993561e-08 
 2.4099885786226683e-08  2.4740999559052736e-08  2.5399338336862207e-08  2.6075373958304966e-08 
 2.6769591666037739e-08  2.7482490512537788e-08  2.8214583779476363e-08  2.8966399411166929e-08 
 2.9738480462625393e-08  3.0531385562802668e-08  3.1345689393575485e-08  3.2181983185105731e-08 
 3.3040875228206810e-08  3.3922991404383494e-08  3.4828975734241381e-08  3.5759490944993552e-08 
 3.6715219057824989e-08  3.7696861995909531e-08  3.8705142213910535e-08  3.9740803349834677e-08 
 4.0804610900147970e-08  4.1897352919105526e-08  4.3019840743290608e-08  4.4172909742405051e-08 
 4.5357420097402061e-08  4.6574257607103999e-08  4.7824334524501488e-08  4.9108590423987472e-08 
 5.0427993100840306e-08  5.1783539504331362e-08  5.3176256705901417e-08  5.4607202903918183e-08 
 5.6077468466601847e-08  5.7588177014783497e-08  5.9140486546242192e-08  6.0735590603453447e-08 
 6.2374719486672588e-08  6.4059141514372404e-08  6.5790164333155298e-08  6.7569136279366850e-08 
 6.9397447794750702e-08  7.1276532898602768e-08  7.3207870719007922e-08  7.5192987085875161e-08 
 7.7233456188626826e-08  7.9330902301543384e-08  8.1487001579923990e-08  8.3703483930383752e-08 
 8.5982134958785781e-08  8.8324797999487572e-08  9.0733376229776835e-08  9.3209834873575895e-08 
 9.5756203498711753e-08  9.8374578412278924e-08  1.0106712515886270e-07  1.0383608112665148e-07 
 1.0668375826673429e-07  1.0961254593117123e-07  1.1262491383572717e-07  1.1572341515348336e-07 
 1.1891068974588186e-07  1.2218946753812264e-07  1.2556257204621301e-07  1.2903292406338089e-07 
 1.3260354551399135e-07  1.3627756348356272e-07  1.4005821443396786e-07  1.4394884861341514e-07 
 1.4795293467135538e-07  1.5207406448903414e-07  1.5631595823703086e-07  1.6068246967177285e-07 
 1.6517759168370919e-07  1.6980546211056714e-07  1.7457036982989148e-07  1.7947676114590473e-07 
 1.8452924648660517e-07  1.8973260742796234e-07  1.9509180406306858e-07  2.0061198273516468e-07 
 2.0629848415459648e-07  2.1215685192094938e-07  2.1819284147290557e-07  2.2441242948971369e-07 
 2.3082182376962837e-07  2.3742747361221058e-07  2.4423608073303951e-07  2.5125461074112802e-07 
 2.5849030521121664e-07  2.6595069438511036e-07  2.7364361053834558e-07  2.8157720205075472e-07 
 2.8975994822189949e-07  2.9820067487494196e-07  3.0690857079526890e-07  3.1589320505313235e-07 
 3.2516454526270791e-07  3.3473297683333497e-07  3.4460932327228138e-07  3.5480486760221274e-07 
 3.6533137496064438e-07  3.7620111645302209e-07  3.8742689433577988e-07  3.9902206861071422e-07 
 4.1100058511738740e-07  4.2337700521600543e-07  4.3616653715935194e-07  4.4938506925894770e-07 
 4.6304920495762959e-07  4.7717629992830932e-07  4.9178450132673131e-07  5.0689278933473870e-07 
 5.2252102113982290e-07  5.3868997750671235e-07  5.5542141210742524e-07  5.7273810378768292e-07 
 5.9066391195987878e-07  6.0922383532600147e-07  6.2844407414809470e-07  6.4835209629904867e-07 
 6.6897670734289341e-07  6.9034812491132344e-07  7.1249805766208044e-07  7.3545978912512828e-07 
 7.5926826676439393e-07  7.8396019660632245e-07  8.0957414381178702e-07  8.3615063959507540e-07 
 8.6373229492294862e-07  8.9236392145829323e-07  9.2209266024683396e-07  9.5296811868194865e-07 
 9.8504251632201372e-07  1.0183708401772172e-06  1.0530110101285312e-06  1.0890240551909473e-06 
 1.1264743013863359e-06  1.1654295720487580e-06  1.2059614014471055e-06  1.2481452626769005e-06 
 1.2920608108454026e-06  1.3377921426522751e-06  1.3854280735524560e-06  1.4350624337790817e-06 
 1.4867943846028720e-06  1.5407287563110532e-06  1.5969764095041114e-06  1.6556546214334991e-06 
 1.7168874992383512e-06  1.7808064220854592e-06  1.8475505143749524e-06  1.9172671523455400e-06 
 1.9901125065988765e-06  2.0662521232637907e-06  2.1458615467393557e-06  2.2291269871922165e-06 
 2.3162460362402610e-06  2.4074284345330290e-06  2.5028968952414205e-06  2.6028879877972370e-06 
 2.7076530865792594e-06  2.8174593896294972e-06  2.9325910129036280e-06  3.0533501660166359e-06 
 3.1800584159414440e-06  3.3130580456587204e-06  3.4527135153438928e-06  3.5994130343171510e-06 
 3.7535702526786831e-06  3.9156260823097733e-06  4.0860506577465534e-06  4.2653454483333746e-06 
 4.4540455340440595e-06  4.6527220584291472e-06  4.8619848733142635e-06  5.0824853911480894e-06 
 5.3149196622880218e-06  5.5600316960291184e-06  5.8186170458391153e-06  6.0915266810729098e-06 
 6.3796711694189891e-06  6.6840251964938746e-06  7.0056324513670249e-06  7.3456109093877896e-06 
 7.7051585465196951e-06  8.0855595224898210e-06  8.4881908734592864e-06  8.9145297586439158e-06 
 9.3661613093951184e-06  9.8447871337256014e-06  1.0352234534172397e-05  1.0890466502275232e-05 
 1.1461592558859881e-05  1.2067880515807239e-05  1.2711769242120527e-05  1.3395882524938631e-05 
 1.4123044124759238e-05  1.4896294133609648e-05  1.5718906755327156e-05  1.6594409638583194e-05 
 1.7526604905917631e-05  1.8519592035963131e-05  1.9577792771370695e-05  2.0705978241847887e-05 
 2.1909298510358118e-05  2.3193314771089097e-05  2.4564034450489001e-05  2.6027949487720422e-05 
 2.7592078098550142e-05  2.9264010357265385e-05  3.1051957964998002e-05  3.2964808610204753e-05 
 3.5012185368387120e-05  3.7204511633874276e-05  3.9553082127133021e-05  4.2070140577149011e-05 
 4.4768964740555023e-05  4.7663959488043671e-05  5.0770758764950823e-05  5.4106337317575293e-05 
 5.7689133170758210e-05  6.1539181946530631e-05  6.5678264229431456e-05  7.0130067312711172e-05 
 7.4920362802542072e-05  8.0077201716191452e-05  8.5631128886718715e-05  9.1615418683177750e-05 
 9.8066334273840019e-05  1.0502341290316161e-04  1.1252977992397160e-04  1.2063249462785500e-04 
 1.2938293125254729e-04  1.3883719891933586e-04  1.4905660467048122e-04  1.6010816424153222e-04 
 1.7206516572173245e-04  1.8500779183376224e-04  1.9902380720885493e-04  2.1420931775269873e-04 
 2.3066961000025124e-04  2.4852007925344117e-04  2.6788725629564391e-04  2.8890994359301325e-04 
 3.1174047313884626e-04  3.3654609948838461e-04  3.6351054308475647e-04  3.9283570071105267e-04 
 4.2474354183990210e-04  4.5947821181374925e-04  4.9730836520252742e-04  5.3852975537947495e-04 
 5.8346810936273118e-04  6.3248232032577683e-04  6.8596799392337459e-04  7.4436138875524666e-04 
 8.0814379594579028e-04  8.7784640800815336e-04  9.5405573294398468e-04  1.0374196159709914e-03 
 1.1286539384403548e-03  1.2285500714831652e-03  1.3379831707946844e-03  1.4579214088205755e-03 
 1.5894362515514067e-03  1.7337138992705224e-03  1.8920680240543163e-03  2.0659539517202934e-03 
 2.2569844523939739e-03  2.4669473220656872e-03  2.6978249575869868e-03  2.9518161496757097e-03 
 3.2313603428277722e-03  3.5391646377475930e-03  3.8782338411862769e-03  4.2519039000978726e-03 
 4.6638790919675361e-03  5.1182733812046993e-03  5.6196563927915525e-03  6.1731044990785532e-03 
 6.7842575638461088e-03  7.4593819395944432e-03  8.2054403695280831e-03  9.0301695048577834e-03 
 9.9421658107726532e-03  1.0950980700571725e-02  1.2067225806718722e-02  1.3302689369596530e-02 
 1.4670464798942920e-02  1.6185092538619480e-02  1.7862716441570933e-02  1.9721255937401202e-02 
 2.1780595348484776e-02  2.4062791780198087e-02  2.6592303074603831e-02  2.9396237372279976e-02 
 3.2504625871067873e-02  3.5950720399987014e-02  3.9771317437618206e-02  4.4007110192585006e-02 
 4.8703070324548625e-02  5.3908860812044788e-02  5.9679281362704131e-02  6.6074747605609205e-02 
 7.3161805098036173e-02  8.1013678912531875e-02  8.9710859237860568e-02  9.9341723021348721e-02 
 1.1000319119308301e-01  1.2180142043694718e-01  1.3485252780260581e-01  1.4928334567971105e-01 
 1.6523220377492767e-01  1.8284973373869096e-01  2.0229969097765521e-01  2.2375978695717105e-01 
 2.4742252394335346e-01  2.7349602265471779e-01  3.0220483168808193e-01  3.3379070585228687e-01 
 3.6851333868700370e-01  4.0665103246429829e-01  4.4850128687171731e-01  4.9438128536475628e-01 
 5.4462825586691677e-01  5.9959968010950038e-01  6.5967332347685981e-01  7.2524705481139851e-01 
 7.9673842331725220e-01  8.7458395759595497e-01  9.5923815010375724e-01  1.0511720891340337e+00 
 1.1508717000390796e+00  1.2588355580936192e+00  1.3755722374774491e+00  1.5015971646370412e+00 
 1.6374289500765840e+00  1.7835851806686132e+00  1.9405776649930626e+00  2.1089071369733761e+00 
 2.2890574379216377e+00  2.4814892135189419e+00  2.6866331794803968e+00  2.9048830267408188e+00 
 3.1365880529391004e+00  3.3820456208984533e+00  3.6414935561249608e+00  3.9151026039503134e+00 
 4.2029690731488074e+00  4.5051077972985034e+00  4.8214455485260608e+00  5.1518150410409227e+00 
 5.4959496640443426e+00  5.8534790846619238e+00  6.2239258604385475e+00  6.6067031961628899e+00 
 7.0011139695305404e+00  7.4063511323366997e+00  7.8214995663180691e+00  8.2455394334105687e+00 
 8.6773510078015121e+00  9.1157209122858713e+00  9.5593496078423392e+00  1.0006859911334782e+01 
 1.0456806255139755e+01  1.0907684371098355e+01  1.1357941095418775e+01  1.1805984059385320e+01 
 1.2250191147155389e+01  1.2688919743848292e+01  1.3120515929293806e+01  1.3543323858550348e+01 
 1.3955695584984085e+01  1.4356001561959859e+01  1.4742642151478989e+01  1.5114058682818836e+01 
 1.5468745778005022e+01  1.5805264538387867e+01  1.6122254538323983e+01  1.6418445555217112e+01 
 1.6692668492598767e+01  1.6943865191255231e+01  1.7171096925898890e+01  1.7373551449425754e+01 
 1.7550548505342711e+01  1.7701543778418589e+01  1.7826131293382964e+01  1.7924044302400048e+01 
 1.7995154725560205e+01  1.8039471226339124e+01  1.8057136017251423e+01  1.8048420500838102e+01 
 1.8013719858426171e+01  1.7953546704272991e+01  1.7868523926063759e+01  1.7759376834445174e+01 
 1.7626924744468820e+01  1.7472072110567812e+01  1.7295799334080577e+01  1.7099153358456583e+01 
 1.6883238162233006e+01  1.6649205252056177e+01  1.6398244261671103e+01  1.6131573728235406e+01 
 1.5850432145008941e+01  1.5556069353603334e+01  1.5249738340787289e+01  1.4932687493894228e+01 
 1.4606153359730985e+01  1.4271353942891313e+01  1.3929482570612372e+01  1.3581702337622069e+01 
 1.3229141168987994e+01  1.2872887449508674e+01  1.2513986271413696e+01  1.2153436263076088e+01 
 1.1792186988944490e+01  1.1431136900519657e+01  1.1071131813904731e+01  1.0712963885839018e+01 
 1.0357371057156232e+01  1.0005036930266636e+01  9.6565910455232107e+00  9.3126095201625425e+00 
 8.9736160128768816e+00  8.6400829769341154e+00  8.3124331650754399e+00  7.9910413501408222e+00 
 7.6762362264544439e+00  7.3683024583984018e+00  7.0674828442732105e+00  6.7739805678547134e+00 
 6.4879614972743385e+00  6.2095565304110689e+00  5.9388639382270565e+00  5.6759516973743747e+00 
 5.4208597907471816e+00  5.1736024594372028e+00  4.9341703918313318e+00  4.7025328377919458e+00 
 4.4786396379679179e+00  4.2624231602810774e+00  4.0538001375054256e+00  3.8526734015937634e+00 
 3.6589335120015987e+00  3.4724602767062720e+00  3.2931241659185706e+00  3.1207876196352653e+00 
 2.9553062511875416e+00  2.7965299497944605e+00  2.6443038858630419e+00  2.4984694233689284e+00 
 2.3588649441216498e+00  2.2253265890747977e+00  2.0976889220904926e+00  1.9757855217188687e+00 
 1.8594495066216727e+00  1.7485140002475483e+00  1.6428125402838341e+00  1.5421794382646488e+00 
 1.4464500945161856e+00  1.3554612733781746e+00  1.2690513433631041e+00  1.1870604866094001e+00 
 1.1093308816586207e+00  1.0357068632462596e+00  9.6603506244747328e-01  9.0016453016809528e-01 
 8.3794684662310304e-01  7.7923621910360963e-01  7.2388957000395748e-01  6.7176661676383598e-01 
 6.2272994508277180e-01  5.7664507648731311e-01  5.3338053107451622e-01  4.9280788602296688e-01 
 4.5480183025488702e-01  4.1924021545040657e-01  3.8600410345864855e-01  3.5497781001915246e-01 
 3.2604894460110789e-01  2.9910844608680576e-01  2.7405061396760755e-01  2.5077313468470769e-01 
 2.2917710273135947e-01  2.0916703613612470e-01  1.9065088596609581e-01  1.7354003952275365e-01 
 1.5774931694888966e-01  1.4319696102055146e-01  1.2980461996096113e-01  1.1749732318156227e-01 
 1.0620344992664310e-01  9.5854690870340542e-02  8.6386002786436739e-02  7.7735556480573370e-02 
 6.9844678239918967e-02  6.2657785115744893e-02  5.6122314408848531e-02  5.0188647775577008e-02 
 4.4810030412866485e-02  3.9942485813919695e-02  3.5544726611786218e-02  3.1578062046253047e-02 
 2.8006302600348788e-02  2.4795662356680362e-02  2.1914659621204962e-02  1.9334016353432903e-02 
 1.7026556927983088e-02  1.4967106733483625e-02  1.3132391091641197e-02  1.1500934952518950e-02 
 1.0052963792281839e-02  8.7703061074867038e-03  7.6362978659965542e-03  6.6356892393342080e-03 
 5.7545539052601029e-03  4.9802011730547520e-03  4.3010911478441700e-03  3.7067531147164327e-03 
 3.1877072887051623e-03  2.7353900432729593e-03  2.3420826979905596e-03  2.0008439159092299e-03 
 1.7054457328578010e-03  1.4503132147148368e-03  1.2304677147250650e-03  1.0414736812234952e-03 
 8.7938894674095033e-04  7.4071841239703700e-04  6.2237102671552523e-04  5.2161994546881659e-04 
 4.3606574879366257e-04  3.6360258351931640e-04  3.0238709229430739e-04  2.5080998655792921e-04 
 2.0747011753702768e-04  1.7115089811133884e-04  1.4079892843277438e-04  1.1550467945708017e-04 
 9.4485090904371298e-05  7.7067943466817922e-05  6.2677869191741568e-05  5.0823868757964396e-05 
 4.1088209711300649e-05  3.3116585518297481e-05  2.6609421430078486e-05  2.1314219524254060e-05 
 1.7018841821013256e-05  1.3545636970482700e-05  1.0746322607404358e-05  8.4975420008501528e-06 
 6.6970200329594573e-06  5.2602497710796756e-06  4.1176469091804138e-06  3.2121151112292660e-06 
 2.4969707626207837e-06  1.9341808037241784e-06  1.4928721665123774e-06  1.1480758513416002e-06 
 8.7967286200339803e-07  6.7151306381997247e-07  5.1068154679776825e-07  3.8689027239736822e-07 
 2.9197567026523970e-07  2.1948544466208701e-07  1.6434016576077174e-07  1.2255727628692897e-07 
 9.1026957897061348e-08  6.7330893458731264e-08  4.9596350316617338e-08  3.6379214725292515e-08 
 2.6570647375264067e-08  1.9322922014712620e-08  1.3990770290463260e-08  1.0085201718050691e-08 
 7.2373125837120404e-09  5.1700547991114891e-09  3.6763172571998313e-09  2.6019888431579037e-09 
 1.8329335299310915e-09  1.2850224067987504e-09  8.9654247672589917e-10  6.2244406958049433e-10 
 4.3000332310447829e-10  2.9556815305554234e-10  2.0212952130784204e-10  1.3751804060659549e-10 
 9.3071893753511799e-11  6.2658080738595873e-11  4.1957111891572684e-11  2.7943057216415241e-11 
 1.8507661053247655e-11  1.2190105143206020e-11  7.9838108238365751e-12  5.1990982797483739e-12 
 3.3661115277382495e-12  2.1666007406653097e-12  1.3862640249328086e-12  8.8164957128397707e-13 
 5.5730746769643416e-13  3.5011272429308629e-13  2.1857474131293922e-13  1.3559244321511316e-13 
 8.3575374552783458e-14  5.1179013331175474e-14  3.1134300689740928e-14  1.8814051989354288e-14 
 1.1292327285424191e-14  6.7313755622315149e-15  3.9847792255779512e-15  2.3423138396257964e-15 
 1.3670551780960326e-15  7.9211158512100355e-16  4.5562203789505220e-16  2.6013527079889190e-16 
 1.4741018602930559e-16  8.2898468761020294e-17  4.6260760852324079e-17  2.5614286202298799e-17 
 1.4070530974917571e-17  7.6674796327450652e-18  4.1444198268003955e-18  2.2217704849068731e-18 
 1.1811785469860999e-18  6.2269062428431829e-19  3.2548837197925353e-19  1.6868811183099285e-19 
 8.6681556234573515e-20  4.4169951528725707e-20  2.2328945164957959e-20  1.1209292859953841e-20 
 5.6000464410905118e-21  0.0000000000000000e+00  0.0000000000000000e+00  0.0000000000000000e+00 
 0.0000000000000000e+00  0.0000000000000000e+00  0.0000000000000000e+00  0.0000000000000000e+00 
 0.0000000000000000e+00  0.0000000000000000e+00  0.0000000000000000e+00  0.0000000000000000e+00 
 0.0000000000000000e+00  0.0000000000000000e+00  0.0000000000000000e+00  0.0000000000000000e+00 
 0.0000000000000000e+00  0.0000000000000000e+00  0.0000000000000000e+00  0.0000000000000000e+00 
 0.0000000000000000e+00  0.0000000000000000e+00  0.0000000000000000e+00  0.0000000000000000e+00 
 0.0000000000000000e+00  0.0000000000000000e+00  0.0000000000000000e+00  0.0000000000000000e+00 
 0.0000000000000000e+00  0.0000000000000000e+00  0.0000000000000000e+00  0.0000000000000000e+00 
 0.0000000000000000e+00  0.0000000000000000e+00  0.0000000000000000e+00  0.0000000000000000e+00 
 0.0000000000000000e+00  0.0000000000000000e+00  0.0000000000000000e+00  0.0000000000000000e+00 
 0.0000000000000000e+00  0.0000000000000000e+00  0.0000000000000000e+00  0.0000000000000000e+00 
 0.0000000000000000e+00  0.0000000000000000e+00  0.0000000000000000e+00  0.0000000000000000e+00 
 0.0000000000000000e+00  0.0000000000000000e+00  0.0000000000000000e+00  0.0000000000000000e+00 
 0.0000000000000000e+00  0.0000000000000000e+00  0.0000000000000000e+00  0.0000000000000000e+00 
 0.0000000000000000e+00  0.0000000000000000e+00  0.0000000000000000e+00  0.0000000000000000e+00 
 0.0000000000000000e+00  0.0000000000000000e+00  0.0000000000000000e+00  0.0000000000000000e+00 
 0.0000000000000000e+00  0.0000000000000000e+00  0.0000000000000000e+00  0.0000000000000000e+00 
 0.0000000000000000e+00  0.0000000000000000e+00  0.0000000000000000e+00  0.0000000000000000e+00 
 0.0000000000000000e+00  0.0000000000000000e+00  0.0000000000000000e+00  0.0000000000000000e+00 
 0.0000000000000000e+00  0.0000000000000000e+00  0.0000000000000000e+00  0.0000000000000000e+00 
 0.0000000000000000e+00  0.0000000000000000e+00  0.0000000000000000e+00  0.0000000000000000e+00 
 0.0000000000000000e+00  0.0000000000000000e+00  0.0000000000000000e+00  0.0000000000000000e+00 
 0.0000000000000000e+00  0.0000000000000000e+00  0.0000000000000000e+00  0.0000000000000000e+00 
 0.0000000000000000e+00  0.0000000000000000e+00  0.0000000000000000e+00  0.0000000000000000e+00 
 0.0000000000000000e+00  0.0000000000000000e+00  0.0000000000000000e+00  0.0000000000000000e+00 
 0.0000000000000000e+00  0.0000000000000000e+00  0.0000000000000000e+00  0.0000000000000000e+00 
 0.0000000000000000e+00  0.0000000000000000e+00  0.0000000000000000e+00  0.0000000000000000e+00 
 0.0000000000000000e+00  0.0000000000000000e+00  0.0000000000000000e+00  0.0000000000000000e+00 
 0.0000000000000000e+00  0.0000000000000000e+00  0.0000000000000000e+00  0.0000000000000000e+00 
 0.0000000000000000e+00  0.0000000000000000e+00  0.0000000000000000e+00  0.0000000000000000e+00 
 0.0000000000000000e+00  0.0000000000000000e+00  0.0000000000000000e+00  0.0000000000000000e+00 
 0.0000000000000000e+00  0.0000000000000000e+00  0.0000000000000000e+00  0.0000000000000000e+00 
 0.0000000000000000e+00 
</PP_RHOATOM>
