  <PP_INFO>

############################################################
#    Opium Parameter File                                  #
############################################################
#-----------------------------------------------------------
#Command line   : opium At At.log ae ps nl tc2 ke upf qmcpack rpt 
 
#Opium version  : 4.1 
#Compile Host   : py-garuda.cos.ncsu.edu 
#Compile OS     : Linux 5.15.0-113-generic x86_64 
#Compile Date   : Sat Jul 13 02:11:52 EDT 2024 
#-----------------------------------------------------------
#Execution Host : py-garuda.cos.ncsu.edu 
#Execution Date : Sat Jan 24 00:32:04 2026
 
#-----------------------------------------------------------
############################################################
[Atom]
At
17
100   2.00  -
200   2.00  -
210   6.00  -
300   2.00  -
310   6.00  -
320   10.00  -
400   2.00  -
410   6.00  -
420   10.00  -
430   14.00  -
500   2.00  -
510   6.00  -
520   10.00  -
600   2.00  -
610   3.50  -
620   0.50  -
700   0.50  -

[Pseudo]
4 -1 -1 -1 -1
g

[KBdesign]
s

[Relativity]
nrl

[XC]
pbe

[Gaussinfo]
7 5
2 2 2 2 4
2 7.2874668 -15.1756059  
2 2.5273178 49.5666528
2 1.4035959 24.4908456
2 0.8030397 -2.3129707
2 1.4543826 20.6670482
2 0.7008671 5.2661947
2 1.1559242 -2.6853847
2 1.1081977 -3.3230707
1 4.0000190 7.0
3 5.1000368 28.00013300
2 3.9999461 -0.5000100
2 2.0003029 -1.0000499

[Configs]
17

600   2.00 -
610   5.00 -
620   0.00 -
700   0.00 -

600   2.00 -
610   4.00 -
620   0.00 -
700   1.00 -

600   2.00 -
610   4.00 -
620   1.00 -
700   0.00 -

600   2.00 -
610   3.00 -
620   1.00 -
700   1.00 -

600   2.00 -
610   4.00 -
620   0.00 -
700   0.00 -

600   2.00 -
610   2.00 -
620   2.00 -
700   0.00 -

600   2.00 -
610   3.00 -
620   0.00 -
700   1.00 -

600   2.00 -
610   3.00 -
620   0.00 -
700   0.00 -

600   2.00 -
610   2.00 -
620   1.00 -
700   0.00 -

600   2.00 -
610   2.00 -
620   0.00 -
700   1.00 -

600   2.00 -
610   2.00 -
620   0.00 -
700   0.00 -

600   2.00 -
610   1.00 -
620   1.00 -
700   0.00 -

600   2.00 -
610   1.00 -
620   0.00 -
700   1.00 -

600   2.00 -
610   1.00 -
620   0.00 -
700   0.00 -

600   1.00 -
610   2.00 -
620   0.00 -
700   0.00 -

600   1.00 -
610   1.00 -
620   0.00 -
700   0.00 -

600   1.00 -
610   0.00 -
620   0.00 -
700   0.00 -
############################################################
  </PP_INFO>



<PP_HEADER>
   0         Version Number
   At        Element
   NC        Norm - Conserving pseudopotential
    F      Nonlinear Core Correction
SLA  PW   PBE  PBE     PBE  Exchange-Correlation functional
 7          Z valence
 0          Total energy
 0.000000   0.000000     Suggested cutoff for wfc and rho
 2           Max angular momentum component
 1190           Number of points in mesh
 3  2     Number of Wavefuncitons, Number of Projectors
 Wavefunctions         nl  l   occ
                      6S  0  2.000000
                      6P  1  3.500000
                      6D  2  0.500000
</PP_HEADER>
<PP_MESH>
  <PP_R>
 2.2743660195259523e-05  2.3041257972191066e-05  2.3342749776560324e-05  2.3648186561199826e-05 
 2.3957619945653147e-05  2.4271102224898755e-05  2.4588686378187925e-05  2.4910426077998455e-05 
 2.5236375699105398e-05  2.5566590327770498e-05  2.5901125771051951e-05  2.6240038566235898e-05 
 2.6583385990391369e-05  2.6931226070050243e-05  2.7283617591013909e-05  2.7640620108288082e-05 
 2.8002293956147900e-05  2.8368700258334480e-05  2.8739900938384969e-05  2.9115958730097784e-05 
 2.9496937188134789e-05  2.9882900698762152e-05  3.0273914490731801e-05  3.0670044646305258e-05 
 3.1071358112421581e-05  3.1477922712011747e-05  3.1889807155460734e-05  3.2307081052219834e-05 
 3.2729814922570727e-05  3.3158080209543668e-05  3.3591949290991454e-05  3.4031495491821509e-05 
 3.4476793096387968e-05  3.4927917361045783e-05  3.5384944526869443e-05  3.5847951832537732e-05 
 3.6317017527387309e-05  3.6792220884637027e-05  3.7273642214785305e-05  3.7761362879182750e-05 
 3.8255465303782509e-05  3.8756032993070278e-05  3.9263150544176992e-05  3.9776903661175755e-05 
 4.0297379169566144e-05  4.0824665030947853e-05  4.1358850357886441e-05  4.1900025428973572e-05 
 4.2448281704084319e-05  4.3003711839834068e-05  4.3566409705237790e-05  4.4136470397573919e-05 
 4.4713990258456320e-05  4.5299066890116013e-05  4.5891799171896301e-05  4.6492287276963551e-05 
 4.7100632689236769e-05  4.7716938220538514e-05  4.8341308027970511e-05  4.8973847631516172e-05 
 4.9614663931874061e-05  5.0263865228524132e-05  5.0921561238030695e-05  5.1587863112584719e-05 
 5.2262883458788875e-05  5.2946736356688289e-05  5.3639537379050329e-05  5.4341403610896725e-05 
 5.5052453669291208e-05  5.5772807723385918e-05  5.6502587514730559e-05  5.7241916377846811e-05 
 5.7990919261072217e-05  5.8749722747676746e-05  5.9518455077255645e-05  6.0297246167402294e-05 
 6.1086227635664554e-05  6.1885532821788340e-05  6.2695296810252546e-05  6.3515656453098549e-05 
 6.4346750393058560e-05  6.5188719086986462e-05  6.6041704829595540e-05  6.6905851777506462e-05 
 6.7781305973610171e-05  6.8668215371749501e-05  6.9566729861723648e-05  7.0477001294620034e-05 
 7.1399183508477211e-05  7.2333432354284305e-05  7.3279905722319831e-05  7.4238763568835713e-05 
 7.5210167943090146e-05  7.6194283014734447e-05  7.7191275101558070e-05  7.8201312697596487e-05 
 7.9224566501607491e-05  8.0261209445919399e-05  8.1311416725657096e-05  8.2375365828350492e-05 
 8.3453236563930204e-05  8.4545211095115994e-05  8.5651473968202641e-05  8.6772212144248703e-05 
 8.7907615030673414e-05  8.9057874513267016e-05  9.0223184988619644e-05  9.1403743396975236e-05 
 9.2599749255514686e-05  9.3811404692074679e-05  9.5038914479307824e-05  9.6282486069289809e-05 
 9.7542329628579229e-05  9.8818658073735954e-05  1.0011168710730511e-04  1.0142163525427090e-04 
 1.0274872389898797e-04  1.0409317732259588e-04  1.0545522274092312e-04  1.0683509034288723e-04 
 1.0823301332939712e-04  1.0964922795276473e-04  1.1108397355663211e-04  1.1253749261642130e-04 
 1.1401003078031267e-04  1.1550183691076079e-04  1.1701316312655240e-04  1.1854426484541504e-04 
 1.2009540082718338e-04  1.2166683321753018e-04  1.2325882759226968e-04  1.2487165300224009e-04 
 1.2650558201877452e-04  1.2816089077976562e-04  1.2983785903633382e-04  1.3153677020010584e-04 
 1.3325791139111190e-04  1.3500157348630981e-04  1.3676805116874367e-04  1.3855764297734626e-04 
 1.4037065135739262e-04  1.4220738271161423e-04  1.4406814745198131e-04  1.4595326005216387e-04 
 1.4786303910067816e-04  1.4979780735472880e-04  1.5175789179475567e-04  1.5374362367969431e-04 
 1.5575533860295962e-04  1.5779337654916152e-04  1.5985808195156370e-04  1.6194980375029339e-04 
 1.6406889545131310e-04  1.6621571518616389e-04  1.6839062577249066e-04  1.7059399477535893e-04 
 1.7282619456937448e-04  1.7508760240161528e-04  1.7737860045538741e-04  1.7969957591481474e-04 
 1.8205092103027416e-04  1.8443303318468640e-04  1.8684631496067525e-04  1.8929117420860483e-04 
 1.9176802411550707e-04  1.9427728327491115e-04  1.9681937575758741e-04  1.9939473118321584e-04 
 2.0200378479299304e-04  2.0464697752318878e-04  2.0732475607966548e-04  2.1003757301337272e-04 
 2.1278588679682887e-04  2.1557016190160483e-04  2.1839086887681989e-04  2.2124848442866654e-04 
 2.2414349150097441e-04  2.2707637935682915e-04  2.3004764366125907e-04  2.3305778656500324e-04 
 2.3610731678937703e-04  2.3919674971224642e-04  2.4232660745512869e-04  2.4549741897143162e-04 
 2.4870972013584826e-04  2.5196405383492109e-04  2.5526097005879077e-04  2.5860102599414641e-04 
 2.6198478611839032e-04  2.6541282229503743e-04  2.6888571387036051e-04  2.7240404777130190e-04 
 2.7596841860466447e-04  2.7957942875760279e-04  2.8323768849942721e-04  2.8694381608474108e-04 
 2.9069843785792753e-04  2.9450218835900215e-04  2.9835571043085324e-04  3.0225965532788254e-04 
 3.0621468282606963e-04  3.1022146133447476e-04  3.1428066800820253e-04  3.1839298886284200e-04 
 3.2255911889040543e-04  3.2677976217678346e-04  3.3105563202073660e-04  3.3538745105444567e-04 
 3.3977595136563759e-04  3.4422187462131002e-04  3.4872597219307467e-04  3.5328900528414152e-04 
 3.5791174505796339e-04  3.6259497276856464e-04  3.6733947989257506e-04  3.7214606826299070e-04 
 3.7701555020468630e-04  3.8194874867170006e-04  3.8694649738631453e-04  3.9200964097995712e-04 
 3.9713903513594620e-04  4.0233554673410268e-04  4.0760005399725457e-04  4.1293344663965987e-04 
 4.1833662601736864e-04  4.2381050528055589e-04  4.2935600952784568e-04  4.3497407596265460e-04 
 4.4066565405158147e-04  4.4643170568486992e-04  4.5227320533896978e-04  4.5819114024122585e-04 
 4.6418651053672222e-04  4.7026032945730780e-04  4.7641362349283681e-04  4.8264743256464654e-04 
 4.8896281020130753e-04  4.9536082371667118e-04  5.0184255439024959e-04  5.0840909764995380e-04 
 5.1506156325722367e-04  5.2180107549458054e-04  5.2862877335563285e-04  5.3554581073756986e-04 
 5.4255335663617229e-04  5.4965259534337603e-04  5.5684472664741902e-04  5.6413096603560951e-04 
 5.7151254489974646e-04  5.7899071074422664e-04  5.8656672739687663e-04  5.9424187522254203e-04 
 6.0201745133947322e-04  6.0989476983854050e-04  6.1787516200531936e-04  6.2595997654507944e-04 
 6.3415057981072102e-04  6.4244835603369027e-04  6.5085470755791848e-04  6.5937105507682153e-04 
 6.6799883787339908e-04  6.7673951406347905e-04  6.8559456084214137e-04  6.9456547473336770e-04 
 7.0365377184295657e-04  7.1286098811475099e-04  7.2218867959021485e-04  7.3163842267140857e-04 
 7.4121181438740417e-04  7.5091047266418679e-04  7.6073603659808917e-04  7.7069016673280192e-04 
 7.8077454534001016e-04  7.9099087670369942e-04  8.0134088740818643e-04  8.1182632662991428e-04 
 8.2244896643306772e-04  8.3321060206905675e-04  8.4411305227991712e-04  8.5515815960568334e-04 
 8.6634779069578224e-04  8.7768383662450045e-04  8.8916821321058034e-04  9.0080286134099920e-04 
 9.1258974729898279e-04  9.2453086309631145e-04  9.3662822680997695e-04  9.4888388292323862e-04 
 9.6129990267114984e-04  9.7387838439059917e-04  9.8662145387493571e-04  9.9953126473323133e-04 
 1.0126099987542477e-03  1.0258598662751636e-03  1.0392831065551254e-03  1.0528819881536900e-03 
 1.0666588093142131e-03  1.0806158983522616e-03  1.0947556140491017e-03  1.1090803460503411e-03 
 1.1235925152697809e-03  1.1382945742985601e-03  1.1531890078196473e-03  1.1682783330277571e-03 
 1.1835651000547645e-03  1.1990518924006803e-03  1.2147413273702714e-03  1.2306360565153898e-03 
 1.2467387660830920e-03  1.2630521774696212e-03  1.2795790476803305e-03  1.2963221697956182e-03 
 1.3132843734429739e-03  1.3304685252751851e-03  1.3478775294548117e-03  1.3655143281449951e-03 
 1.3833819020066911e-03  1.4014832707024091e-03  1.4198214934065415e-03  1.4383996693223733e-03 
 1.4572209382058498e-03  1.4762884808962099e-03  1.4956055198535509e-03  1.5151753197034327e-03 
 1.5350011877886085e-03  1.5550864747279716e-03  1.5754345749828202e-03  1.5960489274305276e-03 
 1.6169330159457229e-03  1.6380903699890689e-03  1.6595245652037565e-03  1.6812392240197923e-03 
 1.7032380162661995e-03  1.7255246597912271e-03  1.7481029210906749e-03  1.7709766159444411e-03 
 1.7941496100613980e-03  1.8176258197327060e-03  1.8414092124936726e-03  1.8655038077942828e-03 
 1.8899136776784897e-03  1.9146429474724016e-03  1.9396957964814717e-03  1.9650764586968111e-03 
 1.9907892235107422e-03  2.0168384364417178e-03  2.0432284998687239e-03  2.0699638737752880e-03 
 2.0970490765032340e-03  2.1244886855162890e-03  2.1522873381736845e-03  2.1804497325138839e-03 
 2.2089806280485591e-03  2.2378848465669622e-03  2.2671672729508174e-03  2.2968328559998812e-03 
 2.3268866092682910e-03  2.3573336119118824e-03  2.3881790095465687e-03  2.4194280151179659e-03 
 2.4510859097823905e-03  2.4831580437993900e-03  2.5156498374359479e-03  2.5485667818825226e-03 
 2.5819144401810733e-03  2.6156984481652181e-03  2.6499245154127183e-03  2.6845984262104002e-03 
 2.7197260405317151e-03  2.7553132950270914e-03  2.7913662040272395e-03  2.8278908605595893e-03 
 2.8648934373780278e-03  2.9023801880061094e-03  2.9403574477939072e-03  2.9788316349887174e-03 
 3.0178092518197475e-03  3.0572968855970134e-03  3.0973012098246080e-03  3.1378289853285389e-03 
 3.1788870613993271e-03  3.2204823769495508e-03  3.2626219616865410e-03  3.3053129373004095e-03 
 3.3485625186676460e-03  3.3923780150704407e-03  3.4367668314319692e-03  3.4817364695678482e-03 
 3.5272945294539532e-03  3.5734487105108384e-03  3.6202068129049534e-03  3.6675767388668948e-03 
 3.7155664940268897e-03  3.7641841887677821e-03  3.8134380395956988e-03  3.8633363705286592e-03 
 3.9138876145033523e-03  3.9651003148003282e-03  4.0169831264878272e-03  4.0695448178845114e-03 
 4.1227942720413330e-03  4.1767404882427743e-03  4.2313925835277752e-03  4.2867597942305158e-03 
 4.3428514775413849e-03  4.3996771130883645e-03  4.4572463045391133e-03  4.5155687812240067e-03 
 4.5746543997804172e-03  4.6345131458185151e-03  4.6951551356088413e-03  4.7565906177920100e-03 
 4.8188299751107302e-03  4.8818837261645261e-03  4.9457625271873999e-03  5.0104771738487611e-03 
 5.0760386030779224e-03  5.1424578949124684e-03  5.2097462743708051e-03  5.2779151133492061e-03 
 5.3469759325437127e-03  5.4169404033971380e-03  5.4878203500715803e-03  5.5596277514467279e-03 
 5.6323747431443220e-03  5.7060736195791040e-03  5.7807368360366018e-03  5.8563770107781087e-03 
 5.9330069271731753e-03  6.0106395358600646e-03  6.0892879569344176e-03  6.1689654821665873e-03 
 6.2496855772479773e-03  6.3314618840667782e-03  6.4143082230134789e-03  6.4982385953165434e-03 
 6.5832671854086583e-03  6.6694083633239134e-03  6.7566766871264084e-03  6.8450869053705721e-03 
 6.9346539595937107e-03  7.0253929868411696e-03  7.1173193222245192e-03  7.2104485015132332e-03 
 7.3047962637602685e-03  7.4003785539620056e-03  7.4972115257529743e-03  7.5953115441358843e-03 
 7.6946951882473288e-03  7.7953792541597062e-03  7.8973807577197921e-03  8.0007169374244642e-03 
 8.1054052573340408e-03  8.2114634100237567e-03  8.3189093195738494e-03  8.4277611445987520e-03 
 8.5380372813159810e-03  8.6497563666551053e-03  8.7629372814074513e-03  8.8775991534169926e-03 
 8.9937613608130091e-03  9.1114435352850215e-03  9.2306655654006160e-03  9.3514475999666481e-03 
 9.4738100514344167e-03  9.5977735993494611e-03  9.7233591938464259e-03  9.8505880591896865e-03 
 9.9794816973603033e-03  1.0110061891689904e-02  1.0242350710542128e-02  1.0376370511042217e-02 
 1.0512143942855448e-02  1.0649693952014932e-02  1.0789043784799609e-02  1.0930216991662883e-02 
 1.1073237431212723e-02  1.1218129274243814e-02  1.1364917007822486e-02  1.1513625439425081e-02 
 1.1664279701130481e-02  1.1816905253867497e-02  1.1971527891717786e-02  1.2128173746275166e-02 
 1.2286869291061896e-02  1.2447641346002750e-02  1.2610517081957671e-02  1.2775524025313695e-02 
 1.2942690062636979e-02  1.3112043445385701e-02  1.3283612794684639e-02  1.3457427106162149e-02 
 1.3633515754850580e-02  1.3811908500150669e-02  1.3992635490860958e-02  1.4175727270273030e-02 
 1.4361214781333382e-02  1.4549129371872858e-02  1.4739502799904517e-02  1.4932367238990815e-02 
 1.5127755283680967e-02  1.5325699955019584e-02  1.5526234706127247e-02  1.5729393427854187e-02 
 1.5935210454507912e-02  1.6143720569655788e-02  1.6354959012003557e-02  1.6568961481350737e-02 
 1.6785764144624012e-02  1.7005403641989457e-02  1.7227917093044900e-02  1.7453342103093180e-02 
 1.7681716769497525e-02  1.7913079688120111e-02  1.8147469959844852e-02  1.8384927197185541e-02 
 1.8625491530980462e-02  1.8869203617174604e-02  1.9116104643690564e-02  1.9366236337389486e-02 
 1.9619640971122940e-02  1.9876361370877157e-02  2.0136440923010718e-02  2.0399923581586946e-02 
 2.0666853875802253e-02  2.0937276917511682e-02  2.1211238408852931e-02  2.1488784649970061e-02 
 2.1769962546838419e-02  2.2054819619191809e-02  2.2343404008553450e-02  2.2635764486371997e-02 
 2.2931950462264053e-02  2.3232011992364490e-02  2.3535999787786074e-02  2.3843965223189767e-02 
 2.4155960345467107e-02  2.4472037882536348e-02  2.4792251252253560e-02  2.5116654571440359e-02 
 2.5445302665029798e-02  2.5778251075331909e-02  2.6115556071420479e-02  2.6457274658642678e-02 
 2.6803464588253077e-02  2.7154184367173706e-02  2.7509493267881973e-02  2.7869451338427772e-02 
 2.8234119412581752e-02  2.8603559120116393e-02  2.8977832897221573e-02  2.9357003997056427e-02 
 2.9741136500439299e-02  3.0130295326677548e-02  3.0524546244538996e-02  3.0923955883367150e-02 
 3.1328591744341591e-02  3.1738522211885910e-02  3.2153816565224792e-02  3.2574544990092394e-02 
 3.3000778590593881e-02  3.3432589401222228e-02  3.3870050399032209e-02  3.4313235515973595e-02 
 3.4762219651385998e-02  3.5217078684656934e-02  3.5677889488045629e-02  3.6144729939674630e-02 
 3.6617678936691392e-02  3.7096816408602074e-02  3.7582223330779818e-02  3.8073981738149826e-02 
 3.8572174739053312e-02  3.9076886529293205e-02  3.9588202406363307e-02  4.0106208783863846e-02 
 4.0630993206105512e-02  4.1162644362904711e-02  4.1701252104572310e-02  4.2246907457098602e-02 
 4.2799702637536900e-02  4.3359731069588341e-02  4.3927087399390899e-02  4.4501867511514664e-02 
 4.5084168545166635e-02  4.5674088910607410e-02  4.6271728305782835e-02  4.6877187733173127e-02 
 4.7490569516862563e-02  4.8111977319832550e-02  4.8741516161480695e-02  4.9379292435369662e-02 
 5.0025413927207690e-02  5.0679989833064744e-02  5.1343130777826873e-02  5.2014948833892072e-02 
 5.2695557540110800e-02  5.3385071920974338e-02  5.4083608506054204e-02  5.4791285349695767e-02 
 5.5508222050969981e-02  5.6234539773885747e-02  5.6970361267866955e-02  5.7715810888497393e-02 
 5.8471014618537209e-02  5.9236100089214226e-02  6.0011196601793972e-02  6.0796435149431914e-02 
 6.1591948439311470e-02  6.2397870915072054e-02  6.3214338779530269e-02  6.4041490017698446e-02 
 6.4879464420104574e-02  6.5728403606417088e-02  6.6588451049379049e-02  6.7459752099055303e-02 
 6.8342454007397052e-02  6.9236705953127697e-02  7.0142659066954466e-02  7.1060466457109880e-02 
 7.1990283235227451e-02  7.2932266542555482e-02  7.3886575576515068e-02  7.4853371617604275e-02 
 7.5832818056655121e-02  7.6825080422446998e-02  7.7830326409681364e-02  7.8848725907322698e-02 
 7.9880451027309951e-02  8.0925676133644028e-02  8.1984577871855618e-02  8.3057335198858787e-02 
 8.4144129413195060e-02  8.5245144185673319e-02  8.6360565590410665e-02  8.7490582136279277e-02 
 8.8635384798764955e-02  8.9795167052242442e-02  9.0970124902673088e-02  9.2160456920729827e-02 
 9.3366364275356981e-02  9.4588050767767634e-02  9.5825722865886767e-02  9.7079589739244715e-02 
 9.8349863294327419e-02  9.9636758210389045e-02  1.0094049197573333e-01  1.0226128492446969e-01 
 1.0359936027375002e-01  1.0495494416149309e-01  1.0632826568460241e-01  1.0771955693768397e-01 
 1.0912905305227096e-01  1.1055699223656150e-01  1.1200361581567633e-01  1.1346916827244348e-01 
 1.1495389728871645e-01  1.1645805378723242e-01  1.1798189197401987e-01  1.1952566938135924e-01 
 1.2108964691130672e-01  1.2267408887978729e-01  1.2427926306126472e-01  1.2590544073399620e-01 
 1.2755289672587883e-01  1.2922190946089637e-01  1.3091276100617347e-01  1.3262573711964562e-01 
 1.3436112729835309e-01  1.3611922482736646e-01  1.3790032682935258e-01  1.3970473431478897e-01 
 1.4153275223283535e-01  1.4338468952287073e-01  1.4526085916670514e-01  1.4716157824147341e-01 
 1.4908716797322324e-01  1.5103795379120244e-01  1.5301426538285728e-01  1.5501643674955060e-01 
 1.5704480626300871e-01  1.5909971672250708e-01  1.6118151541280426e-01  1.6329055416283383e-01 
 1.6542718940516424e-01  1.6759178223623680e-01  1.6978469847739197e-01  1.7200630873669381e-01 
 1.7425698847156385e-01  1.7653711805223402e-01  1.7884708282603046e-01  1.8118727318249783e-01 
 1.8355808461937664e-01  1.8595991780944179e-01  1.8839317866821934e-01  1.9085827842258579e-01 
 1.9335563368026687e-01  1.9588566650024494e-01  1.9844880446408844e-01  2.0104548074821377e-01 
 2.0367613419709318e-01  2.0634120939742079e-01  2.0904115675324864e-01  2.1177643256210596e-01 
 2.1454749909211465e-01  2.1735482466011374e-01  2.2019888371080587e-01  2.2308015689693977e-01 
 2.2599913116054166e-01  2.2895629981520943e-01  2.3195216262948451e-01  2.3498722591131219e-01 
 2.3806200259361118e-01  2.4117701232095912e-01  2.4433278153741389e-01  2.4752984357548416e-01 
 2.5076873874626365e-01  2.5405001443074510e-01  2.5737422517232900e-01  2.6074193277054253e-01 
 2.6415370637598534e-01  2.6761012258651706e-01  2.7111176554470390e-01  2.7465922703654000e-01 
 2.7825310659146080e-01  2.8189401158366484e-01  2.8558255733476157e-01  2.8931936721776202e-01 
 2.9310507276243086e-01  2.9694031376201441e-01  3.0082573838137050e-01  3.0476200326650738e-01 
 3.0874977365555928e-01  3.1278972349121331e-01  3.1688253553460721e-01  3.2102890148071755e-01 
 3.2522952207525796e-01  3.2948510723310681e-01  3.3379637615828445e-01  3.3816405746550049e-01 
 3.4258888930329146e-01  3.4707161947876936e-01  3.5161300558400310e-01  3.5621381512405365e-01 
 3.6087482564668344e-01  3.6559682487376449e-01  3.7038061083440565e-01  3.7522699199981896e-01 
 3.8013678741995671e-01  3.8511082686193077e-01  3.9014995095024546e-01  3.9525501130886548e-01 
 4.0042687070514182e-01  4.0566640319562203e-01  4.1097449427376759e-01  4.1635204101960444e-01 
 4.2179995225133171e-01  4.2731914867891424e-01  4.3291056305968434e-01  4.3857514035598055e-01 
 4.4431383789484813e-01  4.5012762552982993e-01  4.5601748580487361e-01  4.6198441412038393e-01 
 4.6802941890144911e-01  4.7415352176826314e-01  4.8035775770878719e-01  4.8664317525366196e-01 
 4.9301083665341239e-01  4.9946181805797085e-01  5.0599720969854844e-01  5.1261811607188745e-01 
 5.1932565612692327e-01  5.2612096345388992e-01  5.3300518647589901e-01  5.3997948864302636e-01 
 5.4704504862893788e-01  5.5420306053008794e-01  5.6145473406752433e-01  5.6880129479133479e-01 
 5.7624398428776702e-01  5.8378406038906028e-01  5.9142279738602299e-01  5.9916148624338628e-01 
 6.0700143481798707e-01  6.1494396807979423e-01  6.2299042833583307e-01  6.3114217545703799e-01 
 6.3940058710807468e-01  6.4776705898016795e-01  6.5624300502697697e-01  6.6482985770355751e-01 
 6.7352906820844927e-01  6.8234210672893258e-01  6.9127046268949344e-01  7.0031564500353927e-01 
 7.0947918232840967e-01  7.1876262332372265e-01  7.2816753691310199e-01  7.3769551254932875e-01 
 7.4734816048296449e-01  7.5712711203448124e-01  7.6703401986996789e-01  7.7707055828042759e-01 
 7.8723842346473971e-01  7.9753933381632092e-01  8.0797503021353800e-01  8.1854727631391977e-01 
 8.2925785885222048e-01  8.4010858794238108e-01  8.5110129738344353e-01  8.6223784496946743e-01 
 8.7352011280350039e-01  8.8495000761565967e-01  8.9652946108537268e-01  9.0826043016783575e-01 
 9.2014489742474503e-01  9.3218487135935291e-01  9.4438238675591235e-01  9.5673950502355354e-01 
 9.6925831454467604e-01  9.8194093102788516e-01  9.9478949786555249e-01  1.0078061864960541e+00 
 1.0209931967707502e+00  1.0343527573257627e+00  1.0478871259586231e+00  1.0615985900098432e+00 
 1.0754894667494823e+00  1.0895621037687713e+00  1.1038188793768602e+00  1.1182622030027594e+00 
 1.1328945156025383e+00  1.1477182900718528e+00  1.1627360316638697e+00  1.1779502784126623e+00 
 1.1933636015621440e+00  1.2089786060006089e+00  1.2247979307009738e+00  1.2408242491667647e+00 
 1.2570602698839464e+00  1.2735087367786635e+00  1.2901724296809705e+00  1.3070541647946285e+00 
 1.3241567951730520e+00  1.3414832112014814e+00  1.3590363410854636e+00  1.3768191513457271e+00 
 1.3948346473195308e+00  1.4130858736685727e+00  1.4315759148935459e+00  1.4503078958554254e+00 
 1.4692849823035774e+00  1.4885103814107790e+00  1.5079873423152406e+00  1.5277191566697064e+00 
 1.5477091591977690e+00  1.5679607282574333e+00  1.5884772864120715e+00  1.6092623010088429e+00 
 1.6303192847646846e+00  1.6516517963599693e+00  1.6732634410399299e+00  1.6951578712239548e+00 
 1.7173387871228569e+00  1.7398099373642146e+00  1.7625751196259032e+00  1.7856381812779079e+00 
 1.8090030200325400e+00  1.8326735846031594e+00  1.8566538753715178e+00  1.8809479450638293e+00 
 1.9055598994356986e+00  1.9304938979659856e+00  1.9557541545597914e+00  1.9813449382606019e+00 
 2.0072705739717711e+00  2.0335354431874393e+00  2.0601439847330174e+00  2.0871006955153577e+00 
 2.1144101312827410e+00  2.1420769073948120e+00  2.1701056996025834e+00  2.1985012448386487e+00 
 2.2272683420177377e+00  2.2564118528477417e+00  2.2859367026513553e+00  2.3158478811984673e+00 
 2.3461504435494440e+00  2.3768495109094459e+00  2.4079502714939274e+00  2.4394579814054418e+00 
 2.4713779655219592e+00  2.5037156183967690e+00  2.5364764051701729e+00  2.5696658624931099e+00 
 2.6032895994628613e+00  2.6373532985710035e+00  2.6718627166637603e+00  2.7068236859149244e+00 
 2.7422421148115106e+00  2.7781239891523017e+00  2.8144753730594632e+00  2.8513024100033952e+00 
 2.8886113238409936e+00  2.9264084198674958e+00  2.9647000858820900e+00  3.0034927932674718e+00 
 3.0427930980835245e+00  3.0826076421752902e+00  3.1229431542954873e+00  3.1638064512416677e+00 
 3.2052044390082730e+00  3.2471441139537673e+00  3.2896325639830373e+00  3.3326769697452638e+00 
 3.3762846058474705e+00  3.4204628420839498e+00  3.4652191446817744e+00  3.5105610775626057e+00 
 3.5564963036210213e+00  3.6030325860195536e+00  3.6501777895006895e+00  3.6979398817160267e+00 
 3.7463269345728287e+00  3.7953471255981945e+00  3.8450087393210857e+00  3.8953201686724093e+00 
 3.9462899164034764e+00  3.9979265965229680e+00  4.0502389357527244e+00  4.1032357750025827e+00 
 4.1569260708645146e+00  4.2113188971263087e+00  4.2664234463050645e+00  4.3222490312007453e+00 
 4.3788050864700709e+00  4.4361011702209892e+00  4.4941469656280235e+00  4.5529522825687554e+00 
 4.6125270592817076e+00  4.6728813640459386e+00  4.7340253968826032e+00  4.7959694912787798e+00 
 4.8587241159338621e+00  4.9222998765287613e+00  4.9867075175183455e+00  5.0519579239472359e+00 
 5.1180621232894215e+00  5.1850312873119266e+00  5.2528767339628626e+00  5.3216099292841941e+00 
 5.3912424893495210e+00  5.4617861822272253e+00  5.5332529299693061e+00  5.6056548106262296e+00 
 5.6790040602881495e+00  5.7533130751528372e+00  5.8285944136206673e+00  5.9048607984170172e+00 
 5.9821251187424407e+00  6.0604004324509679e+00  6.1396999682569282e+00  6.2200371279705946e+00 
 6.3014254887631775e+00  6.3838788054613644e+00  6.4674110128719215e+00  6.5520362281367195e+00 
 6.6377687531185519e+00  6.7246230768181929e+00  6.8126138778230700e+00  6.9017560267879805e+00 
 6.9920645889482635e+00  7.0835548266658686e+00  7.1762422020087273e+00  7.2701423793638753e+00 
 7.3652712280847785e+00  7.4616448251732850e+00  7.5592794579966842e+00  7.6581916270402992e+00 
 7.7583980486961366e+00  7.8599156580879264e+00  7.9627616119332929e+00  8.0669532914432196e+00 
 8.1725083052595284e+00  8.2794444924307893e+00  8.3877799254271466e+00  8.4975329131946307e+00 
 8.6087220042493939e+00  8.7213659898124654e+00  8.8354839069855124e+00  8.9510950419681450e+00 
 9.0682189333173433e+00  9.1868753752495103e+00  9.3070844209857455e+00  9.4288663861408892e+00 
 9.5522418521569055e+00  9.6772316697811949e+00  9.8038569625904444e+00  9.9321391305604791e+00 
 1.0062099853683032e+01  1.0193761095629629e+01  1.0327145107463526e+01  1.0462274431400186e+01 
 1.0599171904616979e+01  1.0737860663112707e+01  1.0878364145617647e+01  1.1020706097554758e+01 
 1.1164910575052700e+01  1.1311001949011395e+01  1.1459004909220750e+01  1.1608944468533306e+01 
 1.1760845967091452e+01  1.1914735076609990e+01  1.2070637804714694e+01  1.2228580499337683e+01 
 1.2388589853170288e+01  1.2550692908174096e+01  1.2714917060151251e+01  1.2881290063374303e+01 
 1.3049840035276782e+01  1.3220595461205106e+01  1.3393585199232666e+01  1.3568838485036929e+01 
 1.3746384936840311e+01  1.3926254560415742e+01  1.4108477754157718e+01  1.4293085314219688e+01 
 1.4480108439718689e+01  1.4669578738008060e+01  1.4861528230019170e+01  1.5055989355673027e+01 
 1.5252994979362706e+01  1.5452578395507528e+01  1.5654773334179797e+01  1.5859613966805414e+01 
 1.6067134911938837e+01  1.6277371241113716e+01  1.6490358484770059e+01  1.6706132638258975e+01 
 1.6924730167925972e+01  1.7146188017273843e+01  1.7370543613206220e+01  1.7597834872352802e+01 
 1.7828100207477359e+01  1.8061378533969584e+01  1.8297709276421880e+01  1.8537132375292206e+01 
 1.8779688293654129e+01  1.9025418024035151e+01  1.9274363095344569e+01  1.9526565579891987e+01 
 1.9782068100497487e+01  2.0040913837695207e+01  2.0303146537030813e+01  2.0568810516454626e+01 
 2.0837950673811481e+01  2.1110612494428548e+01  2.1386842058802472e+01  2.1666686050387089e+01 
 2.1950191763483030e+01  2.2237407111230578e+01  2.2528380633707105e+01  2.2823161506130454e+01 
 2.3121799547169669e+01  2.3424345227364476e+01  2.3730849677654916e+01  2.4041364698022601e+01 
 2.4355942766245025e+01  2.4674637046764484e+01  2.4997501399672824e+01  2.5324590389814187e+01 
 2.5655959296006404e+01  2.5991664120383302e+01  2.6331761597859227e+01  2.6676309205717327e+01 
 2.7025365173323397e+01  2.7378988491966737e+01  2.7737238924829860e+01  2.8100177017088587e+01 
 2.8467864106144347e+01  2.8840362331990313e+01  2.9217734647713243e+01  2.9600044830132667e+01 
 2.9987357490579356e+01  3.0379738085814765e+01  3.0777252929093390e+01  3.1179969201369925e+01 
 3.1587954962652784e+01  3.2001279163506716e+01  3.2420011656705427e+01  3.2844223209036876e+01 
 3.3273985513263085e+01  3.3709371200236340e+01  3.4150453851173999e+01  3.4597308010093897e+01 
 3.5050009196412432e+01  3.5508633917707606e+01  3.5973259682648766e+01  3.6443965014096257e+01 
 3.6920829462371167e+01  3.7403933618700485e+01  3.7893359128836217e+01  3.8389188706854718e+01 
 3.8891506149134521e+01  3.9400396348519216e+01  3.9915945308663566e+01  4.0438240158568753e+01 
 4.0967369167307801e+01  4.1503421758942281e+01  4.2046488527636328e+01  4.2596661252966108e+01 
 4.3154032915431962e+01  4.3718697712171142e+01  4.4290751072878571e+01  4.4870289675933428e+01 
 4.5457411464739302e+01  4.6052215664275600e+01  4.6654802797868051e+01  4.7265274704176122e+01 
 4.7883734554405294e+01  4.8510286869741897e+01  4.9145037539018844e+01  4.9788093836609839e+01 
 5.0439564440559515e+01  5.1099559450950863e+01  5.1768190408511146e+01  5.2445570313463939e+01 
 5.3131813644625062e+01  5.3827036378751174e+01  5.4531356010138651e+01  5.5244891570481947e+01 
 5.5967763648988630e+01  5.6700094412760890e+01  5.7442007627440418e+01  5.8193628678126721e+01 
 5.8955084590565882e+01  5.9726504052619866e+01  6.0508017436013390e+01  6.1299756818368749e+01 
 6.2101856005525548e+01  6.2914450554155913e+01  6.3737677794672422e+01  6.4571676854437854e+01 
 6.5416588681278725e+01  6.6272556067304336e+01  6.7139723673040635e+01  6.8018238051876480e+01 
 6.8908247674833333e+01  6.9809902955655275e+01  7.0723356276231286e+01  7.1648762012346168e+01 
 7.2586276559772372e+01  7.3536058360699286e+01  7.4498267930512341e+01  7.5473067884918478e+01 
 7.6460622967430638e+01  7.7461100077207689e+01  7.8474668297262994e+01  7.9501498923037843e+01 
 8.0541765491351640e+01  8.1595643809730973e+01  8.2663311986119382e+01  8.3744950458980412e+01 
 8.4840742027789801e+01  8.5950871883931370e+01  8.7075527641992394e+01  8.8214899371473408e+01 
 8.9369179628907887e+01  9.0538563490407256e+01  9.1723248584626717e+01  9.2923435126167519e+01 
 9.4139325949411074e+01  9.5371126542801122e+01  9.6619045083569048e+01  9.7883292472919152e+01 
 9.9164082371668513e+01  1.0046163123635915e+02  1.0177615835583715e+02  1.0310788588831403e+02 
 1.0445703889891313e+02  1.0582384539770362e+02  1.0720853637823771e+02  1.0861134585658603e+02 
 1.1003251091088998e+02  1.1147227172142553e+02  1.1293087161119718e+02  1.1440855708705712e+02 
 1.1590557788136860e+02  1.1742218699420812e+02 
  </PP_R>
  <PP_RAB>
 2.9566758253837379e-07  2.9953635363848385e-07  3.0345574709528419e-07  3.0742642529559771e-07 
 3.1144905929349091e-07  3.1552432892368380e-07  3.1965292291644300e-07  3.2383553901397989e-07 
 3.2807288408837018e-07  3.3236567426101647e-07  3.3671463502367535e-07  3.4112050136106663e-07 
 3.4558401787508775e-07  3.5010593891065315e-07  3.5468702868318080e-07  3.5932806140774507e-07 
 3.6402982142992269e-07  3.6879310335834824e-07  3.7361871219900459e-07  3.7850746349127120e-07 
 3.8346018344575225e-07  3.8847770908390798e-07  3.9356088837951341e-07  3.9871058040196831e-07 
 4.0392765546148055e-07  4.0921299525615272e-07  4.1456749302098953e-07  4.1999205367885781e-07 
 4.2548759399341944e-07  4.3105504272406765e-07  4.3669534078288886e-07  4.4240944139367962e-07 
 4.4819831025304354e-07  4.5406292569359515e-07  4.6000427884930273e-07  4.6602337382299049e-07 
 4.7212122785603497e-07  4.7829887150028134e-07  4.8455734879220891e-07  4.9089771742937573e-07 
 4.9732104894917263e-07  5.0382842890991354e-07  5.1042095707430090e-07  5.1709974759528483e-07 
 5.2386592920435988e-07  5.3072064540232211e-07  5.3766505465252372e-07  5.4470033057665641e-07 
 5.5182766215309615e-07  5.5904825391784287e-07  5.6636332616809130e-07  5.7377411516846091e-07 
 5.8128187335993209e-07  5.8888786957150809e-07  5.9659338923465193e-07  6.0439973460052611e-07 
 6.1230822496007799e-07  6.2032019686700070e-07  6.2843700436361660e-07  6.3666001920971022e-07 
 6.4499063111436276e-07  6.5343024797081367e-07  6.6198029609439903e-07  6.7064222046360128e-07 
 6.7941748496425533e-07  6.8830757263694769e-07  6.9731398592765428e-07  7.0643824694165739e-07 
 7.1568189770078568e-07  7.2504650040401688e-07  7.3453363769149722e-07  7.4414491291200850e-07 
 7.5388195039393878e-07  7.6374639571979763e-07  7.7373991600432331e-07  7.8386420017622983e-07 
 7.9412095926363917e-07  8.0451192668324837e-07  8.1503885853328301e-07  8.2570353389028107e-07 
 8.3650775510976120e-07  8.4745334813082392e-07  8.5854216278474200e-07  8.6977607310758392e-07 
 8.8115697765693221e-07  8.9268679983274352e-07  9.0436748820240740e-07  9.1620101683006041e-07 
 9.2818938561020369e-07  9.4033462060569593e-07  9.5263877439015771e-07  9.6510392639486424e-07 
 9.7773218326017182e-07  9.9052567919154778e-07  1.0034865763202549e-06  1.0166170650687542e-06 
 1.0299193645208973e-06  1.0433957227969521e-06  1.0570484174335421e-06  1.0708797557685563e-06 
 1.0848920753310926e-06  1.0990877442365079e-06  1.1134691615866343e-06  1.1280387578752331e-06 
 1.1427989953987543e-06  1.1577523686724711e-06  1.1729014048520553e-06  1.1882486641606780e-06 
 1.2037967403216909e-06  1.2195482609969708e-06  1.2355058882310016e-06  1.2516723189007674e-06 
 1.2680502851715298e-06  1.2846425549585674e-06  1.3014519323949665e-06  1.3184812583055218e-06 
 1.3357334106868436e-06  1.3532113051937463e-06  1.3709178956320004e-06  1.3888561744575340e-06 
 1.4070291732821624e-06  1.4254399633859414e-06  1.4440916562362175e-06  1.4629874040134768e-06 
 1.4821304001440645e-06  1.5015238798398902e-06  1.5211711206451812e-06  1.5410754429903954e-06 
 1.5612402107533839e-06  1.5816688318278923e-06  1.6023647586995058e-06  1.6233314890291212e-06 
 1.6445725662440686e-06  1.6660915801369529e-06  1.6878921674723395e-06  1.7099780126013758e-06 
 1.7323528480844547e-06  1.7550204553220274e-06  1.7779846651936676e-06  1.8012493587055013e-06 
 1.8248184676461041e-06  1.8486959752509849e-06  1.8728859168757569e-06  1.8973923806781303e-06 
 1.9222195083088160e-06  1.9473714956114742e-06  1.9728525933318235e-06  1.9986671078360260e-06 
 2.0248194018384750e-06  2.0513138951390996e-06  2.0781550653703281e-06  2.1053474487538142e-06 
 2.1328956408670702e-06  2.1608042974201304e-06  2.1890781350423787e-06  2.2177219320796659e-06 
 2.2467405294018680e-06  2.2761388312209986e-06  2.3059218059200362e-06  2.3360944868925915e-06 
 2.3666619733935639e-06  2.3976294314009230e-06  2.4290020944887780e-06  2.4607852647118627e-06 
 2.4929843135015920e-06  2.5256046825738448e-06  2.5586518848486361e-06  2.5921315053818060e-06 
 2.6260492023089094e-06  2.6604107078014541e-06  2.6952218290356511e-06  2.7304884491738453e-06 
 2.7662165283587753e-06  2.8024121047208626e-06  2.8390812953986582e-06  2.8762302975726648e-06 
 2.9138653895126674e-06  2.9519929316387786e-06  2.9906193675963678e-06  3.0297512253450420e-06 
 3.0693951182619014e-06  3.1095577462592032e-06  3.1502458969166730e-06  3.1914664466286110e-06 
 3.2332263617660274e-06  3.2755326998539739e-06  3.3183926107642799e-06  3.3618133379239030e-06 
 3.4058022195390740e-06  3.4503666898354864e-06  3.4955142803146867e-06  3.5412526210269245e-06 
 3.5875894418606379e-06  3.6345325738488363e-06  3.6820899504925535e-06  3.7302696091016337e-06 
 3.7790796921530576e-06  3.8285284486670280e-06  3.8786242356010922e-06  3.9293755192624725e-06 
 3.9807908767389054e-06  4.0328789973481719e-06  4.0856486841066324e-06  4.1391088552169458e-06 
 4.1932685455752708e-06  4.2481369082981849e-06  4.3037232162695753e-06  4.3600368637077936e-06 
 4.4170873677532885e-06  4.4748843700770300e-06  4.5334376385099706e-06  4.5927570686938394e-06 
 4.6528526857535241e-06  4.7137346459913399e-06  4.7754132386034754e-06  4.8378988874188787e-06 
 4.9012021526609220e-06  4.9653337327321004e-06  5.0303044660220888e-06  5.0961253327394422e-06 
 5.1628074567673008e-06  5.2303621075433350e-06  5.2988007019643088e-06  5.3681348063155780e-06 
 5.4383761382257918e-06  5.5095365686472264e-06  5.5816281238619938e-06  5.6546629875145098e-06 
 5.7286535026705587e-06  5.8036121739033088e-06  5.8795516694066066e-06  5.9564848231359354e-06 
 6.0344246369773890e-06  6.1133842829450009e-06  6.1933771054068783e-06  6.2744166233404050e-06 
 6.3565165326169977e-06  6.4396907083167252e-06  6.5239532070732445e-06  6.6093182694493989e-06 
 6.6958003223439077e-06  6.7834139814295464e-06  6.8721740536232263e-06  6.9620955395884082e-06 
 7.0531936362702398e-06  7.1454837394638878e-06  7.2389814464164466e-06  7.3337025584629229e-06 
 7.4296630836967035e-06  7.5268792396749460e-06  7.6253674561593959e-06  7.7251443778930466e-06 
 7.8262268674131520e-06  7.9286320079010266e-06  8.0323771060691519e-06  8.1374796950860316e-06 
 8.2439575375393734e-06  8.3518286284379723e-06  8.4611111982529396e-06  8.5718237159986794e-06 
 8.6839848923541869e-06  8.7976136828252266e-06  8.9127292909478379e-06  9.0293511715337802e-06 
 9.1474990339584342e-06  9.2671928454917621e-06  9.3884528346727921e-06  9.5112994947283111e-06 
 9.6357535870362535e-06  9.7618361446344286e-06  9.8895684757751591e-06  1.0018972167526424e-05 
 1.0150069089420131e-05  1.0282881397148091e-05  1.0417431536306423e-05  1.0553742246188885e-05 
 1.0691836563629880e-05  1.0831737826897737e-05  1.0973469679638923e-05  1.1117056074873883e-05 
 1.1262521279045169e-05  1.1409889876118506e-05  1.1559186771737544e-05  1.1710437197432989e-05 
 1.1863666714886776e-05  1.2018901220252048e-05  1.2176166948529699e-05  1.2335490478002102e-05 
 1.2496898734724947e-05  1.2660418997077789e-05  1.2826078900374163e-05  1.2993906441532006e-05 
 1.3163929983805219e-05  1.3336178261577126e-05  1.3510680385216630e-05  1.3687465845997969e-05 
 1.3866564521084771e-05  1.4048006678579400e-05  1.4231822982638321e-05  1.4418044498654434e-05 
 1.4606702698507150e-05  1.4797829465881281e-05  1.4991457101655413e-05  1.5187618329360841e-05 
 1.5386346300711937e-05  1.5587674601208843e-05  1.5791637255813526e-05  1.5998268734700066e-05 
 1.6207603959080196e-05  1.6419678307105074e-05  1.6634527619844296e-05  1.6852188207343035e-05 
 1.7072696854758659e-05  1.7296090828577405e-05  1.7522407882912551e-05  1.7751686265884936e-05 
 1.7983964726086984e-05  1.8219282519131319e-05  1.8457679414285038e-05  1.8699195701190850e-05 
 1.8943872196676046e-05  1.9191750251650729e-05  1.9442871758096162e-05  1.9697279156144623e-05 
 1.9955015441251909e-05  2.0216124171463629e-05  2.0480649474776660e-05  2.0748636056596859e-05 
 2.1020129207294398e-05  2.1295174809857896e-05  2.1573819347648832e-05  2.1856109912257297e-05 
 2.2142094211460592e-05  2.2431820577285950e-05  2.2725337974178775e-05  2.3022696007277732e-05 
 2.3323944930798172e-05  2.3629135656525178e-05  2.3938319762417743e-05  2.4251549501325676e-05 
 2.4568877809820366e-05  2.4890358317141221e-05  2.5216045354259130e-05  2.5545993963058541e-05 
 2.5880259905639646e-05  2.6218899673742330e-05  2.6561970498293408e-05  2.6909530359078743e-05 
 2.7261637994542042e-05  2.7618352911711755e-05  2.7979735396257898e-05  2.8345846522680489e-05 
 2.8716748164631265e-05  2.9092503005370509e-05  2.9473174548360626e-05  2.9858827127998455e-05 
 3.0249525920487781e-05  3.0645336954854469e-05  3.1046327124105392e-05  3.1452564196533557e-05 
 3.1864116827171078e-05  3.2281054569392067e-05  3.2703447886667318e-05  3.3131368164472790e-05 
 3.3564887722353952e-05  3.4004079826147837e-05  3.4449018700365334e-05  3.4899779540735198e-05 
 3.5356438526912298e-05  3.5819072835352187e-05  3.6287760652354112e-05  3.6762581187274662e-05 
 3.7243614685914360e-05  3.7730942444079421e-05  3.8224646821320794e-05  3.8724811254853324e-05 
 3.9231520273656715e-05  3.9744859512761174e-05  4.0264915727719902e-05  4.0791776809271005e-05 
 4.1325531798191253e-05  4.1866270900344158e-05  4.2414085501925029e-05  4.2969068184905321e-05 
 4.3531312742679397e-05  4.4100914195915727e-05  4.4677968808615599e-05  4.5262574104382023e-05 
 4.5854828882901388e-05  4.6454833236640898e-05  4.7062688567764389e-05  4.7678497605269632e-05 
 4.8302364422349562e-05  4.8934394453981166e-05  4.9574694514744086e-05  5.0223372816872565e-05 
 5.0880538988543576e-05  5.1546304092404263e-05  5.2220780644341749e-05  5.2904082632498649e-05 
 5.3596325536537329e-05  5.4297626347156065e-05  5.5008103585861073e-05  5.5727877324996705e-05 
 5.6457069208038001e-05  5.7195802470148738e-05  5.7944201959008469e-05  5.8702394155912087e-05 
 5.9470507197145419e-05  6.0248670895640695e-05  6.1037016762914941e-05  6.1835678031296127e-05 
 6.2644789676439492e-05  6.3464488440138840e-05  6.4294912853436197e-05  6.5136203260033893e-05 
 6.5988501840012992e-05  6.6851952633862081e-05  6.7726701566820461e-05  6.8612896473539675e-05 
 6.9510687123068259e-05  7.0420225244162792e-05  7.1341664550930541e-05  7.2275160768807455e-05 
 7.3220871660876189e-05  7.4178957054528354e-05  7.5149578868475826e-05  7.6132901140115404e-05 
 7.7129090053251273e-05  7.8138313966180829e-05  7.9160743440147424e-05  8.0196551268165627e-05 
 8.1245912504223698e-05  8.2309004492868115e-05  8.3386006899175219e-05  8.4477101739115055e-05 
 8.5582473410312560e-05  8.6702308723210866e-05  8.7836796932643307e-05  8.8986129769817428e-05 
 9.0150501474718233e-05  9.1330108828935197e-05  9.2525151188918751e-05  9.3735830519672033e-05 
 9.4962351428883488e-05  9.6204921201506070e-05  9.7463749834788660e-05  9.8739050073766495e-05 
 1.0003103744721527e-04  1.0133993030407618e-04  1.0266594985035730e-04  1.0400932018651803e-04 
 1.0537026834534253e-04  1.0674902433030884e-04  1.0814582115446004e-04  1.0956089487978377e-04 
 1.1099448465710774e-04  1.1244683276651636e-04  1.1391818465829686e-04  1.1540878899442089e-04 
 1.1691889769056912e-04  1.1844876595870528e-04  1.1999865235020800e-04  1.2156881879956642e-04 
 1.2315953066864742e-04  1.2477105679154299e-04  1.2640366952000354e-04  1.2805764476946592e-04 
 1.2973326206568395e-04  1.3143080459196874e-04  1.3315055923704766e-04  1.3489281664354880e-04 
 1.3665787125712083e-04  1.3844602137619410e-04  1.4025756920239490e-04  1.4209282089161748e-04 
 1.4395208660576540e-04  1.4583568056516957e-04  1.4774392110169230e-04  1.4967713071252603e-04 
 1.5163563611469624e-04  1.5361976830027745e-04  1.5562986259233121e-04  1.5766625870157716e-04 
 1.5972930078380463e-04  1.6181933749803573e-04  1.6393672206544972e-04  1.6608181232907802e-04 
 1.6825497081428072e-04  1.7045656479001411e-04  1.7268696633090030e-04  1.7494655238010792e-04 
 1.7723570481305753e-04  1.7955481050195869e-04  1.8190426138119245e-04  1.8428445451354938e-04 
 1.8669579215733396e-04  1.8913868183434714e-04  1.9161353639875873e-04  1.9412077410688058e-04 
 1.9666081868785257e-04  1.9923409941525458e-04  2.0184105117965420e-04  2.0448211456210443e-04 
 2.0715773590860285e-04  2.0986836740552524e-04  2.1261446715604624e-04  2.1539649925755958e-04 
 2.1821493388011215e-04  2.2107024734586292e-04  2.2396292220958370e-04  2.2689344734021133e-04 
 2.2986231800346780e-04  2.3287003594556143e-04  2.3591710947798306e-04  2.3900405356341202e-04 
 2.4213138990274600e-04  2.4529964702326985e-04  2.4850936036797732e-04  2.5176107238606332e-04 
 2.5505533262459818e-04  2.5839269782140301e-04  2.6177373199913934e-04  2.6519900656063027e-04 
 2.6866910038542927e-04  2.7218459992765185e-04  2.7574609931508811e-04  2.7935420044961079e-04 
 2.8300951310889942e-04  2.8671265504949349e-04  2.9046425211119487e-04  2.9426493832283596e-04 
 2.9811535600943266e-04  3.0201615590073834e-04  3.0596799724121894e-04  3.0997154790146696e-04 
 3.1402748449107235e-04  3.1813649247297251e-04  3.2229926627929626e-04  3.2651650942872463e-04 
 3.3078893464538733e-04  3.3511726397931482e-04  3.3950222892846623e-04  3.4394457056235479e-04 
 3.4844503964728997e-04  3.5300439677325815e-04  3.5762341248246561e-04  3.6230286739956103e-04 
 3.6704355236356277e-04  3.7184626856151309e-04  3.7671182766388042e-04  3.8164105196173353e-04 
 3.8663477450571088e-04  3.9169383924680809e-04  3.9681910117900693e-04  4.0201142648377291e-04 
 4.0727169267644068e-04  4.1260078875451683e-04  4.1799961534792226e-04  4.2346908487120110e-04 
 4.2901012167772043e-04  4.3462366221588893e-04  4.4031065518741871e-04  4.4607206170765672e-04 
 4.5190885546801793e-04  4.5782202290054012e-04  4.6381256334459317e-04  4.6988148921577017e-04 
 4.7602982617698809e-04  4.8225861331182695e-04  4.8856890330013759e-04  4.9496176259594769e-04 
 5.0143827160769303e-04  5.0799952488081164e-04  5.1464663128272293e-04  5.2138071419022996e-04 
 5.2820291167937161e-04  5.3511437671776121e-04  5.4211627735944003e-04  5.4920979694228185e-04 
 5.5639613428797963e-04  5.6367650390464841e-04  5.7105213619208165e-04  5.7852427764969064e-04 
 5.8609419108716628e-04  5.9376315583789627e-04  6.0153246797517684e-04  6.0940344053125059e-04 
 6.1737740371921334e-04  6.2545570515782311e-04  6.3363971009924901e-04  6.4193080165980557e-04 
 6.5033038105369995e-04  6.5883986782984167e-04  6.6746070011174932e-04  6.7619433484059695e-04 
 6.8504224802144037e-04  6.9400593497266638e-04  7.0308691057870457e-04  7.1228670954604498e-04 
 7.2160688666260972e-04  7.3104901706051468e-04  7.4061469648227041e-04  7.5030554155046609e-04 
 7.6012319004098374e-04  7.7006930115978490e-04  7.8014555582332161e-04  7.9035365694261482e-04 
 8.0069532971104908e-04  8.1117232189593664e-04  8.2178640413389347e-04  8.3253937023007975e-04 
 8.4343303746135941e-04  8.5446924688342208e-04  8.6564986364192763e-04  8.7697677728771890e-04 
 8.8845190209616161e-04  9.0007717739065999e-04  9.1185456787040806e-04  9.2378606394242840e-04 
 9.3587368205795681e-04  9.4811946505322117e-04  9.6052548249469583e-04  9.7309383102885550e-04 
 9.8582663473651658e-04  9.9872604549181097e-04  1.0117942433258576e-03  1.0250334367951951e-03 
 1.0384458633550292e-03  1.0520337897373722e-03  1.0657995123341229e-03  1.0797453575851642e-03 
 1.0938736823715358e-03  1.1081868744137531e-03  1.1226873526753386e-03  1.1373775677716305e-03 
 1.1522600023839444e-03  1.1673371716791516e-03  1.1826116237347501e-03  1.1980859399694877e-03 
 1.2137627355796408e-03  1.2296446599809792e-03  1.2457343972565279e-03  1.2620346666101813e-03 
 1.2785482228262564e-03  1.2952778567350575e-03  1.3122263956845332e-03  1.3293967040181058e-03 
 1.3467916835587501e-03  1.3644142740994100e-03  1.3822674538998313e-03  1.4003542401898916e-03 
 1.4186776896795224e-03  1.4372408990752995e-03  1.4560470056037922e-03  1.4750991875417652e-03 
 1.4944006647533139e-03  1.5139546992340215e-03  1.5337645956622582e-03  1.5538337019576701e-03 
 1.5741654098469873e-03  1.5947631554372346e-03  1.6156304197964412e-03  1.6367707295419506e-03 
 1.6581876574364247e-03  1.6798848229916527e-03  1.7018658930802550e-03  1.7241345825553930e-03 
 1.7466946548785902e-03  1.7695499227557640e-03  1.7927042487815834e-03  1.8161615460922564e-03 
 1.8399257790268594e-03  1.8640009637973193e-03  1.8883911691671667e-03  1.9131005171391542e-03 
 1.9381331836519021e-03  1.9634933992856317e-03  1.9891854499771446e-03  2.0152136777441577e-03 
 2.0415824814191130e-03  2.0682963173925921e-03  2.0953597003664551e-03  2.1227772041168399e-03 
 2.1505534622671351e-03  2.1786931690710785e-03  2.2072010802060955e-03  2.2360820135770196e-03 
 2.2653408501303301e-03  2.2949825346790420e-03  2.3250120767383960e-03  2.3554345513724716e-03 
 2.3862551000518963e-03  2.4174789315227433e-03  2.4491113226868511e-03  2.4811576194936152e-03 
 2.5136232378434693e-03  2.5465136645031841e-03  2.5798344580331496e-03  2.6135912497267789e-03 
 2.6477897445622111e-03  2.6824357221664702e-03  2.7175350377922321e-03  2.7530936233073774e-03 
 2.7891174881974905e-03  2.8256127205814785e-03  2.8625854882404762e-03  2.9000420396602168e-03 
 2.9379887050870416e-03  2.9764318975977226e-03  3.0153781141832986e-03  3.0548339368470581e-03 
 3.0948060337169453e-03  3.1353011601724682e-03  3.1763261599863806e-03  3.2178879664812939e-03 
 3.2599936037014275e-03  3.3026501875996861e-03  3.3458649272402768e-03  3.3896451260170529e-03 
 3.4339981828878092e-03  3.4789315936247216e-03  3.5244529520811504e-03  3.5705699514750199e-03 
 3.6172903856889903e-03  3.6646221505876428e-03  3.7125732453519001e-03  3.7611517738309059e-03 
 3.8103659459116012e-03  3.8602240789061869e-03  3.9107345989578164e-03  3.9619060424645955e-03 
 4.0137470575222706e-03  4.0662664053857725e-03  4.1194729619498938e-03  4.1733757192493276e-03 
 4.2279837869783534e-03  4.2833063940303879e-03  4.3393528900576980e-03  4.3961327470515062e-03 
 4.4536555609427887e-03  4.5119310532240010e-03  4.5709690725920403e-03  4.6307795966126974e-03 
 4.6913727334068848e-03  4.7527587233589380e-03  4.8149479408472733e-03  4.8779508959976466e-03 
 4.9417782364594371e-03  5.0064407492050999e-03  5.0719493623531909e-03  5.1383151470152507e-03 
 5.2055493191668434e-03  5.2736632415430864e-03  5.3426684255589788e-03  5.4125765332548575e-03 
 5.4833993792673119e-03  5.5551489328258844e-03  5.6278373197758960e-03  5.7014768246277468e-03 
 5.7760798926330256e-03  5.8516591318877893e-03  5.9282273154633563e-03  6.0057973835649908e-03 
 6.0843824457188379e-03  6.1639957829874208e-03  6.2446508502142332e-03  6.3263612782976054e-03 
 6.4091408764943604e-03  6.4930036347536210e-03  6.5779637260811293e-03  6.6640355089345365e-03 
 6.7512335296500024e-03  6.8395725249005687e-03  6.9290674241866863e-03  7.0197333523593424e-03 
 7.1115856321761917e-03  7.2046397868911431e-03  7.2989115428778156e-03  7.3944168322873519e-03 
 7.4911717957409710e-03  7.5891927850577834e-03  7.6884963660182985e-03  7.7890993211640214e-03 
 7.8910186526338320e-03  7.9942715850373249e-03  8.0988755683658303e-03  8.2048482809414930e-03 
 8.3122076324049707e-03  8.4209717667421830e-03  8.5311590653507005e-03  8.6427881501462481e-03 
 8.7558778867098397e-03  8.8704473874761224e-03  8.9865160149634141e-03  9.1041033850460095e-03 
 9.2232293702693251e-03  9.3439141032083933e-03  9.4661779798703247e-03  9.5900416631412733e-03 
 9.7155260862785385e-03  9.8426524564482563e-03  9.9714422583095826e-03  1.0101917257645558e-02 
 1.0234099505041616e-02  1.0368011339612172e-02  1.0503675392775993e-02  1.0641114592080957e-02 
 1.0780352165078865e-02  1.0921411643250953e-02  1.1064316865984766e-02  1.1209091984603075e-02 
 1.1355761466445504e-02  1.1504350099003574e-02  1.1654882994109845e-02  1.1807385592181864e-02 
 1.1961883666521685e-02  1.2118403327671588e-02  1.2276971027826860e-02  1.2437613565306196e-02 
 1.2600358089080789e-02  1.2765232103362506e-02  1.2932263472252181e-02  1.3101480424448702e-02 
 1.3272911558019752e-02  1.3446585845234914e-02  1.3622532637462100e-02  1.3800781670127962e-02 
 1.3981363067743269e-02  1.4164307348994026e-02  1.4349645431899182e-02  1.4537408639035871e-02 
 1.4727628702832996e-02  1.4920337770934086e-02  1.5115568411630306e-02  1.5313353619364610e-02 
 1.5513726820307872e-02  1.5716721878007916e-02  1.5922373099112659e-02  1.6130715239167939e-02 
 1.6341783508491303e-02  1.6555613578122626e-02  1.6772241585852617e-02  1.6991704142330172e-02 
 1.7214038337249674e-02  1.7439281745619258e-02  1.7667472434111025e-02  1.7898648967494452e-02 
 1.8132850415153900e-02  1.8370116357691445e-02  1.8610486893616097e-02  1.8854002646120530e-02 
 1.9100704769946505e-02  1.9350634958340125e-02  1.9603835450098125e-02  1.9860349036706183e-02 
 2.0120219069570996e-02  2.0383489467346631e-02  2.0650204723356928e-02  2.0920409913114956e-02 
 2.1194150701940900e-02  2.1471473352679599e-02  2.1752424733519089e-02  2.2037052325911410e-02 
 2.2325404232597140e-02  2.2617529185734789e-02  2.2913476555136741e-02  2.3213296356612800e-02 
 2.3517039260423020e-02  2.3824756599841072e-02  2.4136500379829732e-02  2.4452323285829781e-02 
 2.4772278692664081e-02  2.5096420673557811e-02  2.5424804009277286e-02  2.5757484197387822e-02 
 2.6094517461633025e-02  2.6435960761436710e-02  2.6781871801529224e-02  2.7132309041699647e-02 
 2.7487331706675631e-02  2.7846999796132556e-02  2.8211374094833583e-02  2.8580516182902433e-02 
 2.8954488446230588e-02  2.9333354087020640e-02  2.9717177134467618e-02  3.0106022455580073e-02 
 3.0499955766142769e-02  3.0899043641822794e-02  3.1303353529421055e-02  3.1712953758270740e-02 
 3.2127913551785466e-02  3.2548303039157997e-02  3.2974193267212244e-02  3.3405656212410428e-02 
 3.3842764793017198e-02  3.4285592881423042e-02  3.4734215316628882e-02  3.5188707916894019e-02 
 3.5649147492549639e-02  3.6115611858979921e-02  3.6588179849773021e-02  3.7066931330044135e-02 
 3.7551947209932914e-02  3.8043309458277441e-02  3.8541101116467170e-02  3.9045406312477132e-02 
 3.9556310275085819e-02  4.0073899348278770e-02  4.0598261005841331e-02  4.1129483866141681e-02 
 4.1667657707107550e-02  4.2212873481398974e-02  4.2765223331779484e-02  4.3324800606688425e-02 
 4.3891699876017112e-02  4.4466016947091347e-02  4.5047848880863064e-02  4.5637294008313872e-02 
 4.6234451947073277e-02  4.6839423618254196e-02  4.7452311263508962e-02  4.8073218462308345e-02 
 4.8702250149446770e-02  4.9339512632776528e-02  4.9985113611174109e-02  5.0639162192741317e-02 
 5.1301768913245192e-02  5.1973045754798580e-02  5.2653106164785413e-02  5.3342065075033571e-02 
 5.4040038921238688e-02  5.4747145662642008e-02  5.5463504801965838e-02  5.6189237405609688e-02 
 5.6924466124110923e-02  5.7669315212872857e-02  5.8423910553164302e-02  5.9188379673393819e-02 
 5.9962851770662198e-02  6.0747457732597196e-02  6.1542330159473836e-02  6.2347603386624137e-02 
 6.3163413507140206e-02  6.3989898394873901e-02  6.4827197727738484e-02  6.5675453011314069e-02 
 6.6534807602762480e-02  6.7405406735055046e-02  6.8287397541517206e-02  6.9180929080694523e-02 
 7.0086152361543766e-02  7.1003220368953929e-02  7.1932288089600976e-02  7.2873512538140978e-02 
 7.3827052783745947e-02  7.4793069976986884e-02  7.5771727377068665e-02  7.6763190379421226e-02 
 7.7767626543651727e-02  7.8785205621862586e-02  7.9816099587340067e-02  8.0860482663617728e-02 
 8.1918531353921298e-02  8.2990424470997734e-02  8.4076343167334977e-02  8.5176470965777351e-02 
 8.6290993790541171e-02  8.7420099998636508e-02  8.8563980411699911e-02  8.9722828348243744e-02 
 9.0896839656327416e-02  9.2086212746656293e-02  9.3291148626113457e-02  9.4511850931730368e-02 
 9.5748525965102110e-02  9.7001382727252700e-02  9.8270632953956896e-02  9.9556491151523888e-02 
 1.0085917463304978e-01  1.0217890355514304e-01  1.0351590095513280e-01  1.0487039278876185e-01 
 1.0624260796837387e-01  1.0763277840160025e-01  1.0904113903055290e-01  1.1046792787153019e-01 
 1.1191338605524212e-01  1.1337775786756205e-01  1.1486129079081166e-01  1.1636423554558588e-01 
 1.1788684613312546e-01  1.1942937987824363e-01  1.2099209747281468e-01  1.2257526301983156e-01 
 1.2417914407803976e-01  1.2580401170715552e-01  1.2745014051367576e-01  1.2911780869728623e-01 
 1.3080729809787942e-01  1.3251889424318516e-01  1.3425288639702582e-01  1.3600956760820240e-01 
 1.3778923476002072e-01  1.3959218862046519e-01  1.4141873389302942e-01  1.4326917926821184e-01 
 1.4514383747568510e-01  1.4704302533714814e-01  1.4896706381986974e-01  1.5091627809093297e-01 
 1.5289099757218888e-01  1.5489155599592985e-01  1.5691829146129102e-01  1.5897154649138986e-01 
 1.6105166809121374e-01  1.6315900780626325e-01  1.6529392178196625e-01  1.6745677082386592e-01 
 1.6964792045859817e-01  1.7186774099566637e-01  1.7411660759002465e-01  1.7639490030548008e-01 
 1.7870300417892404e-01  1.8104130928540466e-01  1.8341021080405032e-01  1.8581010908485593e-01 
 1.8824140971634296e-01  1.9070452359410475e-01  1.9319986699024919e-01  1.9572786162374933e-01 
 1.9828893473171516e-01  2.0088351914159785e-01  2.0351205334433736e-01  2.0617498156847036e-01 
 2.0887275385520487e-01  2.1160582613447829e-01  2.1437466030201077e-01  2.1717972429736665e-01 
 2.2002149218303763e-01  2.2290044422455996e-01  2.2581706697168086e-01  2.2877185334058642e-01 
 2.3176530269720566e-01  2.3479792094160459e-01  2.3787022059348442e-01  2.4098272087879866e-01 
 2.4413594781750367e-01  2.4733043431245694e-01  2.5056672023947940e-01  2.5384535253859580e-01 
 2.5716688530646731e-01  2.6053187989003768e-01  2.6394090498140055e-01  2.6739453671391011e-01 
 2.7089335875954923e-01  2.7443796242757112e-01  2.7802894676443213e-01  2.8166691865503213e-01 
 2.8535249292527937e-01  2.8908629244599748e-01  2.9286894823819237e-01  2.9670109957969587e-01 
 3.0058339411320567e-01  3.0451648795573816e-01  3.0850104580951387e-01  3.1253774107429383e-01 
 3.1662725596118529e-01  3.2077028160793830e-01  3.2496751819574671e-01  3.2921967506758443e-01 
 3.3352747084808326e-01  3.3789163356498292e-01  3.4231290077216991e-01  3.4679201967432521e-01 
 3.5132974725320415e-01  3.5592685039556754e-01  3.6058410602278818e-01  3.6530230122215163e-01 
 3.7008223337987650e-01  3.7492471031587404e-01  3.7983055042027214e-01  3.8480058279172463e-01 
 3.8983564737753162e-01  3.9493659511559193e-01  4.0010428807821402e-01  4.0533959961780902e-01 
 4.1064341451448616e-01  4.1601662912558729e-01  4.2146015153717054e-01  4.2697490171747937e-01 
 4.3256181167242008e-01  4.3822182560307238e-01  4.4395590006526198e-01  4.4976500413122067e-01 
 4.5565011955336160e-01  4.6161224093019887e-01  4.6765237587443392e-01  4.7377154518325132e-01 
 4.7997078301082513e-01  4.8625113704310630e-01  4.9261366867487077e-01  4.9905945318911132e-01 
 5.0558957993874876e-01  5.1220515253074983e-01  5.1890728901262639e-01  5.2569712206139374e-01 
 5.3257579917500142e-01  5.3954448286624968e-01  5.4660435085927228e-01  5.5375659628855933e-01 
 5.6100242790061550e-01  5.6834307025822484e-01  5.7577976394742136e-01  5.8331376578713456e-01 
 5.9094634904161092e-01  5.9867880363558279e-01  6.0651243637228458e-01  6.1444857115428952e-01 
 6.2248854920726882e-01  6.3063372930664463e-01  6.3888548800724498e-01  6.4724521987592787e-01 
 6.5571433772727361e-01  6.6429427286236120e-01  6.7298647531064482e-01  6.8179241407503122e-01 
 6.9071357738012573e-01  6.9975147292376527e-01  7.0890762813180241e-01  7.1818359041626523e-01 
 7.2758092743685210e-01  7.3710122736589156e-01  7.4674609915672541e-01  7.5651717281564734e-01 
 7.6641609967735647e-01  7.7644455268405821e-01  7.8660422666817398e-01  7.9689683863879368e-01 
 8.0732412807183207e-01  8.1788785720402679e-01  8.2858981133074150e-01  8.3943179910769206e-01 
 8.5041565285662335e-01  8.6154322887495638e-01  8.7281640774952818e-01  8.8423709467439415e-01 
 8.9580721977283329e-01  9.0752873842351856e-01  9.1940363159100669e-01  9.3143390616050015e-01 
 9.4362159527704081e-01  9.5596875868909070e-01  9.6847748309666037e-01  9.8114988250394020e-01 
 9.9398809857659820e-01  1.0069943010036999e+00  1.0201706878644188e+00  1.0335194859994918e+00 
 1.0470429513875712e+00  1.0607433695265025e+00  1.0746230558195520e+00  1.0886843559667454e+00 
 1.1029296463612674e+00  1.1173613344911077e+00  1.1319818593459010e+00  1.1467936918291541e+00 
 1.1617993351758025e+00  1.1770013253752942e+00  1.1924022316001472e+00  1.2080046566401776e+00 
 1.2238112373423440e+00  1.2398246450564145e+00  1.2560475860863975e+00  1.2724828021479488e+00 
 1.2891330708316906e+00  1.3060012060726689e+00  1.3230900586258829e+00  1.3404025165480824e+00 
 1.3579415056858706e+00  1.3757099901701471e+00  1.3937109729170902e+00  1.4119474961356182e+00 
 1.4304226418415698e+00  1.4491395323785319e+00  1.4681013309455633e+00  1.4873112421317425e+00 
 1.5067725124577918e+00  1.5264884309247055e+00 
  </PP_RAB>
</PP_MESH>


<PP_LOCAL>
6.5781973988956537e+01 6.5781973988610787e+01 6.5781973988352277e+01 6.5781973988110877e+01 
6.5781973987673084e+01 6.5781973987403816e+01 6.5781973987048389e+01 6.5781973986778695e+01 
6.5781973986414471e+01 6.5781973986037755e+01 6.5781973985682811e+01 6.5781973985334403e+01 
6.5781973984940095e+01 6.5781973984567486e+01 6.5781973984042622e+01 6.5781973983658389e+01 
6.5781973983256108e+01 6.5781973982706631e+01 6.5781973982368896e+01 6.5781973981879645e+01 
6.5781973981458364e+01 6.5781973980927589e+01 6.5781973980405752e+01 6.5781973979860865e+01 
6.5781973979455174e+01 6.5781973978805027e+01 6.5781973978317211e+01 6.5781973977687585e+01 
6.5781973977078806e+01 6.5781973976508397e+01 6.5781973975878714e+01 6.5781973975279371e+01 
6.5781973974611333e+01 6.5781973973965151e+01 6.5781973973181167e+01 6.5781973972547434e+01 
6.5781973971844096e+01 6.5781973971067686e+01 6.5781973970304449e+01 6.5781973969532856e+01 
6.5781973968687055e+01 6.5781973967913316e+01 6.5781973967096306e+01 6.5781973966150332e+01 
6.5781973965302512e+01 6.5781973964410554e+01 6.5781973963463258e+01 6.5781973962506044e+01 
6.5781973961460025e+01 6.5781973960506420e+01 6.5781973959476005e+01 6.5781973958427230e+01 
6.5781973957279277e+01 6.5781973956154729e+01 6.5781973955051114e+01 6.5781973953819389e+01 
6.5781973952572557e+01 6.5781973951333029e+01 6.5781973950050713e+01 6.5781973948779509e+01 
6.5781973947388110e+01 6.5781973946014418e+01 6.5781973944591613e+01 6.5781973943113172e+01 
6.5781973941619711e+01 6.5781973940100031e+01 6.5781973938513190e+01 6.5781973936887766e+01 
6.5781973935234475e+01 6.5781973933542659e+01 6.5781973931790958e+01 6.5781973930002337e+01 
6.5781973928155622e+01 6.5781973926238592e+01 6.5781973924281232e+01 6.5781973922370653e+01 
6.5781973920242820e+01 6.5781973918182445e+01 6.5781973915997938e+01 6.5781973913794332e+01 
6.5781973911514655e+01 6.5781973909183705e+01 6.5781973906797731e+01 6.5781973904342507e+01 
6.5781973901797912e+01 6.5781973899233734e+01 6.5781973896554163e+01 6.5781973893856033e+01 
6.5781973891051848e+01 6.5781973888198365e+01 6.5781973885256946e+01 6.5781973882244685e+01 
6.5781973879104697e+01 6.5781973875926553e+01 6.5781973872657545e+01 6.5781973869304252e+01 
6.5781973865885789e+01 6.5781973862316462e+01 6.5781973858682335e+01 6.5781973854971582e+01 
6.5781973851137536e+01 6.5781973847233559e+01 6.5781973843219987e+01 6.5781973839065742e+01 
6.5781973834835895e+01 6.5781973830487530e+01 6.5781973826029443e+01 6.5781973821431023e+01 
6.5781973816724985e+01 6.5781973811926392e+01 6.5781973806934744e+01 6.5781973801863131e+01 
6.5781973796646099e+01 6.5781973791284599e+01 6.5781973785766553e+01 6.5781973780147666e+01 
6.5781973774346355e+01 6.5781973768411348e+01 6.5781973762311850e+01 6.5781973756006394e+01 
6.5781973749586527e+01 6.5781973742985869e+01 6.5781973736220749e+01 6.5781973729263669e+01 
6.5781973722143178e+01 6.5781973714818520e+01 6.5781973707306264e+01 6.5781973699586260e+01 
6.5781973691676100e+01 6.5781973683539547e+01 6.5781973675216634e+01 6.5781973666631430e+01 
6.5781973657877060e+01 6.5781973648828085e+01 6.5781973639603493e+01 6.5781973630076095e+01 
6.5781973620327022e+01 6.5781973610342064e+01 6.5781973600070174e+01 6.5781973589516880e+01 
6.5781973578705362e+01 6.5781973567591947e+01 6.5781973556224074e+01 6.5781973544498172e+01 
6.5781973532490710e+01 6.5781973520185346e+01 6.5781973507526672e+01 6.5781973494553895e+01 
6.5781973481218472e+01 6.5781973467544915e+01 6.5781973453515448e+01 6.5781973439108882e+01 
6.5781973424318267e+01 6.5781973409148790e+01 6.5781973393587677e+01 6.5781973377590347e+01 
6.5781973361184072e+01 6.5781973344365241e+01 6.5781973327067575e+01 6.5781973309335257e+01 
6.5781973291115790e+01 6.5781973272439288e+01 6.5781973253255401e+01 6.5781973233578341e+01 
6.5781973213375423e+01 6.5781973192633487e+01 6.5781973171343722e+01 6.5781973149501809e+01 
6.5781973127077919e+01 6.5781973104063638e+01 6.5781973080443692e+01 6.5781973056208827e+01 
6.5781973031323759e+01 6.5781973005784920e+01 6.5781972979582662e+01 6.5781972952671808e+01 
6.5781972925061638e+01 6.5781972896717107e+01 6.5781972867636298e+01 6.5781972837775584e+01 
6.5781972807122301e+01 6.5781972775679591e+01 6.5781972743399834e+01 6.5781972710260547e+01 
6.5781972676248259e+01 6.5781972641343231e+01 6.5781972605526761e+01 6.5781972568753076e+01 
6.5781972531012471e+01 6.5781972492262724e+01 6.5781972452511809e+01 6.5781972411706121e+01 
6.5781972369821389e+01 6.5781972326833440e+01 6.5781972282711450e+01 6.5781972237419410e+01 
6.5781972190937609e+01 6.5781972143229837e+01 6.5781972094257071e+01 6.5781972043997825e+01 
6.5781971992417454e+01 6.5781971939464754e+01 6.5781971885111375e+01 6.5781971829335063e+01 
6.5781971772084802e+01 6.5781971713317432e+01 6.5781971653007361e+01 6.5781971591100799e+01 
6.5781971527555356e+01 6.5781971462339015e+01 6.5781971395397136e+01 6.5781971326686161e+01 
6.5781971256174074e+01 6.5781971183786226e+01 6.5781971109499651e+01 6.5781971033243707e+01 
6.5781970954968173e+01 6.5781970874645864e+01 6.5781970792187735e+01 6.5781970707555303e+01 
6.5781970620685925e+01 6.5781970531526071e+01 6.5781970440010738e+01 6.5781970346075198e+01 
6.5781970249663203e+01 6.5781970150710507e+01 6.5781970049135282e+01 6.5781969944884224e+01 
6.5781969837871898e+01 6.5781969728042341e+01 6.5781969615306096e+01 6.5781969499593089e+01 
6.5781969380819589e+01 6.5781969258913264e+01 6.5781969133786731e+01 6.5781969005352892e+01 
6.5781968873523994e+01 6.5781968738213735e+01 6.5781968599328607e+01 6.5781968456773541e+01 
6.5781968310450608e+01 6.5781968160268150e+01 6.5781968006109281e+01 6.5781967847880097e+01 
6.5781967685472807e+01 6.5781967518765043e+01 6.5781967347655680e+01 6.5781967172017161e+01 
6.5781966991746160e+01 6.5781966806704915e+01 6.5781966616771413e+01 6.5781966421822204e+01 
6.5781966221712707e+01 6.5781966016313604e+01 6.5781965805486564e+01 6.5781965589084223e+01 
6.5781965366958431e+01 6.5781965138959833e+01 6.5781964904929168e+01 6.5781964664711779e+01 
6.5781964418141854e+01 6.5781964165052543e+01 6.5781963905260369e+01 6.5781963638602889e+01 
6.5781963364889180e+01 6.5781963083935025e+01 6.5781962795545724e+01 6.5781962499528191e+01 
6.5781962195680620e+01 6.5781961883786963e+01 6.5781961563644572e+01 6.5781961235027609e+01 
6.5781960897714882e+01 6.5781960551471030e+01 6.5781960196067402e+01 6.5781959831254170e+01 
6.5781959456780569e+01 6.5781959072397868e+01 6.5781958677833813e+01 6.5781958272824511e+01 
6.5781957857090077e+01 6.5781957430346267e+01 6.5781956992305055e+01 6.5781956542655863e+01 
6.5781956081096666e+01 6.5781955607319404e+01 6.5781955120983454e+01 6.5781954621767213e+01 
6.5781954109323863e+01 6.5781953583300364e+01 6.5781953043339811e+01 6.5781952489071045e+01 
6.5781951920110899e+01 6.5781951336070122e+01 6.5781950736550229e+01 6.5781950121134273e+01 
6.5781949489405648e+01 6.5781948840926574e+01 6.5781948175250008e+01 6.5781947491925322e+01 
6.5781946790476269e+01 6.5781946070424169e+01 6.5781945331270705e+01 6.5781944572508394e+01 
6.5781943793619604e+01 6.5781942994063300e+01 6.5781942173288044e+01 6.5781941330735037e+01 
6.5781940465818863e+01 6.5781939577947668e+01 6.5781938666504260e+01 6.5781937730864371e+01 
6.5781936770385428e+01 6.5781935784402194e+01 6.5781934772234919e+01 6.5781933733183791e+01 
6.5781932666534686e+01 6.5781931571549521e+01 6.5781930447474821e+01 6.5781929293532301e+01 
6.5781928108925626e+01 6.5781926892835060e+01 6.5781925644421449e+01 6.5781924362822821e+01 
6.5781923047151096e+01 6.5781921696498273e+01 6.5781920309928935e+01 6.5781918886481478e+01 
6.5781917425172253e+01 6.5781915924989121e+01 6.5781914384892048e+01 6.5781912803817576e+01 
6.5781911180663798e+01 6.5781909514309518e+01 6.5781907803598230e+01 6.5781906047341693e+01 
6.5781904244321709e+01 6.5781902393285648e+01 6.5781900492950342e+01 6.5781898541991922e+01 
6.5781896539056689e+01 6.5781894482753373e+01 6.5781892371647999e+01 6.5781890204273495e+01 
6.5781887979122232e+01 6.5781885694643904e+01 6.5781883349247110e+01 6.5781880941297757e+01 
6.5781878469118382e+01 6.5781875930983247e+01 6.5781873325121822e+01 6.5781870649715430e+01 
6.5781867902897460e+01 6.5781865082747174e+01 6.5781862187296397e+01 6.5781859214518093e+01 
6.5781856162334606e+01 6.5781853028610414e+01 6.5781849811151531e+01 6.5781846507704898e+01 
6.5781843115955880e+01 6.5781839633527298e+01 6.5781836057978765e+01 6.5781832386797376e+01 
6.5781828617408962e+01 6.5781824747166837e+01 6.5781820773351569e+01 6.5781816693167158e+01 
6.5781812503747361e+01 6.5781808202143139e+01 6.5781803785325266e+01 6.5781799250183852e+01 
6.5781794593522122e+01 6.5781789812056360e+01 6.5781784902413591e+01 6.5781779861129081e+01 
6.5781774684640595e+01 6.5781769369291069e+01 6.5781763911322315e+01 6.5781758306874252e+01 
6.5781752551977178e+01 6.5781746642556243e+01 6.5781740574424717e+01 6.5781734343277549e+01 
6.5781727944695319e+01 6.5781721374134008e+01 6.5781714626926927e+01 6.5781707698276321e+01 
6.5781700583255059e+01 6.5781693276798165e+01 6.5781685773701426e+01 6.5781678068619556e+01 
6.5781670156054048e+01 6.5781662030361389e+01 6.5781653685736742e+01 6.5781645116218300e+01 
6.5781636315675527e+01 6.5781627277813712e+01 6.5781617996157834e+01 6.5781608464056916e+01 
6.5781598674674541e+01 6.5781588620984948e+01 6.5781578295767517e+01 6.5781567691599221e+01 
6.5781556800853153e+01 6.5781545615687563e+01 6.5781534128046161e+01 6.5781522329643366e+01 
6.5781510211966179e+01 6.5781497766263186e+01 6.5781484983538675e+01 6.5781471854544705e+01 
6.5781458369775677e+01 6.5781444519460507e+01 6.5781430293553342e+01 6.5781415681728205e+01 
6.5781400673368609e+01 6.5781385257560402e+01 6.5781369423083902e+01 6.5781353158402851e+01 
6.5781336451657481e+01 6.5781319290653045e+01 6.5781301662853281e+01 6.5781283555366912e+01 
6.5781264954940255e+01 6.5781245847944902e+01 6.5781226220366435e+01 6.5781206057796140e+01 
6.5781185345415849e+01 6.5781164067987945e+01 6.5781142209844589e+01 6.5781119754870858e+01 
6.5781096686495374e+01 6.5781072987676382e+01 6.5781048640886070e+01 6.5781023628098893e+01 
6.5780997930774902e+01 6.5780971529845033e+01 6.5780944405696218e+01 6.5780916538155097e+01 
6.5780887906471520e+01 6.5780858489300584e+01 6.5780828264685297e+01 6.5780797210040234e+01 
6.5780765302131059e+01 6.5780732517054588e+01 6.5780698830222079e+01 6.5780664216334117e+01 
6.5780628649363663e+01 6.5780592102532736e+01 6.5780554548289686e+01 6.5780515958284781e+01 
6.5780476303350071e+01 6.5780435553470497e+01 6.5780393677761154e+01 6.5780350644440475e+01 
6.5780306420802418e+01 6.5780260973189812e+01 6.5780214266964506e+01 6.5780166266477963e+01 
6.5780116935040979e+01 6.5780066234892018e+01 6.5780014127164236e+01 6.5779960571851788e+01 
6.5779905527775327e+01 6.5779848952546672e+01 6.5779790802531139e+01 6.5779731032808684e+01 
6.5779669597136319e+01 6.5779606447906048e+01 6.5779541536103437e+01 6.5779474811263768e+01 
6.5779406221427493e+01 6.5779335713094881e+01 6.5779263231176515e+01 6.5779188718946301e+01 
6.5779112117988092e+01 6.5779033368145377e+01 6.5778952407465567e+01 6.5778869172144752e+01 
6.5778783596469097e+01 6.5778695612756110e+01 6.5778605151291799e+01 6.5778512140267409e+01 
6.5778416505713764e+01 6.5778318171432716e+01 6.5778217058926316e+01 6.5778113087326034e+01 
6.5778006173314878e+01 6.5777896231052409e+01 6.5777783172092469e+01 6.5777666905301672e+01 
6.5777547336772798e+01 6.5777424369736565e+01 6.5777297904470316e+01 6.5777167838202303e+01 
6.5777034065015528e+01 6.5776896475744593e+01 6.5776754957872583e+01 6.5776609395422184e+01 
6.5776459668843415e+01 6.5776305654898778e+01 6.5776147226543586e+01 6.5775984252800910e+01 
6.5775816598634677e+01 6.5775644124817347e+01 6.5775466687791607e+01 6.5775284139530100e+01 
6.5775096327388241e+01 6.5774903093951622e+01 6.5774704276880300e+01 6.5774499708745154e+01 
6.5774289216860623e+01 6.5774072623110129e+01 6.5773849743765922e+01 6.5773620389302536e+01 
6.5773384364204546e+01 6.5773141466765381e+01 6.5772891488881399e+01 6.5772634215837414e+01 
6.5772369426084950e+01 6.5772096891012396e+01 6.5771816374707214e+01 6.5771527633709695e+01 
6.5771230416757732e+01 6.5770924464522778e+01 6.5770609509335870e+01 6.5770285274904097e+01 
6.5769951476016928e+01 6.5769607818242207e+01 6.5769253997610150e+01 6.5768889700286920e+01 
6.5768514602236337e+01 6.5768128368868744e+01 6.5767730654677337e+01 6.5767321102861303e+01 
6.5766899344935439e+01 6.5766465000324573e+01 6.5766017675944667e+01 6.5765556965767018e+01 
6.5765082450367444e+01 6.5764593696457965e+01 6.5764090256402383e+01 6.5763571667712739e+01 
6.5763037452528266e+01 6.5762487117074031e+01 6.5761920151099417e+01 6.5761336027297361e+01 
6.5760734200699375e+01 6.5760114108050416e+01 6.5759475167158442e+01 6.5758816776220812e+01 
6.5758138313124988e+01 6.5757439134722716e+01 6.5756718576077148e+01 6.5755975949681769e+01 
6.5755210544649429e+01 6.5754421625870464e+01 6.5753608433139561e+01 6.5752770180249286e+01 
6.5751906054048789e+01 6.5751015213466758e+01 6.5750096788497459e+01 6.5749149879147993e+01 
6.5748173554344476e+01 6.5747166850797797e+01 6.5746128771824345e+01 6.5745058286122472e+01 
6.5743954326501196e+01 6.5742815788561032e+01 6.5741641529321868e+01 6.5740430365800719e+01 
6.5739181073531412e+01 6.5737892385029610e+01 6.5736562988196255e+01 6.5735191524660650e+01 
6.5733776588057950e+01 6.5732316722240242e+01 6.5730810419417921e+01 6.5729256118228278e+01 
6.5727652201728915e+01 6.5725996995312684e+01 6.5724288764541029e+01 6.5722525712892633e+01 
6.5720705979423570e+01 6.5718827636335661e+01 6.5716888686449565e+01 6.5714887060578604e+01 
6.5712820614798844e+01 6.5710687127611607e+01 6.5708484296995721e+01 6.5706209737341112e+01 
6.5703860976263442e+01 6.5701435451291985e+01 6.5698930506427033e+01 6.5696343388561061e+01 
6.5693671243758658e+01 6.5690911113388836e+01 6.5688059930104856e+01 6.5685114513664274e+01 
6.5682071566584000e+01 6.5678927669623050e+01 6.5675679277085877e+01 6.5672322711940495e+01 
6.5668854160742271e+01 6.5665269668357169e+01 6.5661565132475246e+01 6.5657736297907178e+01 
6.5653778750654766e+01 6.5649687911746568e+01 6.5645459030828590e+01 6.5641087179502648e+01 
6.5636567244399870e+01 6.5631893919980783e+01 6.5627061701050565e+01 6.5622064874978463e+01 
6.5616897513610397e+01 6.5611553464861998e+01 6.5606026343980545e+01 6.5600309524462560e+01 
6.5594396128614605e+01 6.5588279017742337e+01 6.5581950781955427e+01 6.5575403729571974e+01 
6.5568629876109000e+01 6.5561620932842217e+01 6.5554368294919669e+01 6.5546863029012329e+01 
6.5539095860484807e+01 6.5531057160068073e+01 6.5522736930016777e+01 6.5514124789731142e+01 
6.5505209960825738e+01 6.5495981251623419e+01 6.5486427041055791e+01 6.5476535261948101e+01 
6.5466293383666539e+01 6.5455688394107497e+01 6.5444706781003887e+01 6.5433334512527352e+01 
6.5421557017160225e+01 6.5409359162815278e+01 6.5396725235176078e+01 6.5383638915233576e+01 
6.5370083255993180e+01 6.5356040658324559e+01 6.5341492845928883e+01 6.5326420839394075e+01 
6.5310804929312368e+01 6.5294624648430187e+01 6.5277858742802678e+01 6.5260485141924107e+01 
6.5242480927804863e+01 6.5223822302965218e+01 6.5204484557317940e+01 6.5184442033909320e+01 
6.5163668093489363e+01 6.5142135077882344e+01 6.5119814272129048e+01 6.5096675865371324e+01 
6.5072688910451774e+01 6.5047821282200744e+01 6.5022039634383901e+01 6.4995309355285031e+01 
6.4967594521899343e+01 6.4938857852713440e+01 6.4909060659051050e+01 6.4878162794963970e+01 
6.4846122605649825e+01 6.4812896874381707e+01 6.4778440767935265e+01 6.4742707780503451e+01 
6.4705649676091440e+01 6.4667216429387494e+01 6.4627356165110470e+01 6.4586015095837197e+01 
6.4543137458319990e+01 6.4498665448307150e+01 6.4452539153887500e+01 6.4404696487383703e+01 
6.4355073115828503e+01 6.4303602390062338e+01 6.4250215272501805e+01 6.4194840263634404e+01 
6.4137403327306416e+01 6.4077827814879086e+01 6.4016034388340387e+01 6.3951940942470586e+01 
6.3885462526172567e+01 6.3816511263091193e+01 6.3744996271660220e+01 6.3670823584731217e+01 
6.3593896068954052e+01 6.3514113344097261e+01 6.3431371702514433e+01 6.3345564028982139e+01 
6.3256579721156690e+01 6.3164304610918194e+01 6.3068620886893775e+01 6.2969407018477249e+01 
6.2866537681687248e+01 6.2759883687233589e+01 6.2649311911190466e+01 6.2534685228704078e+01 
6.2415862451194265e+01 6.2292698267541930e+01 6.2165043189787760e+01 6.2032743503902942e+01 
6.1895641226229053e+01 6.1753574066221404e+01 6.1606375396169277e+01 6.1453874228605649e+01 
6.1295895202159571e+01 6.1132258576646244e+01 6.0962780238230771e+01 6.0787271715544769e+01 
6.0605540207677883e+01 6.0417388625007504e+01 6.0222615643874292e+01 6.0021015776151785e+01 
5.9812379454799782e+01 5.9596493136531230e+01 5.9373139422760687e+01 5.9142097200037860e+01 
5.8903141801204939e+01 5.8656045188545228e+01 5.8400576160219309e+01 5.8136500581306372e+01 
5.7863581640787089e+01 5.7581580135816374e+01 5.7290254784639252e+01 5.6989362569503847e+01 
5.6678659110913259e+01 5.6357899074541997e+01 5.6026836612112497e+01 5.5685225837489206e+01 
5.5332821339195554e+01 5.4969378730494995e+01 5.4594655238099676e+01 5.4208410330475026e+01 
5.3810406386600889e+01 5.3400409405920172e+01 5.2978189760062286e+01 5.2543522986761047e+01 
5.2096190626203636e+01 5.1635981099836101e+01 5.1162690631424425e+01 5.0676124209915045e+01 
5.0176096593361507e+01 4.9662433352885053e+01 4.9134971955308110e+01 4.8593562882751279e+01 
4.8038070787107984e+01 4.7468375676912302e+01 4.6884374133692297e+01 4.6285980554455932e+01 
4.5673128416490350e+01 4.5045771560170245e+01 4.4403885484968136e+01 4.3747468653342949e+01 
4.3076543796656473e+01 4.2391159216731410e+01 4.1691390076128890e+01 4.0977339669685826e+01 
4.0249140669326685e+01 3.9506956333648326e+01 3.8750981673282041e+01 3.7981444562572037e+01 
3.7198606787674869e+01 3.6402765020797830e+01 3.5594251709955991e+01 3.4773435873352831e+01 
3.3940723787282586e+01 3.3096559556327271e+01 3.2241425554584069e+01 3.1375842726720496e+01 
3.0500370737825445e+01 2.9615607961310154e+01 2.8722191294525537e+01 2.7820795792306214e+01 
2.6912134109335831e+01 2.5996955743055320e+01 2.5076046069811319e+01 2.4150225168069205e+01 
2.3220346423787312e+01 2.2287294914477997e+01 2.1351985570042974e+01 2.0415361110177560e+01 
1.9478389759966177e+01 1.8542062747236777e+01 1.7607391587282471e+01 1.6675405162680558e+01 
1.5747146608117967e+01 1.4823670012344401e+01 1.3906036951593007e+01 1.2995312871003652e+01 
1.2092563332723209e+01 1.1198850151409845e+01 1.0315227439795972e+01 9.4427375887361329e+00 
8.5824072077438682e+00 7.7352430533736269e+00 6.9022279738940266e+00 6.0843168995062396e+00 
5.2824329078445942e+00 4.4974633946498095e+00 3.7302563792987020e+00 2.9816169743028826e+00 
2.2523040469450124e+00 1.5430270999069648e+00 8.5444339606953912e-01 1.8715535064343586e-01 
-4.5829178854751551e-01 -1.0814119544381677e+00 -1.6817799524321546e+00 -2.2590328182152697e+00 
-2.8128708326708458e+00 -3.3430581882293215e+00 -3.8494233043574484e+00 -4.3318587932468322e+00 
-4.7903210800393081e+00 -5.2248296850651883e+00 -5.6354661785241520e+00 -6.0223728207507223e+00 
-6.3857509036409308e+00 -6.7258588109382353e+00 -7.0430098168616961e+00 -7.3375696439945965e+00 
-7.6099538024341502e+00 -7.8606247329404253e+00 -8.0900887772343264e+00 -8.2988929987074300e+00 
-8.4876218766578191e+00 -8.6568938967977065e+00 -8.8073580602391264e+00 -8.9396903325018222e+00 
-9.0545900533534827e+00 -9.1527763275328944e+00 -9.2349844156643446e+00 -9.3019621439801909e+00 
-9.3544663508559598e+00 -9.3932593876416828e+00 -9.4191056908497401e+00 -9.4327684424247078e+00 
-9.4350063345552844e+00 -9.4265704552623042e+00 -9.4082013107714531e+00 -9.3806260004083875e+00 
-9.3445555593888976e+00 -9.3006824843653249e+00 -9.2496784558851850e+00 -9.1921922709744415e+00 
-9.1288479978415076e+00 -9.0602433631843926e+00 -8.9869483807618682e+00 -8.9095042277640744e+00 
-8.8284223731079621e+00 -8.7441839591248804e+00 -8.6572394352502613e+00 -8.5680084393338767e+00 
-8.4768799191366817e+00 -8.3842124835498755e+00 -8.2903349701491020e+00 -8.1955472129690605e+00 
-8.1001209919338315e+00 -8.0043011432819871e+00 -7.9083068086475432e+00 -7.8123327992492504e+00 
-7.7165510509355366e+00 -7.6211121456480635e+00 -7.5261468752009080e+00 -7.4317678241052461e+00 
-7.3380709494634928e+00 -7.2451371376602296e+00 -7.1530337196236706e+00 -7.0618159287478104e+00 
-6.9715282880688081e+00 -6.8822059158979778e+00 -6.7938757417446611e+00 -6.7065576269376175e+00 
-6.6202653868030179e+00 -6.5350077135198434e+00 -6.4507890008007358e+00 -6.3676100733017851e+00 
-6.2854688251255748e+00 -6.2043607729383519e+00 -6.1242795300764277e+00 -6.0452172085824341e+00 
-5.9671647564108543e+00 -5.8901122371037760e+00 -5.8140490590963037e+00 -5.7389641615036115e+00 
-5.6648461628057305e+00 -5.5916834783193092e+00 -5.5194644117608602e+00 -5.4481772255949936e+00 
-5.3778101942492773e+00 -5.3083516436858647e+00 -5.2397899802650851e+00 -5.1721137113291045e+00 
-5.1053114594812703e+00 -5.0393719721421402e+00 -4.9742841276261434e+00 -4.9100369387009284e+00 
-4.8466195543604407e+00 -4.7840212603570791e+00 -4.7222314788921507e+00 -4.6612397677510184e+00 
-4.6010358190840810e+00 -4.5416094579717061e+00 -4.4829506408654103e+00 -4.4250494539655758e+00 
-4.3678961115734740e+00 -4.3114809544405750e+00 -4.2557944481283538e+00 -4.2008271813856810e+00 
-4.1465698645471827e+00 -4.0930133279538419e+00 -4.0401485203960039e+00 -3.9879665075783355e+00 
-3.9364584706061656e+00 -3.8856157044925594e+00 -3.8354296166855071e+00 -3.7858917256147255e+00 
-3.7369936592576112e+00 -3.6887271537239674e+00 -3.6410840518591550e+00 -3.5940563018654101e+00 
-3.5476359559409634e+00 -3.5018151689368251e+00 -3.4565861970309140e+00 -3.4119413964193193e+00 
-3.3678732220244738e+00 -3.3243742262200158e+00 -3.2814370575721217e+00 -3.2390544595970954e+00 
-3.1972192695350041e+00 -3.1559244171391554e+00 -3.1151629234812095e+00 -3.0749278997717195e+00 
-3.0352125461959178e+00 -2.9960101507645227e+00 -2.9573140881794004e+00 -2.9191178187138740e+00 
-2.8814148871074883e+00 -2.8441989214750754e+00 -2.8074636322298594e+00 -2.7712028110205260e+00 
-2.7354103296819856e+00 -2.7000801391997027e+00 -2.6652062686873967e+00 -2.6307828243779472e+00 
-2.5968039886273351e+00 -2.5632640189314464e+00 -2.5301572469555733e+00 -2.4974780775764547e+00 
-2.4652209879366853e+00 -2.4333805265113422e+00 -2.4019513121866605e+00 -2.3709280333506149e+00 
-2.3403054469952433e+00 -2.3100783778305671e+00 -2.2802417174099512e+00 -2.2507904232667766e+00 
-2.2217195180622333e+00 -2.1930240887441497e+00 -2.1646992857166740e+00 -2.1367403220206778e+00 
-2.1091424725247516e+00 -2.0819010731266454e+00 -2.0550115199650234e+00 -2.0284692686414014e+00 
-2.0022698334521336e+00 -1.9764087866303148e+00 -1.9508817575974806e+00 -1.9256844322249678e+00 
-1.9008125521048160e+00 -1.8762619138300880e+00 -1.8520283682844816e+00 -1.8281078199411227e+00 
-1.8044962261704034e+00 -1.7811895965567861e+00 -1.7581839922243905e+00 -1.7354755251713287e+00 
-1.7130603576126207e+00 -1.6909347013315978e+00 -1.6690948170396891e+00 -1.6475370137444667e+00 
-1.6262576481258648e+00 -1.6052531239204468e+00 -1.5845198913136287e+00 -1.5640544463397534e+00 
-1.5438533302899105e+00 -1.5239131291274066e+00 -1.5042304729107863e+00 -1.4848020352243019e+00 
-1.4656245326157427e+00 -1.4466947240415238e+00 -1.4280094103189385e+00 -1.4095654335855008e+00 
-1.3913596767652407e+00 -1.3733890630419248e+00 -1.3556505553390614e+00 -1.3381411558066303e+00 
-1.3208579053144356e+00 -1.3037978829520087e+00 -1.2869582055349660e+00 -1.2703360271177433e+00 
-1.2539285385126264e+00 -1.2377329668149892e+00 -1.2217465749346681e+00 -1.2059666611333859e+00 
-1.1903905585681527e+00 -1.1750156348405620e+00 -1.1598392915519105e+00 -1.1448589638640609e+00 
-1.1300721200659771e+00 -1.1154762611458680e+00 -1.1010689203688335e+00 -1.0868476628599921e+00 
-1.0728100851929765e+00 -1.0589538149837503e+00 -1.0452765104896691e+00 -1.0317758602137195e+00 
-1.0184495825138724e+00 -1.0052954252174791e+00 -9.9231116524064755e-01 -9.7949460821253842e-01 
-9.6684358810450888e-01 -9.5435596686405055e-01 -9.4202963405345164e-01 -9.2986250649312951e-01 
-9.1785252790956739e-01 -9.0599766858779818e-01 -8.9429592502838395e-01 -8.8274531960881053e-01 
-8.7134390024927022e-01 -8.6008974008275452e-01 -8.4898093712940981e-01 -8.3801561397509694e-01 
-8.2719191745410370e-01 -8.1650801833595710e-01 -8.0596211101627746e-01 -7.9555241321162729e-01 
-7.8527716565830163e-01 -7.7513463181500786e-01 -7.6512309756938612e-01 -7.5524087094832082e-01 
-7.4548628183199184e-01 -7.3585768167162213e-01 -7.2635344321086737e-01 -7.1697196021080545e-01 
-7.0771164717848301e-01 -6.9857093909895585e-01 -6.8954829117080285e-01 -6.8064217854504949e-01 
-6.7185109606746429e-01 -6.6317355802418521e-01 -6.5460809789062946e-01 -6.4615326808364781e-01 
-6.3780763971687948e-01 -6.2956980235926729e-01 -6.2143836379669082e-01 -6.1341194979667946e-01 
-6.0548920387616345e-01 -5.9766878707222548e-01 -5.8994937771581213e-01 -5.8232967120836943e-01 
-5.7480837980136179e-01 -5.6738423237863922e-01 -5.6005597424161913e-01 -5.5282236689723308e-01 
-5.4568218784862332e-01 -5.3863423038853664e-01 -5.3167730339538699e-01 -5.2481023113195469e-01 
-5.1803185304668264e-01 -5.1134102357754152e-01 -5.0473661195842601e-01 -4.9821750202805365e-01 
-4.9178259204132974e-01 -4.8543079448315102e-01 -4.7916103588461212e-01 -4.7297225664158737e-01 
-4.6686341083565480e-01 -4.6083346605733350e-01 -4.5488140323160414e-01 -4.4900621644568189e-01 
-4.4320691277901797e-01 -4.3748251213548905e-01 -4.3183204707776168e-01 -4.2625456266379258e-01 
-4.2074911628544071e-01 -4.1531477750916468e-01 -4.0995062791877707e-01 -4.0465576096022982e-01 
-3.9942928178840476e-01 -3.9427030711588196e-01 -3.8917796506366414e-01 -3.8415139501382201e-01 
-3.7918974746405598e-01 -3.7429218388411839e-01 -3.6945787657411011e-01 -3.6468600852458705e-01 
-3.5997577327849389e-01 -3.5532637479486068e-01 -3.5073702731427903e-01 -3.4620695522610268e-01 
-3.4173539293736444e-01 -3.3732158474339713e-01 -3.3296478470010821e-01 -3.2866425649792319e-01 
-3.2441927333733794e-01 -3.2022911780609709e-01 -3.1609308175794054e-01 -3.1201046619293438e-01 
-3.0798058113932886e-01 -3.0400274553696044e-01 -3.0007628712214268e-01 -2.9620054231406023e-01 
-2.9237485610261371e-01 -2.8859858193773014e-01 -2.8487108162008545e-01 -2.8119172519325525e-01 
-2.7755989083724730e-01 -2.7397496476340927e-01 -2.7043634111070408e-01 -2.6694342184331038e-01 
-2.6349561664956023e-01 -2.6009234284216803e-01 -2.5673302525976199e-01 -2.5341709616967334e-01 
-2.5014399517199554e-01 -2.4691316910486780e-01 -2.4372407195099688e-01 -2.4057616474537169e-01 
-2.3746891548418386e-01 -2.3440179903491101e-01 -2.3137429704757484e-01 -2.2838589786713209e-01 
-2.2543609644701024e-01 -2.2252439426374690e-01 -2.1965029923274368e-01 -2.1681332562510050e-01 
-2.1401299398552398e-01 -2.1124883105130332e-01 -2.0852036967232226e-01 -2.0582714873211522e-01 
-2.0316871306993167e-01 -2.0054461340381888e-01 -1.9795440625468622e-01 -1.9539765387136190e-01 
-1.9287392415660648e-01 -1.9038279059409280e-01 -1.8792383217631833e-01 -1.8549663333345923e-01 
-1.8310078386313275e-01 -1.8073587886107736e-01 -1.7840151865271772e-01 -1.7609730872562326e-01 
-1.7382285966283273e-01 -1.7157778707703977e-01 -1.6936171154563520e-01 -1.6717425854657850e-01 
-1.6501505839510769e-01 -1.6288374618125681e-01 -1.6077996170819026e-01 -1.5870334943132369e-01 
-1.5665355839824088e-01 -1.5463024218937743e-01 -1.5263305885947950e-01 -1.5066167087980972e-01 
-1.4871574508110849e-01 -1.4679495259728331e-01 -1.4489896880983383e-01 -1.4302747329298618e-01 
-1.4118014975954482e-01 -1.3935668600743473e-01 -1.3755677386694229e-01 -1.3578010914863228e-01 
-1.3402639159193772e-01 -1.3229532481441844e-01 -1.3058661626166798e-01 -1.2889997715787499e-01 
-1.2723512245701568e-01 -1.2559177079468392e-01 -1.2396964444053658e-01 -1.2236846925135987e-01 
-1.2078797462473503e-01 -1.1922789345330924e-01 
</PP_LOCAL>


<PP_NONLOCAL>
  <PP_BETA>
  1  1      Beta    L
  1190  
 -4.1443824354056374e-10  -4.2535493999542400e-10  -4.3655919259113908e-10  -4.4805857582930379e-10 
 -4.5986086373107416e-10  -4.7197403509270281e-10  -4.8440627887950978e-10  -4.9716599976193454e-10 
 -5.1026182379741527e-10  -5.2370260426193112e-10  -5.3749742763515585e-10  -5.5165561974326316e-10 
 -5.6618675206354419e-10  -5.8110064819508507e-10  -5.9640739049990181e-10  -6.1211732691899949e-10 
 -6.2824107796797111e-10  -6.4478954391687683e-10  -6.6177391215923952e-10  -6.7920566477515163e-10 
 -6.9709658629359652e-10  -7.1545877165924307e-10  -7.3430463440908782e-10  -7.5364691506448202e-10 
 -7.7349868974420796e-10  -7.9387337900443626e-10  -8.1478475691153213e-10  -8.3624696035385420e-10 
 -8.5827449859882435e-10  -8.8088226310175328e-10  -9.0408553757303069e-10  -9.2790000831049375e-10 
 -9.5234177480396997e-10  -9.7742736061914120e-10  -1.0031737245681095e-09  -1.0295982721741987e-09 
 -1.0567188674387580e-09  -1.0845538449179038e-09  -1.1131220221173833e-09  -1.1424427122139288e-09 
 -1.1725357371116979e-09  -1.2034214408426472e-09  -1.2351207033198695e-09  -1.2676549544532130e-09 
 -1.3010461886367217e-09  -1.3353169796176875e-09  -1.3704904957573648e-09  -1.4065905156936709e-09 
 -1.4436414444164513e-09  -1.4816683297661942e-09  -1.5206968793673161e-09  -1.5607534780075177e-09 
 -1.6018652054748896e-09  -1.6440598548649058e-09  -1.6873659513696000e-09  -1.7318127715617118e-09 
 -1.7774303631867397e-09  -1.8242495654764025e-09  -1.8723020299971144e-09  -1.9216202420476700e-09 
 -1.9722375426205454e-09  -2.0241881509416898e-09  -2.0775071876040348e-09  -2.1322306983103541e-09 
 -2.1883956782415557e-09  -2.2460400970668224e-09  -2.3052029246125845e-09  -2.3659241572076020e-09 
 -2.4282448447220304e-09  -2.4922071183186996e-09  -2.5578542189353991e-09  -2.6252305265174142e-09 
 -2.6943815900200718e-09  -2.7653541582015845e-09  -2.8381962112270077e-09  -2.9129569931046680e-09 
 -2.9896870449770187e-09  -3.0684382392883904e-09  -3.1492638148527566e-09  -3.2322184128452056e-09 
 -3.3173581137415094e-09  -3.4047404752306520e-09  -3.4944245711260640e-09  -3.5864710313017905e-09 
 -3.6809420826806100e-09  -3.7779015913018526e-09  -3.8774151054972775e-09  -3.9795499002043040e-09 
 -4.0843750224464368e-09  -4.1919613380117339e-09  -4.3023815793608042e-09  -4.4157103947967684e-09 
 -4.5320243989303876e-09  -4.6514022244745006e-09  -4.7739245754027863e-09  -4.8996742815087633e-09 
 -5.0287363544019238e-09  -5.1611980449788972e-09  -5.2971489024084130e-09  -5.4366808346699983e-09 
 -5.5798881706873653e-09  -5.7268677240983981e-09  -5.8777188587049389e-09  -6.0325435556465460e-09 
 -6.1914464823437263e-09  -6.3545350632571992e-09  -6.5219195525109494e-09  -6.6937131084283490e-09 
 -6.8700318700315664e-09  -7.0509950355560524e-09  -7.2367249430332282e-09  -7.4273471529957222e-09 
 -7.6229905333612166e-09  -7.8237873465521709e-09  -8.0298733389103782e-09  -8.2413878324667848e-09 
 -8.4584738191286882e-09  -8.6812780573477745e-09  -8.9099511713346591e-09  -9.1446477528866762e-09 
 -9.3855264658980433e-09  -9.6327501536228822e-09  -9.8864859487636282e-09  -1.0146905386459284e-08 
 -1.0414184520249989e-08  -1.0688504041096060e-08  -1.0970049399532247e-08  -1.1259010931039635e-08 
 -1.1555583984719798e-08  -1.1859969055358708e-08  -1.2172371918968978e-08  -1.2493003771902691e-08 
 -1.2822081373628395e-08  -1.3159827193269181e-08  -1.3506469560000655e-08  -1.3862242817410445e-08 
 -1.4227387481923855e-08  -1.4602150405402502e-08  -1.4986784942026092e-08  -1.5381551119569878e-08 
 -1.5786715815193852e-08  -1.6202552935862367e-08  -1.6629343603516282e-08  -1.7067376345122635e-08 
 -1.7516947287730386e-08  -1.7978360358664342e-08  -1.8451927490992179e-08  -1.8937968834403799e-08 
 -1.9436812971645510e-08  -1.9948797140655165e-08  -2.0474267462548759e-08  -2.1013579175612224e-08 
 -2.1567096875457151e-08  -2.2135194761502067e-08  -2.2718256889946585e-08  -2.3316677433409196e-08 
 -2.3930860947403797e-08  -2.4561222643836187e-08  -2.5208188671704096e-08  -2.5872196405191552e-08 
 -2.6553694739351815e-08  -2.7253144393579105e-08  -2.7971018223073841e-08  -2.8707801538512473e-08 
 -2.9463992434137631e-08  -3.0240102124490673e-08  -3.1036655290013997e-08  -3.1854190431756969e-08 
 -3.2693260235425347e-08  -3.3554431945019948e-08  -3.4438287746317649e-08  -3.5345425160453421e-08 
 -3.6276457447870170e-08  -3.7232014022908651e-08  -3.8212740879318511e-08  -3.9219301026977697e-08 
 -4.0252374940115551e-08  -4.1312661017342545e-08  -4.2400876053797958e-08  -4.3517755725734498e-08 
 -4.4664055087867019e-08  -4.5840549083822908e-08  -4.7048033070037349e-08  -4.8287323353449407e-08 
 -4.9559257743361369e-08  -5.0864696117834633e-08  -5.2204521005005739e-08  -5.3579638179714257e-08 
 -5.4990977275847173e-08  -5.6439492414813082e-08  -5.7926162850570988e-08  -5.9451993631650431e-08 
 -6.1018016280609789e-08  -6.2625289491392409e-08  -6.4274899845052176e-08  -6.5967962544332191e-08 
 -6.7705622167593518e-08  -6.9489053442602801e-08  -7.1319462040703321e-08  -7.3198085391904829e-08 
 -7.5126193521445016e-08  -7.7105089908385866e-08  -7.9136112366828116e-08  -8.1220633950336982e-08 
 -8.3360063880192345e-08  -8.5555848498090809e-08  -8.7809472243942121e-08  -9.0122458659423446e-08 
 -9.2496371417968334e-08  -9.4932815381887224e-08  -9.7433437687333759e-08  -9.9999928857851436e-08 
 -1.0263402394725225e-07  -1.0533750371260139e-07  -1.0811219581809904e-07  -1.1095997607067558e-07 
 -1.1388276968813379e-07  -1.1688255260069591e-07  -1.1996135278683596e-07  -1.2312125164430031e-07 
 -1.2636438539724278e-07  -1.2969294654042596e-07  -1.3310918532146688e-07  -1.3661541126212511e-07 
 -1.4021399471966679e-07  -1.4390736848935624e-07  -1.4769802944916045e-07  -1.5158854024777907e-07 
 -1.5558153103713812e-07  -1.5967970125052343e-07  -1.6388582142755148e-07  -1.6820273508721438e-07 
 -1.7263336065026409e-07  -1.7718069341223619e-07  -1.8184780756844634e-07  -1.8663785829232994e-07 
 -1.9155408386852858e-07  -1.9659980788216535e-07  -2.0177844146579227e-07  -2.0709348560552321e-07 
 -2.1254853350791789e-07  -2.1814727302921137e-07  -2.2389348916853394e-07  -2.2979106662680885e-07 
 -2.3584399243305335e-07  -2.4205635863986045e-07  -2.4843236508988535e-07  -2.5497632225520221e-07 
 -2.6169265415145484e-07  -2.6858590132876764e-07  -2.7566072394143942e-07  -2.8292190489849467e-07 
 -2.9037435309722179e-07  -2.9802310674188144e-07  -3.0587333674982904e-07  -3.1393035024735215e-07 
 -3.2219959415758457e-07  -3.3068665888292169e-07  -3.3939728208442115e-07  -3.4833735256075168e-07 
 -3.5751291422929453e-07  -3.6693017021210457e-07  -3.7659548702947856e-07  -3.8651539890397043e-07 
 -3.9669661217775907e-07  -4.0714600984635894e-07  -4.1787065621173343e-07  -4.2887780165795834e-07 
 -4.4017488755267412e-07  -4.5176955127763055e-07  -4.6366963139174089e-07  -4.7588317293014108e-07 
 -4.8841843284283792e-07  -5.0128388557664188e-07  -5.1448822880416617e-07  -5.2804038930377867e-07 
 -5.4194952899450174e-07  -5.5622505112995052e-07  -5.7087660665552225e-07  -5.8591410073315327e-07 
 -6.0134769943806944e-07  -6.1718783663208904e-07  -6.3344522101813643e-07  -6.5013084338077392e-07 
 -6.6725598401764671e-07  -6.8483222036691697e-07  -7.0287143483583857e-07  -7.2138582283581168e-07 
 -7.4038790102935582e-07  -7.5989051579460396e-07  -7.7990685191305791e-07  -8.0045044148653573e-07 
 -8.2153517308901035e-07  -8.4317530115263027e-07  -8.6538545559829333e-07  -8.8818065172697294e-07 
 -9.1157630037199865e-07  -9.3558821831877081e-07  -9.6023263899902830e-07  -9.8552622346691047e-07 
 -1.0114860716642356e-06  -1.0381297339826319e-06  -1.0654752231303453e-06  -1.0935410263117760e-06 
 -1.1223461177279710e-06  -1.1519099714065690e-06  -1.1822525743698762e-06  -1.2133944401500087e-06 
 -1.2453566226602549e-06  -1.2781607304320810e-06  -1.3118289412274268e-06  -1.3463840170362146e-06 
 -1.3818493194692524e-06  -1.4182488255569862e-06  -1.4556071439648373e-06  -1.4939495316361556e-06 
 -1.5333019108740886e-06  -1.5736908868740313e-06  -1.6151437657185716e-06  -1.6576885728471950e-06 
 -1.7013540720133727e-06  -1.7461697847419805e-06  -1.7921660103003173e-06  -1.8393738461964370e-06 
 -1.8878252092188248e-06  -1.9375528570318487e-06  -1.9885904103418537e-06  -2.0409723756491308e-06 
 -2.0947341686014962e-06  -2.1499121379655539e-06  -2.2065435902322868e-06  -2.2646668148739616e-06 
 -2.3243211102699130e-06  -2.3855468103191549e-06  -2.4483853117582752e-06  -2.5128791022034386e-06 
 -2.5790717889358576e-06  -2.6470081284502311e-06  -2.7167340567860386e-06  -2.7882967206615666e-06 
 -2.8617445094304779e-06  -2.9371270878803191e-06  -3.0144954298917884e-06  -3.0939018529765279e-06 
 -3.1754000537102784e-06  -3.2590451440770714e-06  -3.3448936887397443e-06  -3.4330037432527099e-06 
 -3.5234348932356495e-06  -3.6162482945317676e-06  -3.7115067143816955e-06  -3.8092745736531188e-06 
 -3.9096179901744033e-06  -4.0126048232259085e-06  -4.1183047192434228e-06  -4.2267891587836433e-06 
 -4.3381315047935648e-06  -4.4524070522163488e-06  -4.5696930789588211e-06  -4.6900688982413830e-06 
 -4.8136159123507412e-06  -4.9404176678181838e-06  -5.0705599120501813e-06  -5.2041306514426350e-06 
 -5.3412202110142144e-06  -5.4819212955976705e-06  -5.6263290526307615e-06  -5.7745411365902283e-06 
 -5.9266577751141904e-06  -6.0827818368591186e-06  -6.2430189011391947e-06  -6.4074773293963338e-06 
 -6.5762683385508223e-06  -6.7495060762831512e-06  -6.9273076982988141e-06  -7.1097934476295188e-06 
 -7.2970867360247547e-06  -7.4893142274896956e-06  -7.6866059240263793e-06  -7.8890952536366334e-06 
 -8.0969191606468888e-06  -8.3102181984163241e-06  -8.5291366244915028e-06  -8.7538224982723160e-06 
 -8.9844277812557741e-06  -9.2211084399258370e-06  -9.4640245513593395e-06  -9.7133404116200366e-06 
 -9.9692246470143313e-06  -1.0231850328284759e-05  -1.0501395087818747e-05  -1.0778041239952719e-05 
 -1.1061975904453243e-05  -1.1353391133259690e-05  -1.1652484040574562e-05  -1.1959456936390232e-05 
 -1.2274517463543231e-05  -1.2597878738389450e-05  -1.2929759495196282e-05  -1.3270384234350242e-05 
 -1.3619983374481154e-05  -1.3978793408606928e-05  -1.4347057064405317e-05  -1.4725023468722178e-05 
 -1.5112948316428966e-05  -1.5511094043744327e-05  -1.5919730006138619e-05  -1.6339132660942890e-05 
 -1.6769585754787385e-05  -1.7211380515997412e-05  -1.7664815852078717e-05  -1.8130198552427278e-05 
 -1.8607843496402357e-05  -1.9098073866905338e-05  -1.9601221369610886e-05  -2.0117626458000401e-05 
 -2.0647638564352262e-05  -2.1191616336847120e-05  -2.1749927882951434e-05  -2.2322951019245455e-05 
 -2.2911073527868020e-05  -2.3514693419753765e-05  -2.4134219204844078e-05  -2.4770070169457123e-05 
 -2.5422676661008124e-05  -2.6092480380275418e-05  -2.6779934681413826e-05  -2.7485504879921560e-05 
 -2.8209668568773376e-05  -2.8952915942937290e-05  -2.9715750132499142e-05  -3.0498687544624514e-05 
 -3.1302258214594671e-05  -3.2127006166157868e-05  -3.2973489781446524e-05  -3.3842282180714896e-05 
 -3.4733971612160493e-05  -3.5649161852099232e-05  -3.6588472615771100e-05  -3.7552539979061785e-05 
 -3.8542016811431971e-05  -3.9557573220355243e-05  -4.0599897007573785e-05  -4.1669694137487869e-05 
 -4.2767689218005807e-05  -4.3894625994189086e-05  -4.5051267855035555e-05  -4.6238398353755459e-05 
 -4.7456821741902477e-05  -4.8707363517732273e-05  -4.9990870989172896e-05  -5.1308213851800008e-05 
 -5.2660284782221941e-05  -5.4048000047289824e-05  -5.5472300129561212e-05  -5.6934150369454573e-05 
 -5.8434541624547624e-05  -5.9974490946482082e-05  -6.1555042275951893e-05  -6.3177267156264811e-05 
 -6.4842265465980118e-05  -6.6551166171141551e-05  -6.8305128097635544e-05  -7.0105340724222783e-05 
 -7.1953024996804750e-05  -7.3849434164502517e-05  -7.5795854638143609e-05  -7.7793606871764910e-05 
 -7.9844046267762384e-05  -8.1948564106330721e-05  -8.4108588499858601e-05  -8.6325585372960714e-05 
 -8.8601059468849361e-05  -9.0936555382767090e-05  -9.3333658623222213e-05  -9.5793996701791910e-05 
 -9.8319240252276317e-05  -1.0091110418001235e-04  -1.0357134884217832e-04  -1.0630178125994242e-04 
 -1.0910425636333482e-04  -1.1198067826974958e-04  -1.1493300159700238e-04  -1.1796323281190689e-04 
 -1.2107343161534935e-04  -1.2426571236488076e-04  -1.2754224553586244e-04  -1.3090525922224806e-04 
 -1.3435704067809581e-04  -1.3789993790095875e-04  -1.4153636125831538e-04  -1.4526878515825023e-04 
 -1.4909974976562378e-04  -1.5303186276500861e-04  -1.5706780117170642e-04  -1.6121031319220092e-04 
 -1.6546222013544089e-04  -1.6982641837638845e-04  -1.7430588137331337e-04  -1.7890366174035447e-04 
 -1.8362289337691946e-04  -1.8846679365554063e-04  -1.9343866566984652e-04  -1.9854190054437485e-04 
 -2.0377997980798650e-04  -2.0915647783270732e-04  -2.1467506433987666e-04  -2.2033950697553540e-04 
 -2.2615367395705183e-04  -2.3212153679304145e-04  -2.3824717307870282e-04  -2.4453476936875390e-04 
 -2.5098862413022944e-04  -2.5761315077745786e-04  -2.6441288079162529e-04  -2.7139246692739461e-04 
 -2.7855668650913470e-04  -2.8591044481939752e-04  -2.9345877858235177e-04  -3.0120685954499138e-04 
 -3.0915999815899945e-04  -3.1732364736626606e-04  -3.2570340649113811e-04  -3.3430502524259276e-04 
 -3.4313440782961241e-04  -3.5219761719316691e-04  -3.6150087935830346e-04  -3.7105058790997086e-04 
 -3.8085330859631799e-04  -3.9091578406333241e-04  -4.0124493872481634e-04  -4.1184788377182803e-04 
 -4.2273192232585206e-04  -4.3390455474011781e-04  -4.4537348405362004e-04  -4.5714662160255379e-04 
 -4.6923209279405281e-04  -4.8163824304725902e-04  -4.9437364390695195e-04  -5.0744709933512591e-04 
 -5.2086765218610769e-04  -5.3464459087097956e-04  -5.4878745621730614e-04  -5.6330604853033770e-04 
 -5.7821043486211172e-04  -5.9351095649508062e-04  -6.0921823664713214e-04  -6.2534318840513849e-04 
 -6.4189702289438300e-04  -6.5889125769151027e-04  -6.7633772548892105e-04  -6.9424858301879878e-04 
 -7.1263632024527463e-04  -7.3151376983354147e-04  -7.5089411690504380e-04  -7.7079090908823019e-04 
 -7.9121806687467030e-04  -8.1218989429074644e-04  -8.3372108989546818e-04  -8.5582675811539226e-04 
 -8.7852242092801734e-04  -9.0182402990546761e-04  -9.2574797863071562e-04  -9.5031111549908742e-04 
 -9.7553075691823637e-04  -1.0014247009203388e-03  -1.0280112412007368e-03  -1.0553091815978439e-03 
 -1.0833378510296859e-03  -1.1121171189030770e-03  -1.1416674110120025e-03  -1.1720097259425013e-03 
 -1.2031656520019808e-03  -1.2351573846916069e-03  -1.2680077447411787e-03  -1.3017401967266586e-03 
 -1.3363788682913267e-03  -1.3719485699923988e-03  -1.4084748157957912e-03  -1.4459838442426919e-03 
 -1.4845026403124753e-03  -1.5240589580075956e-03  -1.5646813436870561e-03  -1.6063991601762092e-03 
 -1.6492426116817270e-03  -1.6932427695418328e-03  -1.7384315988430822e-03  -1.7848419859363015e-03 
 -1.8325077668856534e-03  -1.8814637568861988e-03  -1.9317457806868636e-03  -1.9833907040571574e-03 
 -2.0364364663377288e-03  -2.0909221141164722e-03  -2.1468878360736410e-03  -2.2043749990413417e-03 
 -2.2634261853246291e-03  -2.3240852313334893e-03  -2.3863972675771134e-03  -2.4504087600739463e-03 
 -2.5161675532334961e-03  -2.5837229142680615e-03  -2.6531255791951967e-03  -2.7244278004943073e-03 
 -2.7976833964834455e-03  -2.8729478024853211e-03  -2.9502781238544846e-03  -3.0297331909406658e-03 
 -3.1113736160667191e-03  -3.1952618526027840e-03  -3.2814622562219089e-03  -3.3700411484262117e-03 
 -3.4610668824362418e-03  -3.5546099115405026e-03  -3.6507428600061603e-03  -3.7495405966563584e-03 
 -3.8510803112242120e-03  -3.9554415935982344e-03  -4.0627065160790303e-03  -4.1729597187721889e-03 
 -4.2862884982478155e-03  -4.4027828996026554e-03  -4.5225358120668767e-03  -4.6456430683033808e-03 
 -4.7722035475541661e-03  -4.9023192827947768e-03  -5.0360955720648304e-03  -5.1736410941496851e-03 
 -5.3150680287960810e-03  -5.4604921816518905e-03  -5.6100331141287416e-03  -5.7638142783941774e-03 
 -5.9219631577090643e-03  -6.0846114123347421e-03  -6.2518950312440650e-03  -6.4239544898799612e-03 
 -6.6009349142150779e-03  -6.7829862513771105e-03  -6.9702634471143282e-03  -7.1629266303876301e-03 
 -7.3611413053865172e-03  -7.5650785512786124e-03  -7.7749152300141088e-03  -7.9908342025195225e-03 
 -8.2130245536278096e-03  -8.4416818261053728e-03  -8.6770082641499050e-03  -8.9192130667470598e-03 
 -9.1685126512883863e-03  -9.4251309278670908e-03  -9.6892995846835205e-03  -9.9612583850069193e-03 
 -1.0241255476155536e-02  -1.0529547710972458e-02  -1.0826400982290213e-02  -1.1132090570892886e-02 
 -1.1446901507499850e-02  -1.1771128949311064e-02  -1.2105078571669528e-02  -1.2449066975411007e-02 
 -1.2803422110486901e-02  -1.3168483716459912e-02  -1.3544603780486322e-02  -1.3932147013411817e-02 
 -1.4331491344620084e-02  -1.4743028436284271e-02  -1.5167164217681718e-02  -1.5604319440240632e-02 
 -1.6054930253993696e-02  -1.6519448806118688e-02  -1.6998343862247835e-02  -1.7492101451227808e-02 
 -1.8001225534007743e-02  -1.8526238697326655e-02  -1.9067682872859343e-02  -1.9626120082465014e-02 
 -2.0202133210162041e-02  -2.0796326801425073e-02  -2.1409327890368823e-02  -2.2041786855341829e-02 
 -2.2694378303406388e-02  -2.3367801984122173e-02  -2.4062783732986131e-02  -2.4780076444801267e-02 
 -2.5520461077157688e-02  -2.6284747684105186e-02  -2.7073776479977198e-02  -2.7888418933191661e-02 
 -2.8729578889699063e-02  -2.9598193725575751e-02  -3.0495235528063248e-02  -3.1421712304135596e-02 
 -3.2378669215428361e-02  -3.3367189838088271e-02  -3.4388397445794472e-02  -3.5443456313858528e-02 
 -3.6533573041930910e-02  -3.7659997892418952e-02  -3.8824026141252771e-02  -4.0026999437120792e-02 
 -4.1270307164725364e-02  -4.2555387806980448e-02  -4.3883730300384845e-02  -4.5256875377043183e-02 
 -4.6676416885977540e-02  -4.8144003085459935e-02  -4.9661337897101060e-02  -5.1230182111342379e-02 
 -5.2852354532813485e-02  -5.4529733052724960e-02  -5.6264255634064252e-02  -5.8057921193837084e-02 
 -5.9912790364947614e-02  -6.1830986118519879e-02  -6.3814694225535276e-02  -6.5866163534573613e-02 
 -6.7987706040206028e-02  -7.0181696714170724e-02  -7.2450573068878768e-02  -7.4796834420022121e-02 
 -7.7223040812095869e-02  -7.9731811567484559e-02  -8.2325823416404348e-02  -8.5007808161420326e-02 
 -8.7780549826485699e-02  -9.0646881236458449e-02  -9.3609679968856940e-02  -9.6671863615213557e-02 
 -9.9836384284785876e-02  -1.0310622227859574e-01  -1.0648437885680541e-01  -1.0997386801732213e-01 
 -1.1357770719827542e-01  -1.1729890681166580e-01  -1.2114045851007213e-01  -1.2510532208288491e-01 
 -1.2919641087314501e-01  -1.3341657560078291e-01  -1.3776858647296006e-01  -1.4225511345736486e-01 
 -1.4687870458986452e-01  -1.5164176218391900e-01  -1.5654651680580878e-01  -1.6159499887711831e-01 
 -1.6678900776426558e-01  -1.7213007821430615e-01  -1.7761944399703655e-01  -1.8325799861575748e-01 
 -1.8904625295320282e-01  -1.9498428972538118e-01  -2.0107171462468026e-01  -2.0730760404490747e-01 
 -2.1369044929528480e-01  -2.2021809722818414e-01  -2.2688768722693189e-01  -2.3369558452573869e-01 
 -2.4063730986413401e-01  -2.4770746551361630e-01  -2.5489965775499035e-01  -2.6220641593145999e-01 
 -2.6961910825540297e-01  -2.7712785460619693e-01  -2.8472143662291133e-01  -2.9238720546931496e-01 
 -3.0011098772983080e-01  -3.0787698998379387e-01  -3.1566770270181704e-01  -3.2346380421207294e-01 
 -3.3124406559566955e-01  -3.3898525748866332e-01  -3.4666205989299642e-01  -3.5424697622899964e-01 
 -3.6171025299702292e-01  -3.6901980655391226e-01  -3.7614115864986336e-01  -3.8303738251071823e-01 
 -3.8966906138776897e-01  -3.9599426162899409e-01  -4.0196852244937420e-01  -4.0754486469021095e-01 
 -4.1267382095444938e-01  -4.1730348958285296e-01  -4.2137961499004212e-01  -4.2484569690530627e-01 
 -4.2764313105556689e-01  -4.2971138378212270e-01  -4.3098820299317575e-01  -4.3140986771581968e-01 
 -4.3091147831868309e-01  -4.2942728922514084e-01  -4.2689108562228395e-01  -4.2323660528891688e-01 
 -4.1839800621356277e-01  -4.1231038014876098e-01  -4.0491031164999602e-01  -3.9613648147713165e-01 
 -3.8593031249568771e-01  -3.7423665540937040e-01  -3.6100451079085744e-01  -3.4618778296467118e-01 
 -3.2974606034662041e-01  -3.1164541587452776e-01  -2.9185922019365962e-01  -2.7036895930996352e-01 
 -2.4716504751948026e-01  -2.2224762559141181e-01  -1.9562733345386910e-01  -1.6732604603493137e-01 
 -1.3737756047487087e-01  -1.0582822267188305e-01  -7.2737481070291654e-02  -3.8178355753991179e-02 
 -2.2378112629028845e-03  3.4982977914576198e-02  7.3368479542600867e-02  1.1278878313613684e-01 
 1.5309971557373858e-01  1.9414310091086950e-01  2.3574717187904706e-01  2.7772714015029037e-01 
 3.1988593227570772e-01  3.6201509827320383e-01  4.0389590009146220e-01  4.4530058749647644e-01 
 4.8599386911499709e-01  5.2573458613848312e-01  5.6427759516447462e-01  6.0137586437822621e-01 
 6.3678278327285809e-01  6.7025467993844157e-01  7.0155353136259224e-01  7.3044984125131107e-01 
 7.5672564714686785e-01  7.8017760516910162e-01  8.0062008805404716e-01  8.1788822198127642e-01 
 8.3184078139473128e-01  8.4236285943378564e-01  8.4936823470498857e-01  8.5280136225535197e-01 
 8.5263892672139330e-01  8.4889090772594022e-01  8.4160112095207307e-01  8.3084721249362692e-01 
 8.1674009872067921e-01  7.9942285855516437e-01  7.7906909906484612e-01  7.5588082785252153e-01 
 7.3008587611176545e-01  7.0193492402174795e-01  6.7169818539841286e-01  6.3966181168200842e-01 
 6.0612407715858907e-01  5.7139140853910730e-01  5.3577432320204565e-01  4.9958334176286190e-01 
 4.6312494228274542e-01  4.2669762599929401e-01  3.9058815762940824e-01  3.5506803917874785e-01 
 3.2039032619210012e-01  2.8678678737971425e-01  2.5446549227202298e-01  2.2360886535595662e-01 
 1.9437223864773495e-01  1.6688292323214099e-01  1.4123980718488208e-01  1.1751347382011766e-01 
 9.5746820927114687e-02  7.5956149117352018e-02  5.8132676085984325e-02  4.2244423916264977e-02 
 2.8238418848254992e-02  1.6043137417944876e-02  5.5711296674069493e-03  -3.2782507568062170e-03 
 -1.0616078447667520e-02  -1.6561115441400036e-02  -2.1237157971770948e-02  -2.4770524231617595e-02 
 -2.7287728700442312e-02  -2.8913379900534879e-02  -2.9768329316872184e-02  -2.9968090012377626e-02 
 -2.9621534516696246e-02  -2.8829873150810068e-02  -2.7685906311361912e-02  -2.6273537563792613e-02 
 -2.4667528813236458e-02  -2.2933474412096564e-02  -2.1127967846624626e-02  -1.9298932597704540e-02 
 -1.7486087828329423e-02  -1.5721519613301198e-02  -1.4030329372068705e-02  -1.2431332852036715e-02 
 -1.0937785286183305e-02  -9.5581110626558625e-03  -8.2966192459307201e-03  -7.1541894391991502e-03 
 -6.1289156496135318e-03  -5.2166989018976526e-03  -4.4117822503940279e-03  -3.7072244930811873e-03 
 -3.0953112412386878e-03  -2.5679040119909085e-03  -2.1167296712326731e-03  -1.7336138636567006e-03 
 -1.4106630318349201e-03  -1.1404002783772539e-03  -9.1586068947080521e-04  -7.3065185485303452e-04 
 -5.7898522778082183e-04  -4.5568371013082802e-04  -3.5617046269910527e-04  -2.7644346695020791e-04 
 -2.1303983617580372e-04  -1.6299332119343202e-04  -1.2378790341219478e-04  -9.3309836411761856e-05 
 -6.9800001316728955e-05  -5.1807991879755502e-05  -3.8148948830892553e-05  -2.7863822776278794e-05 
 -2.0183460824200142e-05  -1.4496682038203980e-05  -1.0322326895466991e-05  -7.2851311508429838e-06 
 -5.0951792065223433e-06  -3.5306302936820468e-06  -2.4233765955379441e-06  -1.6472802418169157e-06 
 -1.1086407568894167e-06  -7.3856145325144051e-07  -4.8690849453932954e-07  -3.1758663633019171e-07 
 -2.0488832194083195e-07  -1.3070582639673801e-07  -8.2427987817524683e-08  -5.1372684395430480e-08 
 -3.1632965162456547e-08  -1.9238282005376254e-08  -1.1552510458734297e-08  -6.8474886925740815e-09 
 -4.0048700637690318e-09  -2.3104735152752868e-09  -1.3143718571465138e-09  -7.3703013068792243e-10 
 -4.0723287448739239e-10  -2.2162941930932157e-10  -1.1876021029263157e-10  -6.2632678852833114e-11 
 -3.2496773659432678e-11  -1.6580870856384926e-11  -8.3160088785025517e-12  -4.0979985014888108e-12 
 -1.9832659580651971e-12  -9.4220892874196725e-13  -4.3918391537079740e-13  -2.0077077820731155e-13 
 -8.9949239820449965e-14  -3.9496399673937491e-14  -1.6979481748780570e-14  -7.1460055238672371e-15 
 -2.9422465478440111e-15  -1.1844739738634496e-15  -4.6933079955708658e-16  -1.7615418233996598e-16 
 -6.2776909781257963e-17  -2.4625572994997406e-17  -7.5042014932663208e-18  0.0000000000000000e+00 
 0.0000000000000000e+00  0.0000000000000000e+00  0.0000000000000000e+00  0.0000000000000000e+00 
 0.0000000000000000e+00  0.0000000000000000e+00  0.0000000000000000e+00  0.0000000000000000e+00 
 0.0000000000000000e+00  0.0000000000000000e+00  0.0000000000000000e+00  0.0000000000000000e+00 
 0.0000000000000000e+00  0.0000000000000000e+00  0.0000000000000000e+00  0.0000000000000000e+00 
 0.0000000000000000e+00  0.0000000000000000e+00  0.0000000000000000e+00  0.0000000000000000e+00 
 0.0000000000000000e+00  0.0000000000000000e+00  0.0000000000000000e+00  0.0000000000000000e+00 
 0.0000000000000000e+00  0.0000000000000000e+00  0.0000000000000000e+00  0.0000000000000000e+00 
 0.0000000000000000e+00  0.0000000000000000e+00  0.0000000000000000e+00  0.0000000000000000e+00 
 0.0000000000000000e+00  0.0000000000000000e+00  0.0000000000000000e+00  0.0000000000000000e+00 
 0.0000000000000000e+00  0.0000000000000000e+00  0.0000000000000000e+00  0.0000000000000000e+00 
 0.0000000000000000e+00  0.0000000000000000e+00  0.0000000000000000e+00  0.0000000000000000e+00 
 0.0000000000000000e+00  0.0000000000000000e+00  0.0000000000000000e+00  0.0000000000000000e+00 
 0.0000000000000000e+00  0.0000000000000000e+00  0.0000000000000000e+00  0.0000000000000000e+00 
 0.0000000000000000e+00  0.0000000000000000e+00  0.0000000000000000e+00  0.0000000000000000e+00 
 0.0000000000000000e+00  0.0000000000000000e+00  0.0000000000000000e+00  0.0000000000000000e+00 
 0.0000000000000000e+00  0.0000000000000000e+00  0.0000000000000000e+00  0.0000000000000000e+00 
 0.0000000000000000e+00  0.0000000000000000e+00  0.0000000000000000e+00  0.0000000000000000e+00 
 0.0000000000000000e+00  0.0000000000000000e+00  0.0000000000000000e+00  0.0000000000000000e+00 
 0.0000000000000000e+00  0.0000000000000000e+00  0.0000000000000000e+00  0.0000000000000000e+00 
 0.0000000000000000e+00  0.0000000000000000e+00  0.0000000000000000e+00  0.0000000000000000e+00 
 0.0000000000000000e+00  0.0000000000000000e+00  0.0000000000000000e+00  0.0000000000000000e+00 
 0.0000000000000000e+00  0.0000000000000000e+00  0.0000000000000000e+00  0.0000000000000000e+00 
 0.0000000000000000e+00  0.0000000000000000e+00  0.0000000000000000e+00  0.0000000000000000e+00 
 0.0000000000000000e+00  0.0000000000000000e+00  0.0000000000000000e+00  0.0000000000000000e+00 
 0.0000000000000000e+00  0.0000000000000000e+00  0.0000000000000000e+00  0.0000000000000000e+00 
 0.0000000000000000e+00  0.0000000000000000e+00  0.0000000000000000e+00  0.0000000000000000e+00 
 0.0000000000000000e+00  0.0000000000000000e+00  0.0000000000000000e+00  0.0000000000000000e+00 
 0.0000000000000000e+00  0.0000000000000000e+00  0.0000000000000000e+00  0.0000000000000000e+00 
 0.0000000000000000e+00  0.0000000000000000e+00  0.0000000000000000e+00  0.0000000000000000e+00 
 0.0000000000000000e+00  0.0000000000000000e+00  0.0000000000000000e+00  0.0000000000000000e+00 
 0.0000000000000000e+00  0.0000000000000000e+00  0.0000000000000000e+00  0.0000000000000000e+00 
 0.0000000000000000e+00  0.0000000000000000e+00  0.0000000000000000e+00  0.0000000000000000e+00 
 0.0000000000000000e+00  0.0000000000000000e+00  0.0000000000000000e+00  0.0000000000000000e+00 
 0.0000000000000000e+00  0.0000000000000000e+00  0.0000000000000000e+00  0.0000000000000000e+00 
 0.0000000000000000e+00  0.0000000000000000e+00  0.0000000000000000e+00  0.0000000000000000e+00 
 0.0000000000000000e+00  0.0000000000000000e+00  0.0000000000000000e+00  0.0000000000000000e+00 
 0.0000000000000000e+00  0.0000000000000000e+00  0.0000000000000000e+00  0.0000000000000000e+00 
 0.0000000000000000e+00  0.0000000000000000e+00  0.0000000000000000e+00  0.0000000000000000e+00 
 0.0000000000000000e+00  0.0000000000000000e+00  0.0000000000000000e+00  0.0000000000000000e+00 
 0.0000000000000000e+00  0.0000000000000000e+00  0.0000000000000000e+00  0.0000000000000000e+00 
 0.0000000000000000e+00  0.0000000000000000e+00  0.0000000000000000e+00  0.0000000000000000e+00 
 0.0000000000000000e+00  0.0000000000000000e+00  0.0000000000000000e+00  0.0000000000000000e+00 
 0.0000000000000000e+00  0.0000000000000000e+00  0.0000000000000000e+00  0.0000000000000000e+00 
 0.0000000000000000e+00  0.0000000000000000e+00  0.0000000000000000e+00  0.0000000000000000e+00 
 0.0000000000000000e+00  0.0000000000000000e+00  0.0000000000000000e+00  0.0000000000000000e+00 
 0.0000000000000000e+00  0.0000000000000000e+00  0.0000000000000000e+00  0.0000000000000000e+00 
 0.0000000000000000e+00  0.0000000000000000e+00  0.0000000000000000e+00  0.0000000000000000e+00 
 0.0000000000000000e+00  0.0000000000000000e+00  0.0000000000000000e+00  0.0000000000000000e+00 
 0.0000000000000000e+00  0.0000000000000000e+00  0.0000000000000000e+00  0.0000000000000000e+00 
 0.0000000000000000e+00  0.0000000000000000e+00  0.0000000000000000e+00  0.0000000000000000e+00 
 0.0000000000000000e+00  0.0000000000000000e+00  0.0000000000000000e+00  0.0000000000000000e+00 
 0.0000000000000000e+00  0.0000000000000000e+00  0.0000000000000000e+00  0.0000000000000000e+00 
 0.0000000000000000e+00  0.0000000000000000e+00  0.0000000000000000e+00  0.0000000000000000e+00 
 0.0000000000000000e+00  0.0000000000000000e+00  0.0000000000000000e+00  0.0000000000000000e+00 
 0.0000000000000000e+00  0.0000000000000000e+00 
  </PP_BETA>
  <PP_BETA>
  2  2      Beta    L
  1190  
 -8.5018386420889482e-16  -8.8399608775432903e-16  -9.1915303979280963e-16  -9.5570820082728182e-16 
 -9.9371717830618372e-16  -1.0332377912131030e-15  -1.0743301580206011e-15  -1.1170567881419991e-15 
 -1.1614826770202582e-15  -1.2076754049985743e-15  -1.2557052401231202e-15  -1.3056452450342897e-15 
 -1.3575713881090707e-15  -1.4115626590235850e-15  -1.4677011889116326e-15  -1.5260723753019850e-15 
 -1.5867650120244836e-15  -1.6498714242825938e-15  -1.7154876090978366e-15  -1.7837133813397794e-15 
 -1.8546525255636965e-15  -1.9284129538868955e-15  -2.0051068701438690e-15  -2.0848509405699577e-15 
 -2.1677664712732053e-15  -2.2539795927643336e-15  -2.3436214518255813e-15  -2.4368284110102718e-15 
 -2.5337422560765246e-15  -2.6345104116707709e-15  -2.7392861655890719e-15  -2.8482289019574017e-15 
 -2.9615043436856876e-15  -3.0792848045642685e-15  -3.2017494513864669e-15  -3.3290845764957860e-15 
 -3.4614838811725464e-15  -3.5991487702908707e-15  -3.7422886586943466e-15  -3.8911212897564287e-15 
 -4.0458730666100823e-15  -4.2067793965506428e-15  -4.3740850491357312e-15  -4.5480445285269431e-15 
 -4.7289224606398071e-15  -4.9169939956908374e-15  -5.1125452267541102e-15  -5.3158736249640140e-15 
 -5.5272884920262241e-15  -5.7471114307253270e-15  -5.9756768341446135e-15  -6.2133323943425916e-15 
 -6.4604396312595866e-15  -6.7173744426594116e-15  -6.9845276759422994e-15  -7.2623057226993624e-15 
 -7.5511311369124441e-15  -7.8514432777404151e-15  -8.1636989778691509e-15  -8.4883732384422535e-15 
 -8.8259599516294004e-15  -9.1769726519317066e-15  -9.5419452973667946e-15  -9.9214330817219408e-15 
 -1.0316013279111054e-14  -1.0726286122119953e-14  -1.1152875714876064e-14  -1.1596430982431113e-14 
 -1.2057626657901606e-14  -1.2537164308867906e-14  -1.3035773404594115e-14  -1.3554212425691595e-14 
 -1.4093270017914351e-14  -1.4653766191841531e-14  -1.5236553570271810e-14  -1.5842518685227248e-14 
 -1.6472583326539720e-14  -1.7127705944071234e-14  -1.7808883105701171e-14  -1.8517151013298432e-14 
 -1.9253587078984677e-14  -2.0019311564086205e-14  -2.0815489283267703e-14  -2.1643331376440378e-14 
 -2.2504097151139599e-14  -2.3399095998175045e-14  -2.4329689383466770e-14  -2.5297292919098144e-14 
 -2.6303378516735072e-14  -2.7349476626688141e-14  -2.8437178566023041e-14  -2.9568138939261428e-14 
 -3.0744078155354021e-14  -3.1966785044754982e-14  -3.3238119580578847e-14  -3.4560015707978931e-14 
 -3.5934484286051635e-14  -3.7363616146742022e-14  -3.8849585275403003e-14  -4.0394652117847262e-14 
 -4.2001167018922712e-14  -4.3671573797840969e-14  -4.5408413465699063e-14  -4.7214328090848420e-14 
 -4.9092064817991812e-14  -5.1044480047121884e-14  -5.3074543778657561e-14  -5.5185344131389317e-14 
 -5.7380092040105360e-14  -5.9662126140043893e-14  -6.2034917845604055e-14  -6.4502076631038396e-14 
 -6.7067355521161501e-14  -6.9734656800427377e-14  -7.2508037949058895e-14  -7.5391717815260692e-14 
 -7.8390083032904119e-14  -8.1507694694446129e-14  -8.4749295289234512e-14  -8.8119815917751875e-14 
 -9.1624383792774708e-14  -9.5268330038857160e-14  -9.9057197802003999e-14  -1.0299675068186907e-13 
 -1.0709298149930788e-13  -1.1135212141261833e-13  -1.1578064939634087e-13  -1.2038530209703477e-13 
 -1.2517308408102148e-13  -1.3015127848969086e-13  -1.3532745811856898e-13  -1.4070949693701055e-13 
 -1.4630558206603209e-13  -1.5212422623251186e-13  -1.5817428071870000e-13  -1.6446494882673444e-13 
 -1.7100579987865176e-13  -1.7780678377318194e-13  -1.8487824612147760e-13  -1.9223094398479691e-13 
 -1.9987606223808293e-13  -2.0782523058433111e-13  -2.1609054124562823e-13  -2.2468456735777177e-13 
 -2.3362038209645269e-13  -2.4291157856409858e-13  -2.5257229046762481e-13  -2.6261721361855332e-13 
 -2.7306162828820013e-13  -2.8392142245194195e-13  -2.9521311595791959e-13  -3.0695388565694218e-13 
 -3.1916159153182440e-13  -3.3185480386589820e-13  -3.4505283149203227e-13  -3.5877575116513199e-13 
 -3.7304443810279457e-13  -3.8788059774059009e-13  -4.0330679875025984e-13  -4.1934650737107316e-13 
 -4.3602412310655460e-13  -4.5336501584089703e-13  -4.7139556443150758e-13  -4.9014319683640655e-13 
 -5.0963643183751109e-13  -5.2990492242328070e-13  -5.5097950089671049e-13  -5.7289222577729892e-13 
 -5.9567643056833270e-13  -6.1936677446367149e-13  -6.4399929507117271e-13  -6.6961146323295447e-13 
 -6.9624224002589854e-13  -7.2393213602908460e-13  -7.5272327294833583e-13  -7.8265944769160367e-13 
 -8.1378619899266995e-13  -8.4615087668450433e-13  -8.7980271372767648e-13  -9.1479290110337557e-13 
 -9.5117466568496337e-13  -9.8900335120654030e-13  -1.0283365024516600e-12  -1.0692339527903003e-12 
 -1.1117579151972200e-12  -1.1559730768901672e-12  -1.2019466977319294e-12  -1.2497487125458638e-12 
 -1.2994518375005991e-12  -1.3511316807257293e-12  -1.4048668573267342e-12  -1.4607391089741471e-12 
 -1.5188334282488440e-12  -1.5792381879326225e-12  -1.6420452754407596e-12  -1.7073502326010290e-12 
 -1.7752524009918375e-12  -1.8458550730605252e-12  -1.9192656492517793e-12  -1.9955958013851060e-12 
 -2.0749616425299795e-12  -2.1574839036369932e-12  -2.2432881171937996e-12  -2.3325048081851286e-12 
 -2.4252696926474473e-12  -2.5217238841202714e-12  -2.6220141083081786e-12  -2.7262929262800787e-12 
 -2.8347189665453131e-12  -2.9474571663595432e-12  -3.0646790226275823e-12  -3.1865628527847828e-12 
 -3.3132940660539054e-12  -3.4450654454900479e-12  -3.5820774412427392e-12  -3.7245384754812484e-12 
 -3.8726652594470569e-12  -4.0266831231157078e-12  -4.1868263579695885e-12  -4.3533385734030467e-12 
 -4.5264730673020512e-12  -4.7064932113620179e-12  -4.8936728517301728e-12  -5.0882967255816552e-12 
 -5.2906608942632752e-12  -5.5010731936637556e-12  -5.7198537024955306e-12  -5.9473352292005872e-12 
 -6.1838638182208753e-12  -6.4297992764036224e-12  -6.6855157203422101e-12  -6.9514021454852491e-12 
 -7.2278630178796959e-12  -7.5153188894480795e-12  -7.8142070377358894e-12  -8.1249821311022741e-12 
 -8.4481169203660405e-12  -8.7841029579589568e-12  -9.1334513456806119e-12  -9.4966935121919964e-12 
 -9.8743820214309460e-12  -1.0267091413178813e-11  -1.0675419077057410e-11  -1.1099986161285607e-11 
 -1.1541438517578055e-11  -1.2000447683623265e-11  -1.2477711904635973e-11  -1.2973957195537396e-11 
 -1.3489938445379361e-11  -1.4026440565692465e-11  -1.4584279684504883e-11  -1.5164304387848273e-11 
 -1.5767397010639514e-11  -1.6394474978901507e-11  -1.7046492205365287e-11  -1.7724440540575977e-11 
 -1.8429351281710143e-11  -1.9162296741399659e-11  -1.9924391878948366e-11  -2.0716795996423122e-11 
 -2.1540714502198691e-11  -2.2397400744639658e-11  -2.3288157918708329e-11  -2.4214341048398633e-11 
 -2.5177359048012139e-11  -2.6178676865411164e-11  -2.7219817710509978e-11  -2.8302365372393045e-11 
 -2.9427966628586668e-11  -3.0598333750147735e-11  -3.1815247106381775e-11  -3.3080557873152825e-11 
 -3.4396190848905248e-11  -3.5764147382682513e-11  -3.7186508418597880e-11  -3.8665437661389891e-11 
 -4.0203184867878594e-11  -4.1802089269332435e-11  -4.3464583129952666e-11  -4.5193195446891490e-11 
 -4.6990555797434197e-11  -4.8859398339200339e-11  -5.0802565969451648e-11  -5.2823014649837942e-11 
 -5.4923817903160889e-11  -5.7108171489002115e-11  -5.9379398265329718e-11  -6.1740953243483740e-11 
 -6.4196428844233989e-11  -6.6749560362909448e-11  -6.9404231651917074e-11  -7.2164481029302933e-11 
 -7.5034507422314550e-11  -7.8018676754684440e-11  -8.1121528587682838e-11  -8.4347783025935619e-11 
 -8.7702347897934756e-11  -9.1190326222132637e-11  -9.4817023969985263e-11  -9.8587958137757202e-11 
 -1.0250886513936680e-10  -1.0658570953304475e-10  -1.1082469309508163e-10  -1.1523226425447452e-10 
 -1.1981512790282374e-10  -1.2458025559441328e-10  -1.2953489615198958e-10  -1.3468658669438396e-10 
 -1.4004316410275538e-10  -1.4561277694290543e-10  -1.5140389786181005e-10  -1.5742533647723272e-10 
 -1.6368625278003642e-10  -1.7019617106959687e-10  -1.7696499444352269e-10  -1.8400301986374337e-10 
 -1.9132095382189495e-10  -1.9892992862785747e-10  -2.0684151934623866e-10  -2.1506776140659006e-10 
 -2.2362116891417551e-10  -2.3251475368917522e-10  -2.4176204506331774e-10  -2.5137711046410014e-10 
 -2.6137457681795176e-10  -2.7176965280494839e-10  -2.8257815199899362e-10  -2.9381651692872950e-10 
 -3.0550184409585833e-10  -3.1765190998901226e-10  -3.3028519813284364e-10  -3.4342092721358208e-10 
 -3.5707908032396793e-10  -3.7128043537216232e-10  -3.8604659670104053e-10  -4.0140002796607745e-10 
 -4.1736408632199219e-10  -4.3396305797023294e-10  -4.5122219512145925e-10  -4.6916775442922239e-10 
 -4.8782703695318744e-10  -5.0722842971239173e-10  -5.2740144889120979e-10  -5.4837678476290498e-10 
 -5.7018634839789544e-10  -5.9286332022619850e-10  -6.1644220052600598e-10  -6.4095886191315731e-10 
 -6.6645060390956390e-10  -6.9295620967249379e-10  -7.2051600497116376e-10  -7.4917191950214654e-10 
 -7.7896755064029404e-10  -8.0994822972681166e-10  -8.4216109100033455e-10  -8.7565514328016540e-10 
 -9.1048134451351444e-10  -9.4669267930096405e-10  -9.8434423951719598e-10  -1.0234933081474571e-09 
 -1.0641994464646720e-09  -1.1065245846772365e-09  -1.1505331161833047e-09  -1.1962919955734646e-09 
 -1.2438708405300615e-09  -1.2933420377777646e-09  -1.3447808532465940e-09  -1.3982655466151459e-09 
 -1.4538774904086671e-09  -1.5117012938334952e-09  -1.5718249315367418e-09  -1.6343398774874158e-09 
 -1.6993412441831497e-09  -1.7669279273946579e-09  -1.8372027566684088e-09  -1.9102726518170051e-09 
 -1.9862487856354829e-09  -2.0652467530916052e-09  -2.1473867472477639e-09  -2.2327937421825324e-09 
 -2.3215976831905460e-09  -2.4139336845503822e-09  -2.5099422351618026e-09  -2.6097694123655188e-09 
 -2.7135671042713110e-09  -2.8214932409331849e-09  -2.9337120347237112e-09  -3.0503942302738914e-09 
 -3.1717173643592142e-09  -3.2978660361280619e-09  -3.4290321880840571e-09  -3.5654153982506818e-09 
 -3.7072231839632366e-09  -3.8546713177512487e-09  -4.0079841557926682e-09  -4.1673949794404684e-09 
 -4.3331463503422097e-09  -4.5054904796938729e-09  -4.6846896121908445e-09  -4.8710164252613164e-09 
 -5.0647544441908186e-09  -5.2661984737707639e-09  -5.4756550471290916e-09  -5.6934428924274574e-09 
 -5.9198934181366514e-09  -6.1553512176302205e-09  -6.4001745938658855e-09  -6.6547361049549807e-09 
 -6.9194231314522125e-09  -7.1946384662308154e-09  -7.4808009278432753e-09  -7.7783459983032157e-09 
 -8.0877264862615837e-09  -8.4094132165890580e-09  -8.7438957474170817e-09  -9.0916831157316447e-09 
 -9.4533046126579245e-09  -9.8293105896190219e-09  -1.0220273296599761e-08  -1.0626787753794722e-08 
 -1.1049472657971929e-08  -1.1488971324935692e-08  -1.1945952669528279e-08  -1.2421112224666653e-08 
 -1.2915173200971207e-08  -1.3428887588604822e-08  -1.3963037303005735e-08  -1.4518435376264709e-08 
 -1.5095927195967116e-08  -1.5696391793393119e-08  -1.6320743183044867e-08  -1.6969931755548426e-08 
 -1.7644945726060062e-08  -1.8346812640390967e-08  -1.9076600941154492e-08  -1.9835421596330512e-08 
 -2.0624429792738226e-08  -2.1444826697008419e-08  -2.2297861286749274e-08  -2.3184832254708513e-08 
 -2.4107089988845725e-08  -2.5066038631346185e-08  -2.6063138219729304e-08  -2.7099906913329241e-08 
 -2.8177923308558692e-08  -2.9298828846502206e-08  -3.0464330316527398e-08  -3.1676202459751448e-08 
 -3.2936290676352696e-08  -3.4246513840877561e-08  -3.5608867229860091e-08  -3.7025425566243784e-08 
 -3.8498346185275774e-08  -4.0029872326730466e-08  -4.1622336558516070e-08  -4.3278164336917835e-08 
 -4.4999877708945570e-08  -4.6790099162470322e-08  -4.8651555630064966e-08  -5.0587082652700860e-08 
 -5.2599628709697965e-08  -5.4692259721588331e-08  -5.6868163732813604e-08  -5.9130655781461560e-08 
 -6.1483182963533495e-08  -6.3929329699536167e-08  -6.6472823211508371e-08  -6.9117539218913686e-08 
 -7.1867507862177304e-08  -7.4726919862991910e-08  -7.7700132930891740e-08  -8.0791678425971674e-08 
 -8.4006268288030586e-08  -8.7348802242831515e-08  -9.0824375296602129e-08  -9.4438285530350572e-08 
 -9.8196042206037676e-08  -1.0210337419713223e-07  -1.0616623875658819e-07  -1.1039083063580080e-07 
 -1.1478359156865697e-07  -1.1935122013536208e-07  -1.2410068202131822e-07  -1.2903922068695370e-07 
 -1.3417436846504264e-07  -1.3951395810273053e-07  -1.4506613476617089e-07  -1.5083936852642119e-07 
 -1.5684246734598130e-07  -1.6308459058617264e-07  -1.6957526305635248e-07  -1.7632438962682865e-07 
 -1.8334227042822720e-07  -1.9063961666098621e-07  -1.9822756703962209e-07  -2.0611770489741497e-07 
 -2.1432207597821046e-07  -2.2285320694312269e-07  -2.3172412462106046e-07  -2.4094837603318144e-07 
 -2.5054004922261067e-07  -2.6051379492204793e-07  -2.7088484909321250e-07  -2.8166905637348967e-07 
 -2.9288289446656584e-07  -3.0454349951537909e-07  -3.1666869249726425e-07  -3.2927700668282988e-07 
 -3.4238771620180497e-07  -3.5602086576087582e-07  -3.7019730156039882e-07  -3.8493870345880112e-07 
 -4.0026761843550258e-07  -4.1620749540529363e-07  -4.3278272143930280e-07  -4.5001865944995810e-07 
 -4.6794168739973340e-07  -4.8657923909597148e-07  -5.0595984663662534e-07  -5.2611318457450613e-07 
 -5.4707011587039076e-07  -5.6886273970831998e-07  -5.9152444124944751e-07  -6.1508994340401565e-07 
 -6.3959536070433266e-07  -6.6507825536513239e-07  -6.9157769562129184e-07  -7.1913431643668105e-07 
 -7.4779038268183771e-07  -7.7758985488229590e-07  -8.0857845764367534e-07  -8.4080375086411941e-07 
 -8.7431520384933002e-07  -9.0916427245036340e-07  -9.4540447934939339e-07  -9.8309149762397775e-07 
 -1.0222832377259456e-06  -1.0630399380167525e-06  -1.1054242590072479e-06  -1.1495013814561003e-06 
 -1.1953391084876832e-06  -1.2430079718971716e-06  -1.2925813428177451e-06  -1.3441355469323170e-06 
 -1.3977499844200678e-06  -1.4535072548362553e-06  -1.5114932871322921e-06  -1.5717974750321671e-06 
 -1.6345128179904615e-06  -1.6997360679671129e-06  -1.7675678822642963e-06  -1.8381129826813814e-06 
 -1.9114803212552126e-06  -1.9877832528645437e-06  -2.0671397149897025e-06  -2.1496724149313848e-06 
 -2.2355090248056915e-06  -2.3247823846467001e-06  -2.4176307139622166e-06  -2.5141978321039277e-06 
 -2.6146333878289492e-06  -2.7190930984465792e-06  -2.8277389989616588e-06  -2.9407397016441723e-06 
 -3.0582706664739366e-06  -3.1805144829294612e-06  -3.3076611636108568e-06  -3.4399084502089209e-06 
 -3.5774621323555166e-06  -3.7205363799145624e-06  -3.8693540892981297e-06  -4.0241472444189493e-06 
 -4.1851572929181099e-06  -4.3526355383360421e-06  -4.5268435489253323e-06  -4.7080535838358713e-06 
 -4.8965490374364604e-06  -5.0926249025719489e-06  -5.2965882535920175e-06  -5.5087587500263048e-06 
 -5.7294691618209166e-06  -5.9590659170941335e-06  -6.1979096734134209e-06  -6.4463759136427794e-06 
 -6.7048555674583933e-06  -6.9737556596820515e-06  -7.2534999866358497e-06  -7.5445298217781870e-06 
 -7.8473046519407066e-06  -8.1623029455480495e-06  -8.4900229542682605e-06  -8.8309835496096479e-06 
 -9.1857250960530001e-06  -9.5548103623834066e-06  -9.9388254729655834e-06  -1.0338380900790352e-05 
 -1.0754112504207733e-05  -1.1186682609354223e-05  -1.1636781140379117e-05  -1.2105126799675796e-05 
 -1.2592468300431950e-05  -1.3099585653923851e-05  -1.3627291514098661e-05  -1.4176432582112999e-05 
 -1.4747891073625102e-05  -1.5342586251776681e-05  -1.5961476028942967e-05  -1.6605558640481646e-05 
 -1.7275874393870250e-05  -1.7973507496788397e-05  -1.8699587967877109e-05  -1.9455293634092399e-05 
 -2.0241852218763415e-05  -2.1060543524670646e-05  -2.1912701716672954e-05  -2.2799717708637817e-05 
 -2.3723041659666442e-05  -2.4684185584853393e-05  -2.5684726086082528e-05  -2.6726307208635356e-05 
 -2.7810643429677380e-05  -2.8939522784990061e-05  -3.0114810140636911e-05  -3.1338450616584510e-05 
 -3.2612473169653048e-05  -3.3938994343539519e-05  -3.5320222194044773e-05  -3.6758460398042643e-05 
 -3.8256112555158337e-05  -3.9815686691569747e-05  -4.1439799975819130e-05  -4.3131183657015239e-05 
 -4.4892688236324400e-05  -4.6727288883193085e-05  -4.8638091108316215e-05  -5.0628336705959891e-05 
 -5.2701409978873999e-05  -5.4860844259690397e-05  -5.7110328743381523e-05  -5.9453715646078952e-05 
 -6.1895027706300798e-05  -6.4438466045424009e-05  -6.7088418405058015e-05  -6.9849467779836420e-05 
 -7.2726401465038644e-05  -7.5724220539389629e-05  -7.8848149804359863e-05  -8.2103648202303502e-05 
 -8.5496419736833218e-05  -8.9032424919927367e-05  -9.2717892771410889e-05  -9.6559333397638173e-05 
 -1.0056355117743787e-04  -1.0473765858465583e-04  -1.0908909067795241e-04  -1.1362562028987542e-04 
 -1.1835537394863455e-04  -1.2328684856745522e-04  -1.2842892893788122e-04  -1.3379090606491806e-04 
 -1.3938249638348191e-04  -1.4521386189721318e-04  -1.5129563128233952e-04  -1.5763892200093096e-04 
 -1.6425536346955817e-04  -1.7115712133104524e-04  -1.7835692287870589e-04  -1.8586808368413124e-04 
 -1.9370453548126727e-04  -2.0188085536117003e-04  -2.1041229633342160e-04  -2.1931481931174762e-04 
 -2.2860512658284108e-04  -2.3830069681878271e-04  -2.4841982169470267e-04  -2.5898164417444570e-04 
 -2.7000619852794825e-04  -2.8151445214474809e-04  -2.9352834920856244e-04  -3.0607085629803430e-04 
 -3.1916600997863425e-04  -3.3283896645014128e-04  -3.4711605331318087e-04  -3.6202482351676310e-04 
 -3.7759411154669287e-04  -3.9385409191195180e-04  -4.1083633998261171e-04  -4.2857389522845074e-04 
 -4.4710132690203559e-04  -4.6645480220356637e-04  -4.8667215695701082e-04  -5.0779296881793958e-04 
 -5.2985863302274405e-04  -5.5291244067644935e-04  -5.7699965956193092e-04  -6.0216761743667690e-04 
 -6.2846578776422650e-04  -6.5594587780562681e-04  -6.8466191897146938e-04  -7.1467035930698134e-04 
 -7.4603015795082664e-04  -7.7880288137238262e-04  -8.1305280115188288e-04  -8.4884699302243815e-04 
 -8.8625543684210174e-04  -9.2535111710730089e-04  -9.6621012355545125e-04  -1.0089117513338620e-03 
 -1.0535386001333303e-03  -1.1001766715974519e-03  -1.1489154642218007e-03  -1.1998480648498528e-03 
 -1.2530712357540252e-03  -1.3086854961593490e-03  -1.3667951969231634e-03  -1.4275085869255798e-03 
 -1.4909378695512729e-03  -1.5571992474518815e-03  -1.6264129535690549e-03  -1.6987032661690640e-03 
 -1.7741985053899517e-03  -1.8530310085294762e-03  -1.9353370810055095e-03  -2.0212569195979650e-03 
 -2.1109345042317602e-03  -2.2045174541814646e-03  -2.3021568441691132e-03  -2.4040069753851227e-03 
 -2.5102250959870833e-03  -2.6209710651207887e-03  -2.7364069539607943e-03  -2.8566965766832560e-03 
 -2.9820049436599951e-03  -3.1124976285001851e-03  -3.2483400398628194e-03  -3.3896965882207874e-03 
 -3.5367297369751404e-03  -3.6895989264977775e-03  -3.8484593588241560e-03  -4.0134606298262519e-03 
 -4.1847451947751614e-03  -4.3624466522547605e-03  -4.5466878304207346e-03  -4.7375786586180595e-03 
 -4.9352138063856318e-03  -5.1396700708971647e-03  -5.3510034929278236e-03  -5.5692461805087815e-03 
 -5.7944028185551886e-03  -6.0264468419468425e-03  -6.2653162488263163e-03  -6.5109090302842461e-03 
 -6.7630781921527560e-03  -7.0216263443600236e-03  -7.2862998332467082e-03  -7.5567823924496307e-03 
 -7.8326882884631448e-03  -8.1135549378434386e-03  -8.3988349742768649e-03  -8.6878877454481598e-03 
 -8.9799702218777092e-03  -9.2742273027133018e-03  -9.5696815069291445e-03  -9.8652220425712381e-03 
 -1.0159593251670025e-02  -1.0451382434285846e-02  -1.0739007061939176e-02  -1.1020701398474048e-02 
 -1.1294502555279827e-02  -1.1558236017817764e-02  -1.1809500691621715e-02  -1.2045653528414938e-02 
 -1.2263793806742463e-02  -1.2460747156583647e-02  -1.2633049433782033e-02  -1.2776930567792517e-02 
 -1.2888298525154135e-02  -1.2962723551174293e-02  -1.2995422873451559e-02  -1.2981246072921903e-02 
 -1.2914661350903410e-02  -1.2789742943901582e-02  -1.2600159961442935e-02  -1.2339166945597174e-02 
 -1.1999596473734941e-02  -1.1573854148019707e-02  -1.1053916335631839e-02  -1.0431331042237700e-02 
 -9.6972223171242853e-03  -8.8422986010801632e-03  -7.8568654368151650e-03  -6.7308429657555726e-03 
 -5.4537886336881725e-03  -4.0149255202135614e-03  -2.4031766925925770e-03  -6.0720596265861340e-04 
 1.3845346045635114e-03  3.5837501205130094e-03  6.0022409785259892e-03  8.6518334290670140e-03 
 1.1544302484138813e-02  1.4691287083974955e-02  1.8104197540398326e-02  2.1794115358822776e-02 
 2.5771685633218324e-02  3.0047002303410359e-02  3.4629486659592638e-02  3.9527759572409074e-02 
 4.4749508015998779e-02  5.0301346533938786e-02  5.6188674372737571e-02  6.2415529074354791e-02 
 6.8984437379790708e-02  7.5896264354002915e-02  8.3150061704811803e-02  9.0742916344468919e-02 
 9.8669800344355379e-02  1.0692342357537614e-01  1.1549409052485211e-01  1.2436956305084511e-01 
 1.3353493119054316e-01  1.4297249458945152e-01  1.5266165766369560e-01  1.6257884223764305e-01 
 1.7269742208557584e-01  1.8298768449952282e-01  1.9341682462907633e-01  2.0394897878738594e-01 
 2.1454530305903127e-01  2.2516410323603928e-01  2.3576102121768275e-01  2.4628928146060908e-01 
 2.5669999887773759e-01  2.6694254690503122e-01  2.7696498155915267e-01  2.8671451454821339e-01 
 2.9613802621235469e-01  3.0518260749084208e-01  3.1379611929774792e-01  3.2192775753867225e-01 
 3.2952861233015696e-01  3.3655221061889362e-01  3.4295503225055707e-01  3.4869699061118054e-01 
 3.5374187030111232e-01  3.5805771591075491e-01  3.6161716776220154e-01  3.6439774227288979e-01 
 3.6638205614271097e-01  3.6755799464753131e-01  3.6791882482759536e-01  3.6746325432240590e-01 
 3.6619543619185230e-01  3.6412491952318954e-01  3.6126654520890134e-01  3.5764028619119159e-01 
 3.5327103199527371e-01  3.4818831943254019e-01  3.4242600722373340e-01  3.3602188879923295e-01 
 3.2901728628965138e-01  3.2145658391157511e-01  3.1338673363367292e-01  3.0485673819141168e-01 
 2.9591712049369806e-01  2.8661938955947031e-01  2.7701551316955703e-01  2.6715740706727137e-01 
 2.5709644982008006e-01  2.4688303141280868e-01  2.3656614234268958e-01  2.2619300849973062e-01 
 2.1580877551854957e-01  2.0545624465626447e-01  1.9517566065785177e-01  1.8500455058148285e-01 
 1.7497761122768471e-01  1.6512664169264174e-01  1.5548051667938431e-01  1.4606519556954667e-01 
 1.3690376188811554e-01  1.2801648767679077e-01  1.1942091740960131e-01  1.1113196640897713e-01 
 1.0316202921578232e-01  9.5521093991834394e-02  8.8216859744297160e-02  8.1254853913775099e-02 
 7.4638548619466255e-02  6.8369474566670835e-02  6.2447332260863929e-02  5.6870100712449870e-02 
 5.1634144237727685e-02  4.6734318252929487e-02  4.2164075117426356e-02  3.7915571112841405e-02 
 3.3979775557290898e-02  3.0346582865229156e-02  2.7004928093806037e-02  2.3942906189793244e-02 
 2.1147894791921654e-02  1.8606680076841169e-02  1.6305584786487588e-02  1.4230597261484951e-02 
 1.2367500047006538e-02  1.0701996447692005e-02  9.2198332956788236e-03  7.9069181645879168e-03 
 6.7494293117973296e-03  5.7339167567288874e-03  4.8473930954314381e-03  4.0774128998709623e-03 
 3.4121398402059198e-03  2.8404009849034707e-03  2.3517280614481066e-03  1.9363857846877010e-03 
 1.5853876669333453e-03  1.2905000019769271e-03  1.0442349547127143e-03  8.3983388216341925e-04 
 6.7124215616896508e-04  5.3307685122053097e-04  4.2058870376821363e-04  3.2961974478619676e-04 
 2.5655796024109809e-04  1.9829025045656928e-04  1.5215484624153113e-04  1.1589420448718061e-04 
 8.7609256316655788e-05  6.5715723952894137e-05  4.8903064936200862e-05  3.6096449942286250e-05 
 2.6422038046822232e-05  1.9175684579605804e-05  1.3795104373943069e-05  9.8354187727621151e-06 
 6.9479388290227184e-06  4.8619794244248168e-06  3.3694585274961573e-06  2.3120109702571374e-06 
 1.5703349522346745e-06  1.0554898094131734e-06  7.0187310819494672e-07  4.6162159257582838e-07 
 3.0020181130567577e-07  1.9298049375312432e-07  1.2259029340565815e-07  7.6932053944810166e-08 
 4.7679251453585002e-08  2.9172986294804019e-08  1.7616367193492793e-08  1.0495099860614001e-08 
 6.1664940842999159e-09  3.5720238426203580e-09  2.0391693661165628e-09  1.1468052714812275e-09 
 6.3511697852655100e-10  3.4623544855659447e-10  1.8572257557915190e-10  9.7982881410767975e-11 
 5.0820813090355675e-11  2.5902666858622853e-11  1.2967826610377918e-11  6.3738071233678186e-12 
 3.0742992960698932e-12  1.4544250335302365e-12  6.7451321880778416e-13  3.0651411062935202e-13 
 1.3639485755164143e-13  5.9428720323897676e-14  2.5360143692889960e-14  1.0575927859734094e-14 
 4.3323615071032923e-15  1.6769753421927345e-15  6.6350189065073283e-16  2.8504103828470973e-16 
 6.8840736445879738e-17  6.6464857948880923e-17  0.0000000000000000e+00  0.0000000000000000e+00 
 0.0000000000000000e+00  0.0000000000000000e+00  0.0000000000000000e+00  0.0000000000000000e+00 
 0.0000000000000000e+00  0.0000000000000000e+00  0.0000000000000000e+00  0.0000000000000000e+00 
 0.0000000000000000e+00  0.0000000000000000e+00  0.0000000000000000e+00  0.0000000000000000e+00 
 0.0000000000000000e+00  0.0000000000000000e+00  0.0000000000000000e+00  0.0000000000000000e+00 
 0.0000000000000000e+00  0.0000000000000000e+00  0.0000000000000000e+00  0.0000000000000000e+00 
 0.0000000000000000e+00  0.0000000000000000e+00  0.0000000000000000e+00  0.0000000000000000e+00 
 0.0000000000000000e+00  0.0000000000000000e+00  0.0000000000000000e+00  0.0000000000000000e+00 
 0.0000000000000000e+00  0.0000000000000000e+00  0.0000000000000000e+00  0.0000000000000000e+00 
 0.0000000000000000e+00  0.0000000000000000e+00  0.0000000000000000e+00  0.0000000000000000e+00 
 0.0000000000000000e+00  0.0000000000000000e+00  0.0000000000000000e+00  0.0000000000000000e+00 
 0.0000000000000000e+00  0.0000000000000000e+00  0.0000000000000000e+00  0.0000000000000000e+00 
 0.0000000000000000e+00  0.0000000000000000e+00  0.0000000000000000e+00  0.0000000000000000e+00 
 0.0000000000000000e+00  0.0000000000000000e+00  0.0000000000000000e+00  0.0000000000000000e+00 
 0.0000000000000000e+00  0.0000000000000000e+00  0.0000000000000000e+00  0.0000000000000000e+00 
 0.0000000000000000e+00  0.0000000000000000e+00  0.0000000000000000e+00  0.0000000000000000e+00 
 0.0000000000000000e+00  0.0000000000000000e+00  0.0000000000000000e+00  0.0000000000000000e+00 
 0.0000000000000000e+00  0.0000000000000000e+00  0.0000000000000000e+00  0.0000000000000000e+00 
 0.0000000000000000e+00  0.0000000000000000e+00  0.0000000000000000e+00  0.0000000000000000e+00 
 0.0000000000000000e+00  0.0000000000000000e+00  0.0000000000000000e+00  0.0000000000000000e+00 
 0.0000000000000000e+00  0.0000000000000000e+00  0.0000000000000000e+00  0.0000000000000000e+00 
 0.0000000000000000e+00  0.0000000000000000e+00  0.0000000000000000e+00  0.0000000000000000e+00 
 0.0000000000000000e+00  0.0000000000000000e+00  0.0000000000000000e+00  0.0000000000000000e+00 
 0.0000000000000000e+00  0.0000000000000000e+00  0.0000000000000000e+00  0.0000000000000000e+00 
 0.0000000000000000e+00  0.0000000000000000e+00  0.0000000000000000e+00  0.0000000000000000e+00 
 0.0000000000000000e+00  0.0000000000000000e+00  0.0000000000000000e+00  0.0000000000000000e+00 
 0.0000000000000000e+00  0.0000000000000000e+00  0.0000000000000000e+00  0.0000000000000000e+00 
 0.0000000000000000e+00  0.0000000000000000e+00  0.0000000000000000e+00  0.0000000000000000e+00 
 0.0000000000000000e+00  0.0000000000000000e+00  0.0000000000000000e+00  0.0000000000000000e+00 
 0.0000000000000000e+00  0.0000000000000000e+00  0.0000000000000000e+00  0.0000000000000000e+00 
 0.0000000000000000e+00  0.0000000000000000e+00  0.0000000000000000e+00  0.0000000000000000e+00 
 0.0000000000000000e+00  0.0000000000000000e+00  0.0000000000000000e+00  0.0000000000000000e+00 
 0.0000000000000000e+00  0.0000000000000000e+00  0.0000000000000000e+00  0.0000000000000000e+00 
 0.0000000000000000e+00  0.0000000000000000e+00  0.0000000000000000e+00  0.0000000000000000e+00 
 0.0000000000000000e+00  0.0000000000000000e+00  0.0000000000000000e+00  0.0000000000000000e+00 
 0.0000000000000000e+00  0.0000000000000000e+00  0.0000000000000000e+00  0.0000000000000000e+00 
 0.0000000000000000e+00  0.0000000000000000e+00  0.0000000000000000e+00  0.0000000000000000e+00 
 0.0000000000000000e+00  0.0000000000000000e+00  0.0000000000000000e+00  0.0000000000000000e+00 
 0.0000000000000000e+00  0.0000000000000000e+00  0.0000000000000000e+00  0.0000000000000000e+00 
 0.0000000000000000e+00  0.0000000000000000e+00  0.0000000000000000e+00  0.0000000000000000e+00 
 0.0000000000000000e+00  0.0000000000000000e+00  0.0000000000000000e+00  0.0000000000000000e+00 
 0.0000000000000000e+00  0.0000000000000000e+00  0.0000000000000000e+00  0.0000000000000000e+00 
 0.0000000000000000e+00  0.0000000000000000e+00  0.0000000000000000e+00  0.0000000000000000e+00 
 0.0000000000000000e+00  0.0000000000000000e+00  0.0000000000000000e+00  0.0000000000000000e+00 
 0.0000000000000000e+00  0.0000000000000000e+00  0.0000000000000000e+00  0.0000000000000000e+00 
 0.0000000000000000e+00  0.0000000000000000e+00  0.0000000000000000e+00  0.0000000000000000e+00 
 0.0000000000000000e+00  0.0000000000000000e+00  0.0000000000000000e+00  0.0000000000000000e+00 
 0.0000000000000000e+00  0.0000000000000000e+00  0.0000000000000000e+00  0.0000000000000000e+00 
 0.0000000000000000e+00  0.0000000000000000e+00  0.0000000000000000e+00  0.0000000000000000e+00 
 0.0000000000000000e+00  0.0000000000000000e+00  0.0000000000000000e+00  0.0000000000000000e+00 
 0.0000000000000000e+00  0.0000000000000000e+00  0.0000000000000000e+00  0.0000000000000000e+00 
 0.0000000000000000e+00  0.0000000000000000e+00  0.0000000000000000e+00  0.0000000000000000e+00 
 0.0000000000000000e+00  0.0000000000000000e+00  0.0000000000000000e+00  0.0000000000000000e+00 
 0.0000000000000000e+00  0.0000000000000000e+00 
  </PP_BETA>
  <PP_DIJ>
 2   Number of nonzero Dij
 1 1 5.3469046052571949e+00 
 2 2 1.9239538521040057e+01 
  </PP_DIJ>
</PP_NONLOCAL>
<PP_PSWFC>
S    0   2.00          Wavefunction
 2.0022435563973195e-07  2.0284426480928425e-07  2.0549845514415938e-07  2.0818737520891196e-07 
 2.1091147943750643e-07  2.1367122821011771e-07  2.1646708793093635e-07  2.1929953110699247e-07 
 2.2216903642801033e-07  2.2507608884730850e-07  2.2802117966375785e-07  2.3100480660481269e-07 
 2.3402747391062813e-07  2.3708969241927759e-07  2.4019197965308629e-07  2.4333485990609353e-07 
 2.4651886433266009e-07  2.4974453103723460e-07  2.5301240516529462e-07  2.5632303899547771e-07 
 2.5967699203291835e-07  2.6307483110380562e-07  2.6651713045117813e-07  2.7000447183197331e-07 
 2.7353744461534523e-07  2.7711664588227014e-07  2.8074268052645479e-07  2.8441616135656487e-07 
 2.8813770919979171e-07  2.9190795300677379e-07  2.9572752995789092e-07  2.9959708557094999e-07 
 3.0351727381027904e-07  3.0748875719724904e-07  3.1151220692224230e-07  3.1558830295808518e-07 
 3.1971773417496587e-07  3.2390119845685515e-07  3.2813940281945120e-07  3.3243306352966692e-07 
 3.3678290622668151e-07  3.4118966604457559e-07  3.4565408773657109e-07  3.5017692580089670e-07 
 3.5475894460830059e-07  3.5940091853123137e-07  3.6410363207470913e-07  3.6886788000890976e-07 
 3.7369446750348301e-07  3.7858421026362923e-07  3.8353793466795581e-07  3.8855647790813786e-07 
 3.9364068813040647e-07  3.9879142457888796e-07  4.0400955774081905e-07  4.0929596949366174e-07 
 4.1465155325414450e-07  4.2007721412925124e-07  4.2557386906918848e-07  4.3114244702235285e-07 
 4.3678388909232627e-07  4.4249914869692593e-07  4.4828919172933500e-07  4.5415499672134214e-07 
 4.6009755500871679e-07  4.6611787089874843e-07  4.7221696183997776e-07  4.7839585859414984e-07 
 4.8465560541041615e-07  4.9099726020181646e-07  4.9742189472407056e-07  5.0393059475670850e-07 
 5.1052446028657139e-07  5.1720460569371403e-07  5.2397215993973879e-07  5.3082826675859477e-07 
 5.3777408484987365e-07  5.4481078807463368e-07  5.5193956565378801e-07  5.5916162236908666e-07 
 5.6647817876673098e-07  5.7389047136364996e-07  5.8139975285647695e-07  5.8900729233326138e-07 
 5.9671437548794899e-07  6.0452230483767091e-07  6.1243239994287394e-07  6.2044599763033260e-07 
 6.2856445221907831e-07  6.3678913574928679e-07  6.4512143821415706e-07  6.5356276779482905e-07 
 6.6211455109837180e-07  6.7077823339888637e-07  6.7955527888176575e-07  6.8844717089114786e-07 
 6.9745541218060916e-07  7.0658152516713733e-07  7.1582705218842711e-07  7.2519355576354406e-07 
 7.3468261885699880e-07  7.4429584514627505e-07  7.5403485929286167e-07  7.6390130721682866e-07 
 7.7389685637499635e-07  7.8402319604274626e-07  7.9428203759951702e-07  8.0467511481803863e-07 
 8.1520418415735022e-07  8.2587102505965244e-07  8.3667744025104328e-07  8.4762525604619058e-07 
 8.5871632265699121e-07  8.6995251450526854e-07  8.8133573053956173e-07  8.9286789455606121e-07 
 9.0455095552374340e-07  9.1638688791375892e-07  9.2837769203313386e-07  9.4052539436283423e-07 
 9.5283204790025701e-07  9.6529973250620169e-07  9.7793055525638223e-07  9.9072665079753954e-07 
 1.0036901817082128e-06  1.0168233388642335e-06  1.0301283418089994e-06  1.0436074391285976e-06 
 1.0572629088318333e-06  1.0710970587352340e-06  1.0851122268530895e-06  1.0993107817925969e-06 
 1.1136951231541791e-06  1.1282676819370360e-06  1.1430309209500083e-06  1.1579873352278168e-06 
 1.1731394524527457e-06  1.1884898333818467e-06  1.2040410722797343e-06  1.2197957973570427e-06 
 1.2357566712146205e-06  1.2519263912935415e-06  1.2683076903309986e-06  1.2849033368221708e-06 
 1.3017161354881279e-06  1.3187489277498642e-06  1.3360045922085297e-06  1.3534860451319516e-06 
 1.3711962409475194e-06  1.3891381727415195e-06  1.4073148727650078e-06  1.4257294129463001e-06 
 1.4443849054101684e-06  1.4632845030038358e-06  1.4824313998298518e-06  1.5018288317859414e-06 
 1.5214800771119193e-06  1.5413884569437650e-06  1.5615573358749439e-06  1.5819901225250783e-06 
 1.6026902701160596e-06  1.6236612770556975e-06  1.6449066875290156e-06  1.6664300920972755e-06 
 1.6882351283048471e-06  1.7103254812940205e-06  1.7327048844278625e-06  1.7553771199212263e-06 
 1.7783460194800197e-06  1.8016154649488395e-06  1.8251893889670810e-06  1.8490717756336389e-06 
 1.8732666611803020e-06  1.8977781346539674e-06  1.9226103386077767e-06  1.9477674698013066e-06 
 1.9732537799099175e-06  1.9990735762433885e-06  2.0252312224739569e-06  2.0517311393738920e-06 
 2.0785778055627151e-06  2.1057757582642088e-06  2.1333295940733259e-06  2.1612439697331421e-06 
 2.1895236029219778e-06  2.2181732730508217e-06  2.2471978220711950e-06  2.2766021552935848e-06 
 2.3063912422165968e-06  2.3365701173669560e-06  2.3671438811505106e-06  2.3981177007143671e-06 
 2.4294968108203161e-06  2.4612865147296918e-06  2.4934921850998138e-06  2.5261192648921614e-06 
 2.5591732682924445e-06  2.5926597816427077e-06  2.6265844643856502e-06  2.6609530500212954e-06 
 2.6957713470761966e-06  2.7310452400853182e-06  2.7667806905867892e-06  2.8029837381296631e-06 
 2.8396605012948787e-06  2.8768171787295927e-06  2.9144600501950445e-06  2.9525954776281498e-06 
 2.9912299062169922e-06  3.0303698654903894e-06  3.0700219704217323e-06  3.1101929225472805e-06 
 3.1508895110990909e-06  3.1921186141527902e-06  3.2338871997903744e-06  3.2762023272782306e-06 
 3.3190711482605906e-06  3.3625009079686131e-06  3.4064989464452930e-06  3.4510726997864193e-06 
 3.4962297013977799e-06  3.5419775832688328e-06  3.5883240772630558e-06  3.6352770164252023e-06 
 3.6828443363056637e-06  3.7310340763021950e-06  3.7798543810191993e-06  3.8293135016448230e-06 
 3.8794197973460835e-06  3.9301817366822714e-06  3.9816078990368664e-06  4.0337069760682064e-06 
 4.0864877731791561e-06  4.1399592110060238e-06  4.1941303269269881e-06  4.2490102765902650e-06 
 4.3046083354623086e-06  4.3609339003962587e-06  4.4179964912209655e-06  4.4758057523507886e-06 
 4.5343714544164854e-06  4.5937034959174648e-06  4.6538119048956393e-06  4.7147068406312176e-06 
 4.7763985953606664e-06  4.8388975960171530e-06  4.9022144059937618e-06  4.9663597269297578e-06 
 5.0313444005202008e-06  5.0971794103492119e-06  5.1638758837471818e-06  5.2314450936722252e-06 
 5.2998984606161900e-06  5.3692475545355244e-06  5.4395040968073137e-06  5.5106799622107820e-06 
 5.5827871809346143e-06  5.6558379406103746e-06  5.7298445883723609e-06  5.8048196329442460e-06 
 5.8807757467527874e-06  5.9577257680690053e-06  6.0356827031771427e-06  6.1146597285717673e-06 
 6.1946701931834148e-06  6.2757276206331297e-06  6.3578457115163249e-06  6.4410383457163759e-06 
 6.5253195847483798e-06  6.6107036741335623e-06  6.6972050458048045e-06  6.7848383205437942e-06 
 6.8736183104503397e-06  6.9635600214443944e-06  7.0546786558013818e-06  7.1469896147213910e-06 
 7.2405085009328546e-06  7.3352511213313575e-06  7.4312334896541559e-06  7.5284718291910951e-06 
 7.6269825755325152e-06  7.7267823793548230e-06  7.8278881092443182e-06  7.9303168545599646e-06 
 8.0340859283356695e-06  8.1392128702227369e-06  8.2457154494730807e-06  8.3536116679637914e-06 
 8.4629197632636861e-06  8.5736582117423218e-06  8.6858457317220701e-06  8.7995012866742255e-06 
 8.9146440884559231e-06  9.0312936005134560e-06  9.1494695411003977e-06  9.2691918866153996e-06 
 9.3904808749877480e-06  9.5133570091072052e-06  9.6378410602992421e-06  9.7639540718463739e-06 
 9.8917173625562141e-06  1.0021152530376941e-05  1.0152281456060839e-05  1.0285126306876624e-05 
 1.0419709540371295e-05  1.0556053908182189e-05  1.0694182459900080e-05  1.0834118546984017e-05 
 1.0975885826728758e-05  1.1119508266285567e-05  1.1265010146737329e-05  1.1412416067228683e-05 
 1.1561750949152310e-05  1.1713040040392124e-05  1.1866308919624451e-05  1.2021583500678199e-05 
 1.2178890036955086e-05  1.2338255125911046e-05  1.2499705713600013e-05  1.2663269099281302e-05 
 1.2828972940091856e-05  1.2996845255784882e-05  1.3166914433536183e-05  1.3339209232819867e-05 
 1.3513758790355043e-05  1.3690592625125318e-05  1.3869740643472974e-05  1.4051233144269845e-05 
 1.4235100824167070e-05  1.4421374782925929e-05  1.4610086528832281e-05  1.4801267984196900e-05 
 1.4994951490944347e-05  1.5191169816292744e-05  1.5389956158526756e-05  1.5591344152865623e-05 
 1.5795367877427448e-05  1.6002061859289796e-05  1.6211461080644986e-05  1.6423600985045931e-05 
 1.6638517483734885e-05  1.6856246962042690e-05  1.7076826285840301e-05  1.7300292808017077e-05 
 1.7526684374953248e-05  1.7756039332947541e-05  1.7988396534558388e-05  1.8223795344820976e-05 
 1.8462275647316621e-05  1.8703877850095943e-05  1.8948642891493370e-05  1.9196612245909577e-05 
 1.9447827929671593e-05  1.9702332507095356e-05  1.9960169096865652e-05  2.0221381378813890e-05 
 2.0486013601124811e-05  2.0754110587952846e-05  2.1025717747390056e-05  2.1300881079708222e-05 
 2.1579647185796377e-05  2.1862063275727521e-05  2.2148177177406951e-05  2.2438037345273495e-05 
 2.2731692869041299e-05  2.3029193482480911e-05  2.3330589572245813e-05  2.3635932186754047e-05 
 2.3945273045136108e-05  2.4258664546259930e-05  2.4576159777843256e-05  2.4897812525662149e-05 
 2.5223677282863635e-05  2.5553809259389001e-05  2.5888264391513484e-05  2.6227099351507369e-05 
 2.6570371557422645e-05  2.6918139183009199e-05  2.7270461167763745e-05  2.7627397227114854e-05 
 2.7989007862746809e-05  2.8355354373065172e-05  2.8726498863806637e-05  2.9102504258795734e-05 
 2.9483434310851086e-05  2.9869353612843469e-05  3.0260327608908407e-05  3.0656422605815677e-05 
 3.1057705784498361e-05  3.1464245211743877e-05  3.1876109852049770e-05  3.2293369579646662e-05 
 3.2716095190691202e-05  3.3144358415631782e-05  3.3578231931749518e-05  3.4017789375877675e-05 
 3.4463105357302051e-05  3.4914255470845621e-05  3.5371316310140113e-05  3.5834365481087712e-05 
 3.6303481615516031e-05  3.6778744385029371e-05  3.7260234515059802e-05  3.7748033799120978e-05 
 3.8242225113268349e-05  3.8742892430769138e-05  3.9250120836985538e-05  3.9763996544474747e-05 
 4.0284606908309608e-05  4.0812040441623386e-05  4.1346386831382600e-05  4.1887736954391982e-05 
 4.2436182893535208e-05  4.2991817954255782e-05  4.3554736681281979e-05  4.4125034875600348e-05 
 4.4702809611681827e-05  4.5288159254965271e-05  4.5881183479602635e-05  4.6481983286470466e-05 
 4.7090661021452844e-05  4.7707320394000016e-05  4.8332066495968349e-05  4.8965005820746096e-05 
 4.9606246282670824e-05  5.0255897236743242e-05  5.0914069498643379e-05  5.1580875365054481e-05 
 5.2256428634300453e-05  5.2940844627302843e-05  5.3634240208863320e-05  5.4336733809277837e-05 
 5.5048445446289039e-05  5.5769496747383259e-05  5.6500010972439020e-05  5.7240113036733823e-05 
 5.7989929534316350e-05  5.8749588761751398e-05  5.9519220742245125e-05  6.0298957250158112e-05 
 6.1088931835914402e-05  6.1889279851314394e-05  6.2700138475260290e-05  6.3521646739902440e-05 
 6.4353945557215641e-05  6.5197177746014379e-05  6.6051488059416458e-05  6.6917023212764823e-05 
 6.7793931912017301e-05  6.8682364882614579e-05  6.9582474898837105e-05  7.0494416813661514e-05 
 7.1418347589128148e-05  7.2354426327230807e-05  7.3302814301340832e-05  7.4263674988177619e-05 
 7.5237174100338487e-05  7.6223479619400434e-05  7.7222761829607510e-05  7.8235193352157499e-05 
 7.9260949180102216e-05  8.0300206713875957e-05  8.1353145797467353e-05  8.2419948755250413e-05 
 8.3500800429490250e-05  8.4595888218541088e-05  8.5705402115752649e-05  8.6829534749103442e-05 
 8.7968481421578650e-05  8.9122440152311874e-05  9.0291611718509973e-05  9.1476199698181063e-05 
 9.2676410513686688e-05  9.3892453476139060e-05  9.5124540830666377e-05  9.6372887802568174e-05 
 9.7637712644384843e-05  9.8919236683905703e-05  1.0021768437314077e-04  1.0153328333828226e-04 
 1.0286626443068292e-04  1.0421686177887923e-04  1.0558531284168759e-04  1.0697185846240438e-04 
 1.0837674292413990e-04  1.0980021400631844e-04  1.1124252304237742e-04  1.1270392497869976e-04 
 1.1418467843481487e-04  1.1568504576490481e-04  1.1720529312065366e-04  1.1874569051547857e-04 
 1.2030651189018451e-04  1.2188803518008322e-04  1.2349054238362095e-04  1.2511431963255931e-04 
 1.2675965726375676e-04  1.2842684989259831e-04  1.3011619648812414e-04  1.3182800044990868e-04 
 1.3356256968674403e-04  1.3532021669718420e-04  1.3710125865200651e-04  1.3890601747865167e-04 
 1.4073481994770367e-04  1.4258799776147423e-04  1.4446588764475854e-04  1.4636883143783172e-04 
 1.4829717619175783e-04  1.5025127426608525e-04  1.5223148342900745e-04  1.5423816696006715e-04 
 1.5627169375548883e-04  1.5833243843622514e-04  1.6042078145880664e-04  1.6253710922908870e-04 
 1.6468181421899113e-04  1.6685529508633125e-04  1.6905795679785418e-04  1.7129021075556873e-04 
 1.7355247492650030e-04  1.7584517397597761e-04  1.7816873940457428e-04  1.8052360968883054e-04 
 1.8291023042588548e-04  1.8532905448215509e-04  1.8778054214619778e-04  1.9026516128591139e-04 
 1.9278338751021687e-04  1.9533570433538275e-04  1.9792260335615714e-04  2.0054458442187630e-04 
 2.0320215581772736e-04  2.0589583445134937e-04  2.0862614604496370e-04  2.1139362533323296e-04 
 2.1419881626705525e-04  2.1704227222350895e-04  2.1992455622217152e-04  2.2284624114804469e-04 
 2.2580790998132856e-04  2.2881015603429524e-04  2.3185358319552474e-04  2.3493880618177457e-04 
 2.3806645079776670e-04  2.4123715420418601e-04  2.4445156519419778e-04  2.4771034447880247e-04 
 2.5101416498135977e-04  2.5436371214162862e-04  2.5775968422968147e-04  2.6120279267006862e-04 
 2.6469376237662112e-04  2.6823333209830019e-04  2.7182225477651246e-04  2.7546129791433557e-04 
 2.7915124395810849e-04  2.8289289069186599e-04  2.8668705164511493e-04  2.9053455651446847e-04 
 2.9443625159967959e-04  2.9839300025463582e-04  3.0240568335390054e-04  3.0647519977541177e-04 
 3.1060246689997543e-04  3.1478842112821507e-04  3.1903401841567073e-04  3.2334023482676657e-04 
 3.2770806710840007e-04  3.3213853328393497e-04  3.3663267326841683e-04  3.4119154950586179e-04 
 3.4581624762950797e-04  3.5050787714595901e-04  3.5526757214418260e-04  3.6009649203037815e-04 
 3.6499582228976385e-04  3.6996677527638357e-04  3.7501059103208146e-04  3.8012853813583969e-04 
 3.8532191458473238e-04  3.9059204870779880e-04  3.9594030011420118e-04  4.0136806067708812e-04 
 4.0687675555465305e-04  4.1246784424993848e-04  4.1814282171101107e-04  4.2390321947320073e-04 
 4.2975060684517731e-04  4.3568659214071565e-04  4.4171282395808322e-04  4.4783099250907739e-04 
 4.5404283099982352e-04  4.6035011706554882e-04  4.6675467426164445e-04  4.7325837361343652e-04 
 4.7986313522719643e-04  4.8657092996504076e-04  4.9338378118649138e-04  5.0030376655959587e-04 
 5.0733301994464782e-04  5.1447373335368203e-04  5.2172815898907533e-04  5.2909861136473855e-04 
 5.3658746951354918e-04  5.4419717928485157e-04  5.5193025573602790e-04  5.5978928562234326e-04 
 5.6777692998946107e-04  5.7589592687324687e-04  5.8414909411169051e-04  5.9253933227402307e-04 
 6.0106962771234627e-04  6.0974305574135082e-04  6.1856278395197996e-04  6.2753207566517734e-04 
 6.3665429353216847e-04  6.4593290328803757e-04  6.5537147766570741e-04  6.6497370047778040e-04 
 6.7474337087407592e-04  6.8468440778309003e-04  6.9480085454603450e-04  7.0509688375253068e-04 
 7.1557680228751506e-04  7.2624505659939827e-04  7.3710623820003160e-04  7.4816508940758622e-04 
 7.5942650934402518e-04  7.7089556019945341e-04  7.8257747377627799e-04  7.9447765832679057e-04 
 8.0660170569849237e-04  8.1895539880225620e-04  8.3154471941920621e-04  8.4437585636305628e-04 
 8.5745521401553459e-04  8.7078942125348160e-04  8.8438534078720272e-04  8.9825007893072140e-04 
 9.1239099582571519e-04  9.2681571614208595e-04  9.4153214027939262e-04  9.5654845609471060e-04 
 9.7187315118388491e-04  9.8751502574465620e-04  1.0034832060517194e-03  1.0197871585754593e-03 
 1.0364367047779020e-03  1.0534420366213016e-03  1.0708137328267972e-03  1.0885627759227093e-03 
 1.1067005701242960e-03  1.1252389600891963e-03  1.1441902505953318e-03  1.1635672271907407e-03 
 1.1833831778676940e-03  1.2036519158164758e-03  1.2243878033174869e-03  1.2456057768337144e-03 
 1.2673213733693247e-03  1.2895507581639773e-03  1.3123107537966199e-03  1.3356188707768918e-03 
 1.3594933397069518e-03  1.3839531451014899e-03  1.4090180609589893e-03  1.4347086881829000e-03 
 1.4610464939573749e-03  1.4880538531885756e-03  1.5157540921293209e-03  1.5441715343120642e-03 
 1.5733315489228376e-03  1.6032606017569837e-03  1.6339863089061706e-03  1.6655374933354464e-03 
 1.6979442445189670e-03  1.7312379813134765e-03  1.7654515182598629e-03  1.8006191355149728e-03 
 1.8367766526285832e-03  1.8739615063939302e-03  1.9122128330146052e-03  1.9515715548459550e-03 
 1.9920804719854904e-03  2.0337843590042017e-03  2.0767300671292459e-03  2.1209666322082529e-03 
 2.1665453888065410e-03  2.2135200908109942e-03  2.2619470389382639e-03  2.3118852155704288e-03 
 2.3633964273683775e-03  2.4165454561420920e-03  2.4714002184878137e-03  2.5280319347347918e-03 
 2.5865153077793083e-03  2.6469287124207585e-03  2.7093543958541643e-03  2.7738786900155625e-03 
 2.8405922365214950e-03  2.9095902249914713e-03  2.9809726455928766e-03  3.0548445567016866e-03 
 3.1313163686294884e-03  3.2105041444281173e-03  3.2925299188476930e-03  3.3775220365923099e-03 
 3.4656155110902409e-03  3.5569524050724907e-03  3.6516822343350876e-03  3.7499623961468258e-03 
 3.8519586238555778e-03  3.9578454693427606e-03  4.0678068150776592e-03  4.1820364176308666e-03 
 4.3007384846196362e-03  4.4241282871773637e-03  4.5524328101652157e-03  4.6858914424757923e-03 
 4.8247567099173232e-03  4.9692950533117919e-03  5.1197876545920574e-03  5.2765313138411589e-03 
 5.4398393803817332e-03  5.6100427411945155e-03  5.7874908701221871e-03  5.9725529414979351e-03 
 6.1656190120267067e-03  6.3671012749405452e-03  6.5774353906472597e-03  6.7970818982924838e-03 
 7.0265277128587524e-03  7.2662877126294691e-03  7.5169064220494989e-03  7.7789597952157763e-03 
 8.0530571054283611e-03  8.3398429464226903e-03  8.6399993510842890e-03  8.9542480336145848e-03 
 9.2833527612671586e-03  9.6281218619030488e-03  9.9894108737171340e-03  1.0368125343559161e-02 
 1.0765223780306617e-02  1.1181720769735243e-02  1.1618690257268660e-02  1.2077269004862367e-02 
 1.2558660228079990e-02  1.3064137419139431e-02  1.3595048361332735e-02  1.4152819339741982e-02 
 1.4738959552570796e-02  1.5355065726671434e-02  1.6002826939954102e-02  1.6684029652300526e-02 
 1.7400562945348325e-02  1.8154423970046275e-02  1.8947723599181680e-02  1.9782692280126850e-02 
 2.0661686080819634e-02  2.1587192919458067e-02  2.2561838965528175e-02  2.3588395196571580e-02 
 2.4669784091512943e-02  2.5809086437381789e-02  2.7009548221860188e-02  2.8274587579244104e-02 
 2.9607801752109923e-02  3.1012974025213760e-02  3.2494080581914081e-02  3.4055297226697062e-02 
 3.5701005910206945e-02  3.7435800985555857e-02  3.9264495116638071e-02  4.1192124750742284e-02 
 4.3223955058996788e-02  4.5365484239169515e-02  4.7622447066166328e-02  5.0000817566340020e-02 
 5.2506810682570113e-02  5.5146882788161579e-02  5.7927730899119026e-02  6.0856290426496332e-02 
 6.3939731303538111e-02  6.7185452316482083e-02  7.0601073463478797e-02  7.4194426163416705e-02 
 7.7973541135856111e-02  8.1946633775121208e-02  8.6122086846228685e-02  9.0508430338087684e-02 
 9.5114318320612096e-02  9.9948502667316752e-02  1.0501980352383739e-01  1.1033707642572799e-01 
 1.1590917599582769e-01  1.2174491618225614e-01  1.2785302703227619e-01  1.3424210803417377e-01 
 1.4092057809795278e-01  1.4789662228468545e-01  1.5517813543207004e-01  1.6277266285802014e-01 
 1.7068733835250718e-01  1.7892881968767604e-01  1.8750322188465507e-01  1.9641604846980223e-01 
 2.0567212093116938e-01  2.1527550654641064e-01  2.2522944469633061e-01  2.3553627170584693e-01 
 2.4619734417099692e-01  2.5721296064447058e-01  2.6858228147413576e-01  2.8030324653379723e-01 
 2.9237249057093306e-01  3.0478525594299583e-01  3.1753530264431012e-01  3.3061481576202245e-01 
 3.4401431086250167e-01  3.5772253831491213e-01  3.7172638821399745e-01  3.8601079836349195e-01 
 4.0055866869888329e-01  4.1535078650871632e-01  4.3036576776536867e-01  4.4558002066469077e-01 
 4.6096773792455087e-01  4.7650092430851881e-01  4.9214946504227858e-01  5.0788123917074957e-01 
 5.2366227949630140e-01  5.3945697775992707e-01  5.5522833057134147e-01  5.7093821875016715e-01 
 5.8654771065415334e-01  6.0201737899749108e-01  6.1730762058956434e-01  6.3237896910387870e-01 
 6.4719239207064172e-01  6.6170956449316209e-01  6.7589311271561636e-01  6.8970682350145995e-01 
 7.0311581489467567e-01  7.1608666746092509e-01  7.2858751691147350e-01  7.4058811166757010e-01 
 7.5205984124822234e-01  7.6297574305605964e-01  7.7331049589912704e-01  7.8304040832556032e-01 
 7.9214340868307598e-01  8.0059904202626397e-01  8.0838847692974847e-01  8.1549452324954042e-01 
 8.2190166056885960e-01  8.2759607900546206e-01  8.3256572088784875e-01  8.3680029581977078e-01 
 8.4029136050821851e-01  8.4303234695636464e-01  8.4501859363915943e-01  8.4624736971334091e-01 
 8.4671788928940628e-01  8.4643131487243428e-01  8.4539074958088156e-01  8.4360121818054723e-01 
 8.4106963731459483e-01  8.3780477556834421e-01  8.3381720418460847e-01  8.2911923935107124e-01 
 8.2372487702757025e-01  8.1764972128083568e-01  8.1091090705971636e-01  8.0352701828628581e-01 
 7.9551800206713552e-01  7.8690507975218693e-01  7.7771065549138907e-01  7.6795822286677595e-01 
 7.5767227011117688e-01  7.4687818436676934e-01  7.3560215538709317e-01  7.2387107904482129e-01 
 7.1171246097378293e-01  6.9915432064643357e-01  6.8622509616603877e-01  6.7295355003516510e-01 
 6.5936867614765859e-01  6.4549960823946251e-01  6.3137553015623360e-01  6.1702558748254088e-01 
 6.0247880208075699e-01  5.8776398840228883e-01  5.7290967242939195e-01  5.5794401330394294e-01 
 5.4289472782610371e-01  5.2778901800284406e-01  5.1265350182430958e-01  4.9751414744509881e-01 
 4.8239621094740243e-01  4.6732417786319891e-01  4.5232170863264493e-01  4.3741158817463544e-01 
 4.2261567974235192e-01  4.0795488323006812e-01  3.9344909808764827e-01  3.7911719098457713e-01 
 3.6497696834406773e-01  3.5104515384202167e-01  3.3733737093427213e-01  3.2386813043813728e-01 
 3.1065082315286446e-01  2.9769771745870127e-01  2.8501996178757938e-01  2.7262759181132201e-01 
 2.6052954214758639e-01  2.4873366234103311e-01  2.3724673683896749e-01  2.2607450864814607e-01 
 2.1522170633352436e-01  2.0469207400102138e-01  1.9448840389518396e-01  1.8461257123892602e-01 
 1.7506557094605529e-01  1.6584755584771030e-01  1.5695787609064071e-01  1.4839511938799840e-01 
 1.4015715183147842e-01  1.3224115900672570e-01  1.2464368719128088e-01  1.1736068445507562e-01 
 1.1038754152632506e-01  1.0371913232877930e-01  9.7349854137240052e-02  9.1273667334027128e-02 
 8.5484134776338386e-02  7.9974460799911995e-02  7.4737529885441120e-02  6.9765944999482646e-02 
 6.5052065591709868e-02  6.0588045188073862e-02  5.6365868469721039e-02  5.2377387676920989e-02 
 4.8614358132959043e-02  4.5068472651460058e-02  4.1731394576596151e-02  3.8594789211039725e-02 
 3.5650353410338606e-02  3.2889843161003809e-02  3.0305099007738760e-02  2.7888069247116617e-02 
 2.5630830855427233e-02  2.3525608163533558e-02  2.1564789329252806e-02  1.9740940687449804e-02 
 1.8046819080299904e-02  1.6475382286249861e-02  1.5019797677348722e-02  1.3673449241798251e-02 
 1.2429943112269276e-02  1.1283111740803608e-02  1.0227016857800638e-02  9.2559513455465758e-03 
 8.3644401461417470e-03  7.5472403100997395e-03  6.7993402763421966e-03  6.1159584580851786e-03 
 5.4925411936384587e-03  4.9247601075995710e-03  4.4085089172638059e-03  3.9398997118099202e-03 
 3.5152587279388748e-03  3.1311216448489006e-03  2.7842284231085496e-03  2.4715177154200295e-03 
 2.1901208816905537e-03  1.9373556455661897e-03  1.7107194340679100e-03  1.5078824457861997e-03 
 1.3266804959677040e-03  1.1651076886241524e-03  1.0213089664760549e-03  8.9357258915666120e-04 
 7.8032258874599278e-04  6.8011124951356655e-04  5.9161165587121207e-04  5.1361034912645177e-04 
 4.4500012982881824e-04  3.8477303845116357e-04  3.3201354296562405e-04  2.8589195766341117e-04 
 2.4565811341662846e-04  2.1063529556082701e-04  1.8021446174638206e-04  1.5384874850921343e-04 
 1.3104827197927475e-04  1.1137522510065355e-04  9.4439270993038714e-05  7.9893229645922344e-05 
 6.7429053002771098e-05  5.6774081655511578e-05  4.7687574818509983e-05  3.9957503970662264e-05 
 3.3397599526475487e-05  2.7844639102496287e-05  2.3155965363433910e-05  1.9207221041729294e-05 
 1.5890288504179055e-05  1.3111421169177725e-05  1.0789554138771661e-05  8.8547815827733468e-06 
 7.2469886807211595e-06  5.9146262759099444e-06  4.8136168098473407e-06  3.9063805724145056e-06 
 3.1609718110792842e-06  2.5503147812402902e-06  2.0515303797646551e-06  1.6453445766106922e-06 
 1.3155704376157237e-06  1.0486561084597327e-06  8.3329169968209275e-07  6.6006857039633313e-07 
 5.2118504971405826e-07  4.1019315624853917e-07  3.2178137447894930e-07  2.5158901990286971e-07 
 1.9604817106168475e-07  1.5224956451253531e-07  1.1782923796584029e-07  9.0873066887879811e-08 
 6.9836671066608080e-08  5.3478470491085068e-08  4.0803945236041439e-08  3.1019402956737972e-08 
 2.3493781367212898e-08  1.7727213129591510e-08  1.3325258462011704e-08  9.9778680824975012e-09 
 7.4422774802695484e-09  5.5291545774280227e-09  4.0914282172311425e-09  3.0153161443593221e-09 
 2.2131497134289165e-09  1.6176598787164271e-09  1.1774463933299863e-09  8.5340079513628948e-10 
 6.1589479416662627e-10  4.4258011537034725e-10  3.1667460541063359e-10  2.2563330080882438e-10 
 1.6012290450969273e-10  1.1323437190215656e-10  7.9881631757454590e-11  0.0000000000000000e+00 
 0.0000000000000000e+00  0.0000000000000000e+00  0.0000000000000000e+00  0.0000000000000000e+00 
 0.0000000000000000e+00  0.0000000000000000e+00  0.0000000000000000e+00  0.0000000000000000e+00 
 0.0000000000000000e+00  0.0000000000000000e+00  0.0000000000000000e+00  0.0000000000000000e+00 
 0.0000000000000000e+00  0.0000000000000000e+00  0.0000000000000000e+00  0.0000000000000000e+00 
 0.0000000000000000e+00  0.0000000000000000e+00  0.0000000000000000e+00  0.0000000000000000e+00 
 0.0000000000000000e+00  0.0000000000000000e+00  0.0000000000000000e+00  0.0000000000000000e+00 
 0.0000000000000000e+00  0.0000000000000000e+00  0.0000000000000000e+00  0.0000000000000000e+00 
 0.0000000000000000e+00  0.0000000000000000e+00  0.0000000000000000e+00  0.0000000000000000e+00 
 0.0000000000000000e+00  0.0000000000000000e+00  0.0000000000000000e+00  0.0000000000000000e+00 
 0.0000000000000000e+00  0.0000000000000000e+00  0.0000000000000000e+00  0.0000000000000000e+00 
 0.0000000000000000e+00  0.0000000000000000e+00  0.0000000000000000e+00  0.0000000000000000e+00 
 0.0000000000000000e+00  0.0000000000000000e+00  0.0000000000000000e+00  0.0000000000000000e+00 
 0.0000000000000000e+00  0.0000000000000000e+00  0.0000000000000000e+00  0.0000000000000000e+00 
 0.0000000000000000e+00  0.0000000000000000e+00  0.0000000000000000e+00  0.0000000000000000e+00 
 0.0000000000000000e+00  0.0000000000000000e+00  0.0000000000000000e+00  0.0000000000000000e+00 
 0.0000000000000000e+00  0.0000000000000000e+00  0.0000000000000000e+00  0.0000000000000000e+00 
 0.0000000000000000e+00  0.0000000000000000e+00  0.0000000000000000e+00  0.0000000000000000e+00 
 0.0000000000000000e+00  0.0000000000000000e+00  0.0000000000000000e+00  0.0000000000000000e+00 
 0.0000000000000000e+00  0.0000000000000000e+00  0.0000000000000000e+00  0.0000000000000000e+00 
 0.0000000000000000e+00  0.0000000000000000e+00  0.0000000000000000e+00  0.0000000000000000e+00 
 0.0000000000000000e+00  0.0000000000000000e+00  0.0000000000000000e+00  0.0000000000000000e+00 
 0.0000000000000000e+00  0.0000000000000000e+00  0.0000000000000000e+00  0.0000000000000000e+00 
 0.0000000000000000e+00  0.0000000000000000e+00  0.0000000000000000e+00  0.0000000000000000e+00 
 0.0000000000000000e+00  0.0000000000000000e+00  0.0000000000000000e+00  0.0000000000000000e+00 
 0.0000000000000000e+00  0.0000000000000000e+00  0.0000000000000000e+00  0.0000000000000000e+00 
 0.0000000000000000e+00  0.0000000000000000e+00  0.0000000000000000e+00  0.0000000000000000e+00 
 0.0000000000000000e+00  0.0000000000000000e+00  0.0000000000000000e+00  0.0000000000000000e+00 
 0.0000000000000000e+00  0.0000000000000000e+00  0.0000000000000000e+00  0.0000000000000000e+00 
 0.0000000000000000e+00  0.0000000000000000e+00  0.0000000000000000e+00  0.0000000000000000e+00 
 0.0000000000000000e+00  0.0000000000000000e+00  0.0000000000000000e+00  0.0000000000000000e+00 
 0.0000000000000000e+00  0.0000000000000000e+00  0.0000000000000000e+00  0.0000000000000000e+00 
 0.0000000000000000e+00  0.0000000000000000e+00  0.0000000000000000e+00  0.0000000000000000e+00 
 0.0000000000000000e+00  0.0000000000000000e+00  0.0000000000000000e+00  0.0000000000000000e+00 
 0.0000000000000000e+00  0.0000000000000000e+00 
P    1   3.50          Wavefunction
 1.6966855261984228e-11  1.7413778323337445e-11  1.7872473762086279e-11  1.8343251673820417e-11 
 1.8826430322341675e-11  1.9322336354822470e-11  1.9831305022631734e-11  2.0353680407977651e-11 
 2.0889815656520323e-11  2.1440073216111739e-11  2.2004825081824291e-11  2.2584453047433683e-11 
 2.3179348963526056e-11  2.3789915002403899e-11  2.4416563929969938e-11  2.5059719384772540e-11 
 2.5719816164401617e-11  2.6397300519428301e-11  2.7092630455087411e-11  2.7806276040906415e-11 
 2.8538719728490401e-11  2.9290456677677754e-11  3.0061995091287076e-11  3.0853856558681713e-11 
 3.1666576408384038e-11  3.2500704069977984e-11  3.3356803445544375e-11  3.4235453290880274e-11 
 3.5137247606759987e-11  3.6062796040502241e-11  3.7012724298115058e-11  3.7987674567296876e-11 
 3.8988305951579965e-11  4.0015294915909561e-11  4.1069335743959985e-11  4.2151141007496929e-11 
 4.3261442048103196e-11  4.4400989471593457e-11  4.5570553655452547e-11  4.6770925269639969e-11 
 4.8002915811113048e-11  4.9267358152429814e-11  5.0565107104802703e-11  5.1897039995983606e-11 
 5.3264057263370877e-11  5.4667083062739459e-11  5.6107065893005500e-11  5.7584979237447844e-11 
 5.9101822221819945e-11  6.0658620289797046e-11  6.2256425896215334e-11  6.3896319218571564e-11 
 6.5579408887264429e-11  6.7306832735071019e-11  6.9079758566365355e-11  7.0899384946598780e-11 
 7.2766942012575953e-11  7.4683692304074546e-11  7.6650931617370311e-11  7.8669989881244942e-11 
 8.0742232056068854e-11  8.2869059056566669e-11  8.5051908698889070e-11  8.7292256672631673e-11 
 8.9591617538457621e-11  9.1951545751998564e-11  9.4373636714726221e-11  9.6859527852504896e-11 
 9.9410899722554070e-11  1.0202947714956937e-10  1.0471703039177037e-10  1.0747537633766274e-10 
 1.1030637973432474e-10  1.1321195444804748e-10  1.1619406475818215e-10  1.1925472668506809e-10 
 1.2239600935293982e-10  1.2562003638873451e-10  1.2892898735774518e-10  1.3232509923709035e-10 
 1.3581066792799692e-10  1.3938804980791692e-10  1.4305966332352963e-10  1.4682799062570427e-10 
 1.5069557924752924e-10  1.5466504382654258e-10  1.5873906787232730e-10  1.6292040558066710e-10 
 1.6721188369548854e-10  1.7161640341984885e-10  1.7613694237726054e-10  1.8077655662467979e-10 
 1.8553838271851842e-10  1.9042563983507681e-10  1.9544163194683122e-10  2.0058975005604622e-10 
 2.0587347448722322e-10  2.1129637723993382e-10  2.1686212440362929e-10  2.2257447863605857e-10 
 2.2843730170697000e-10  2.3445455710881681e-10  2.4063031273623107e-10  2.4696874363607783e-10 
 2.5347413482994751e-10  2.6015088421099717e-10  2.6700350551709537e-10  2.7403663138228441e-10 
 2.8125501646861957e-10  2.8866354068050563e-10  2.9626721246370051e-10  3.0407117219121913e-10 
 3.1208069563842479e-10  3.2030119754965832e-10  3.2873823529881480e-10  3.3739751264634461e-10 
 3.4628488359521712e-10  3.5540635634845382e-10  3.6476809737090800e-10  3.7437643555803434e-10 
 3.8423786651446881e-10  3.9435905694531079e-10  4.0474684916307536e-10  4.1540826571336324e-10 
 4.2635051412237636e-10  4.3758099176948664e-10  4.4910729088815348e-10  4.6093720369857076e-10 
 4.7307872767551248e-10  4.8554007095493934e-10  4.9832965788301962e-10  5.1145613471131858e-10 
 5.2492837544200289e-10  5.3875548782701543e-10  5.5294681952527323e-10  5.6751196442205315e-10 
 5.8246076911483598e-10  5.9780333956999402e-10  6.1355004795482378e-10  6.2971153964954014e-10 
 6.4629874044397369e-10  6.6332286392383863e-10  6.8079541905155836e-10  6.9872821794678248e-10 
 7.1713338387184659e-10  7.3602335942758066e-10  7.5541091496500170e-10  7.7530915721857796e-10 
 7.9573153816690638e-10  8.1669186412678434e-10  8.3820430508683360e-10  8.6028340428697788e-10 
 8.8294408805025638e-10  9.0620167587361631e-10  9.3007189078450804e-10  9.5457086997028446e-10 
 9.7971517568758780e-10  1.0055218064591054e-09  1.0320082085652560e-09  1.0591922878385810e-09 
 1.0870924217688127e-09  1.1157274719268028e-09  1.1451167967157113e-09  1.1752802644580750e-09 
 1.2062382668276022e-09  1.2380117326347785e-09  1.2706221419755992e-09  1.3040915407529927e-09 
 1.3384425555807586e-09  1.3736984090800888e-09  1.4098829355790147e-09  1.4470205972254019e-09 
 1.4851365005243707e-09  1.5242564133113378e-09  1.5644067821721414e-09  1.6056147503220380e-09 
 1.6479081759556473e-09  1.6913156510802594e-09  1.7358665208452286e-09  1.7815909033805326e-09 
 1.8285197101578932e-09  1.8766846668882430e-09  1.9261183349696459e-09  1.9768541335001877e-09 
 2.0289263618707106e-09  2.0823702229526666e-09  2.1372218468967665e-09  2.1935183155585154e-09 
 2.2512976875671445e-09  2.3105990240548886e-09  2.3714624150640090e-09  2.4339290066494036e-09 
 2.4980410286951379e-09  2.5638418234636951e-09  2.6313758748972497e-09  2.7006888386907761e-09 
 2.7718275731573212e-09  2.8448401709062975e-09  2.9197759913562434e-09  2.9966856941039875e-09 
 3.0756212731728231e-09  3.1566360921628061e-09  3.2397849203269722e-09  3.3251239695978404e-09 
 3.4127109325892479e-09  3.5026050215992072e-09  3.5948670086401417e-09  3.6895592665235879e-09 
 3.7867458110271169e-09  3.8864923441719880e-09  3.9888662986408022e-09  4.0939368833651810e-09 
 4.2017751303142864e-09  4.3124539425158195e-09  4.4260481433419586e-09  4.5426345270935687e-09 
 4.6622919109168677e-09  4.7851011880876582e-09  4.9111453826991454e-09  5.0405097057903151e-09 
 5.1732816129528227e-09  5.3095508634553260e-09  5.4494095809252593e-09  5.5929523156290604e-09 
 5.7402761083929359e-09  5.8914805562074336e-09  6.0466678795601184e-09  6.2059429915419222e-09 
 6.3694135687738410e-09  6.5371901242019881e-09  6.7093860818101616e-09  6.8861178533004911e-09 
 7.0675049167939537e-09  7.2536698976040099e-09  7.4447386511379450e-09  7.6408403479819704e-09 
 7.8421075612276090e-09  8.0486763560983759e-09  8.2606863819374174e-09  8.4782809666182050e-09 
 8.7016072134421693e-09  8.9308161005887739e-09  9.1660625831852074e-09  9.4075056980647847e-09 
 9.6553086712847694e-09  9.9096390284763723e-09  1.0170668708101466e-08  1.0438574177692592e-08 
 1.0713536553154818e-08  1.0995741721210061e-08  1.1285380465066648e-08  1.1582648593399005e-08 
 1.1887747072724680e-08  1.2200882163268082e-08  1.2522265558402791e-08  1.2852114527766574e-08 
 1.3190652064145911e-08  1.3538107034229102e-08  1.3894714333329922e-08  1.4260715044186281e-08 
 1.4636356599941147e-08  1.5021892951415880e-08  1.5417584738788942e-08  1.5823699467795978e-08 
 1.6240511690570334e-08  1.6668303191246323e-08  1.7107363176450514e-08  1.7557988470810128e-08 
 1.8020483717610519e-08  1.8495161584737773e-08  1.8982342976045691e-08  1.9482357248290377e-08 
 1.9995542433779421e-08  2.0522245468886594e-08  2.1062822428587059e-08  2.1617638767172212e-08 
 2.2187069565307474e-08  2.2771499783600830e-08  2.3371324522854217e-08  2.3986949291174575e-08 
 2.4618790278125918e-08  2.5267274636108679e-08  2.5932840769157439e-08  2.6615938629353224e-08 
 2.7317030021051639e-08  2.8036588913133489e-08  2.8775101759489932e-08  2.9533067827959663e-08 
 3.0310999537941528e-08  3.1109422806911478e-08  3.1928877406078869e-08  3.2769917325425080e-08 
 3.3633111148357576e-08  3.4519042435950123e-08  3.5428310121194193e-08  3.6361528913924436e-08 
 3.7319329716426019e-08  3.8302360049989909e-08  3.9311284492706881e-08  4.0346785128796619e-08 
 4.1409562009776075e-08  4.2500333627779415e-08  4.3619837401349787e-08  4.4768830174032310e-08 
 4.5948088726105710e-08  4.7158410299799288e-08  4.8400613138351420e-08  4.9675537039274644e-08 
 5.0984043922202468e-08  5.2327018411703092e-08  5.3705368435455226e-08  5.5120025838191959e-08 
 5.6571947011829568e-08  5.8062113542208819e-08  5.9591532872888474e-08  6.1161238986442081e-08 
 6.2772293103721387e-08  6.4425784401562248e-08  6.6122830749421911e-08  6.7864579465449674e-08 
 6.9652208092506408e-08  7.1486925194663526e-08  7.3369971174724886e-08  7.5302619113331874e-08 
 7.7286175630226216e-08  7.9321981768261594e-08  8.1411413900771513e-08  8.3555884662918041e-08 
 8.5756843907663464e-08  8.8015779687024815e-08  9.0334219259290318e-08  9.2713730122894666e-08 
 9.5155921077670393e-08  9.7662443314210416e-08  1.0023499153209664e-07  1.0287530508776653e-07 
 1.0558516917280620e-07  1.0836641602347191e-07  1.1122092616225101e-07  1.1415062967227681e-07 
 1.1715750750540726e-07  1.2024359282476154e-07  1.2341097238248334e-07  1.2666178793345963e-07 
 1.2999823768568133e-07  1.3342257778788807e-07  1.3693712385512187e-07  1.4054425253284202e-07 
 1.4424640310036323e-07  1.4804607911458381e-07  1.5194585009527891e-07  1.5594835325359425e-07 
 1.6005629526571752e-07  1.6427245409392590e-07  1.6859968085723437e-07  1.7304090175368995e-07 
 1.7759912003602197e-07  1.8227741804198368e-07  1.8707895928041030e-07  1.9200699057384560e-07 
 1.9706484425856910e-07  2.0225594044295345e-07  2.0758378932524696e-07  2.1305199357206159e-07 
 2.1866425075901549e-07  2.2442435587512020e-07  2.3033620389261407e-07  2.3640379240402187e-07 
 2.4263122432828900e-07  2.4902271068788602e-07  2.5558257345882862e-07  2.6231524849559824e-07 
 2.6922528853299410e-07  2.7631736626699029e-07  2.8359627751671929e-07  2.9106694446975267e-07 
 2.9873441901289980e-07  3.0660388615080148e-07  3.1468066751465033e-07  3.2297022496342984e-07 
 3.3147816428012365e-07  3.4021023896541185e-07  3.4917235413143348e-07  3.5837057049826337e-07 
 3.6781110849582297e-07  3.7750035247401043e-07  3.8744485502391477e-07  3.9765134141305123e-07 
 4.0812671413763272e-07  4.1887805759497330e-07  4.2991264287920052e-07  4.4123793270353865e-07 
 4.5286158645250885e-07  4.6479146536748740e-07  4.7703563786914468e-07  4.8960238502039064e-07 
 5.0250020613354254e-07  5.1573782452553416e-07  5.2932419342508141e-07  5.4326850203582964e-07 
 5.5758018175961096e-07  5.7226891258404986e-07  5.8734462963887320e-07  6.0281752992538522e-07 
 6.1869807922370206e-07  6.3499701918244978e-07  6.5172537459576197e-07  6.6889446087253889e-07 
 6.8651589170306642e-07  7.0460158692822204e-07  7.2316378061663895e-07  7.4221502935534764e-07 
 7.6176822075954617e-07  7.8183658220731947e-07  8.0243368980526941e-07  8.2357347759118450e-07 
 8.4527024698003664e-07  8.6753867645976595e-07  8.9039383154348063e-07  9.1385117498488054e-07 
 9.3792657726389693e-07  9.6263632734971901e-07  9.8799714374858233e-07  1.0140261858438798e-06 
 1.0407410655363678e-06  1.0681598591924423e-06  1.0963011199086761e-06  1.1251838901010269e-06 
 1.1548277144273534e-06  1.1852526530521082e-06  1.2164792952623137e-06  1.2485287734441666e-06 
 1.2814227774298847e-06  1.3151835692246479e-06  1.3498339981237611e-06  1.3853975162304467e-06 
 1.4218981943849364e-06  1.4593607385158329e-06  1.4978105064250171e-06  1.5372735250176503e-06 
 1.5777765079891689e-06  1.6193468739814655e-06  1.6620127652207965e-06  1.7058030666502813e-06 
 1.7507474255702226e-06  1.7968762717998239e-06  1.8442208383742503e-06  1.8928131827913760e-06 
 1.9426862088229175e-06  1.9938736889050822e-06  2.0464102871242641e-06  2.1003315828137332e-06 
 2.1556740947777188e-06  2.2124753061597119e-06  2.2707736899722961e-06  2.3306087353062623e-06 
 2.3920209742372872e-06  2.4550520094489100e-06  2.5197445425910949e-06  2.5861424033941734e-06 
 2.6542905795585216e-06  2.7242352474408681e-06  2.7960238035587254e-06  2.8697048969350128e-06 
 2.9453284623055571e-06  3.0229457542127866e-06  3.1026093820095716e-06  3.1843733457978349e-06 
 3.2682930733272316e-06  3.3544254578799155e-06  3.4428288971681127e-06  3.5335633332719829e-06 
 3.6266902936460081e-06  3.7222729332229351e-06  3.8203760776451319e-06  3.9210662676540087e-06 
 4.0244118046690629e-06  4.1304827975889656e-06  4.2393512108480276e-06  4.3510909137623221e-06 
 4.4657777312006963e-06  4.5834894956169516e-06  4.7043061004803826e-06  4.8283095551430978e-06 
 4.9555840411834475e-06  5.0862159702661469e-06  5.2202940435607505e-06  5.3579093127614029e-06 
 5.4991552427519237e-06  5.6441277759616428e-06  5.7929253984586438e-06  5.9456492078284361e-06 
 6.1024029828874875e-06  6.2632932552824283e-06  6.4284293830272470e-06  6.5979236260323074e-06 
 6.7718912236805947e-06  6.9504504745081727e-06  7.1337228180475672e-06  7.3218329188944551e-06 
 7.5149087530598096e-06  7.7130816966715840e-06  7.9164866170917112e-06  8.1252619665163736e-06 
 8.3395498781293252e-06  8.5594962648802374e-06  8.7852509209621407e-06  9.0169676260642435e-06 
 9.2548042524787486e-06  9.4989228751425572e-06  9.7494898846973298e-06  1.0006676103653730e-05 
 1.0270656905748429e-05  1.0541612338585056e-05  1.0819727249653098e-05  1.1105191415821624e-05 
 1.1398199676407663e-05  1.1698952069922195e-05  1.2007653974599787e-05  1.2324516252821402e-05 
 1.2649755399543009e-05  1.2983593694846442e-05  1.3326259360732427e-05  1.3677986722279496e-05 
 1.4039016373296442e-05  1.4409595346599983e-05  1.4789977289053498e-05  1.5180422641506992e-05 
 1.5581198823783055e-05  1.5992580424858037e-05  1.6414849398392590e-05  1.6848295263770799e-05 
 1.7293215312812080e-05  1.7749914822325541e-05  1.8218707272682099e-05  1.8699914572585157e-05 
 1.9193867290226951e-05  1.9700904891023651e-05  2.0221375982128720e-05  2.0755638563930913e-05 
 2.1304060288749970e-05  2.1867018726950369e-05  2.2444901640701073e-05  2.3038107265616577e-05 
 2.3647044600523184e-05  2.4272133705602126e-05  2.4913806009170468e-05  2.5572504623369260e-05 
 2.6248684669037997e-05  2.6942813610064250e-05  2.7655371597507243e-05  2.8386851823804919e-05 
 2.9137760887384839e-05  2.9908619168010725e-05  3.0699961213208141e-05  3.1512336136125647e-05 
 3.2346308025199773e-05  3.3202456366006446e-05  3.4081376475694614e-05  3.4983679950412923e-05 
 3.5909995126154959e-05  3.6860967553464644e-05  3.7837260486459372e-05  3.8839555386646000e-05 
 3.9868552442022187e-05  4.0924971101974384e-05  4.2009550628503158e-05  4.3123050664326372e-05 
 4.4266251818432317e-05  4.5439956269676342e-05  4.6644988389037820e-05  4.7882195381177993e-05 
 4.9152447945964223e-05  5.0456640960652554e-05  5.1795694183446980e-05  5.3170552979183264e-05 
 5.4582189067913811e-05  5.6031601297202059e-05  5.7519816438966478e-05  5.9047890011748883e-05 
 6.0616907129316477e-05  6.2227983376544880e-05  6.3882265713567383e-05  6.5580933409216800e-05 
 6.7325199004828279e-05  6.9116309309515873e-05  7.0955546428082484e-05  7.2844228822770718e-05 
 7.4783712410113573e-05  7.6775391694197011e-05  7.8820700937701864e-05  8.0921115372151875e-05 
 8.3078152448854640e-05  8.5293373132087427e-05  8.7568383236146159e-05  8.9904834807947066e-05 
 9.2304427556943737e-05  9.4768910334199879e-05  9.7300082662539459e-05  9.9899796319780434e-05 
 1.0256995697714861e-04  1.0531252589506050e-04  1.0812952167856337e-04  1.1102302209482334e-04 
 1.1399516595516086e-04  1.1704815506424620e-04  1.2018425623918742e-04  1.2340580340136796e-04 
 1.2671519974402301e-04  1.3011491997868229e-04  1.3360751266375094e-04  1.3719560261865425e-04 
 1.4088189342713117e-04  1.4466917003343055e-04  1.4856030143534142e-04  1.5255824347817375e-04 
 1.5666604175400376e-04  1.6088683461070168e-04  1.6522385627547778e-04  1.6968044009791082e-04 
 1.7426002191766061e-04  1.7896614356231982e-04  1.8380245648112783e-04  1.8877272552054333e-04 
 1.9388083284797169e-04  1.9913078203024972e-04  2.0452670227381759e-04  2.1007285283384980e-04 
 2.1577362759997990e-04  2.2163355986663290e-04  2.2765732729638184e-04  2.3384975708516643e-04 
 2.4021583133865718e-04  2.4676069266951832e-04  2.5348965002581629e-04  2.6040818476134327e-04 
 2.6752195695917255e-04  2.7483681202034532e-04  2.8235878753019548e-04  2.9009412041546695e-04 
 2.9804925440605600e-04  3.0623084781592792e-04  3.1464578165851218e-04  3.2330116811268286e-04 
 3.3220435935626741e-04  3.4136295678491898e-04  3.5078482063512380e-04  3.6047808003110448e-04 
 3.7045114347642675e-04  3.8071270981221742e-04  3.9127177966506824e-04  4.0213766740892864e-04 
 4.1332001366658946e-04  4.2482879837772968e-04  4.3667435446194950e-04  4.4886738210673973e-04 
 4.6141896371195665e-04  4.7434057952407268e-04  4.8764412399529116e-04  5.0134192290449814e-04 
 5.1544675127905874e-04  5.2997185215858031e-04  5.4493095624402114e-04  5.6033830247789512e-04 
 5.7620865960384012e-04  5.9255734875646865e-04  6.0940026713523132e-04  6.2675391281898345e-04 
 6.4463541078109117e-04  6.6306254016821958e-04  6.8205376290945659e-04  7.0162825372613086e-04 
 7.2180593161659621e-04  7.4260749289440297e-04  7.6405444586264836e-04  7.8616914721192708e-04 
 8.0897484023421257e-04  8.3249569495014099e-04  8.5675685025267314e-04  8.8178445817586827e-04 
 9.0760573040362172e-04  9.3424898713967799e-04  9.6174370846705698e-04  9.9012058833223985e-04 
 1.0194115912970985e-03  1.0496500122095887e-03  1.0808705389527566e-03  1.1131093184405857e-03 
 1.1464040260387161e-03  1.1807939385980865e-03  1.2163200113001552e-03  1.2530249585235166e-03 
 1.2909533389535441e-03  1.3301516451691346e-03  1.3706683979537791e-03  1.4125542455920160e-03 
 1.4558620684269660e-03  1.5006470889700279e-03  1.5469669878700595e-03  1.5948820260664577e-03 
 1.6444551734685678e-03  1.6957522445228022e-03  1.7488420410487907e-03  1.8037965027468664e-03 
 1.8606908658012295e-03  1.9196038300263111e-03  1.9806177350281621e-03  2.0438187458782318e-03 
 2.1092970488236608e-03  2.1771470575862538e-03  2.2474676308316868e-03  2.3203623014212008e-03 
 2.3959395180902067e-03  2.4743129002317023e-03  2.5556015064974735e-03  2.6399301179664721e-03 
 2.7274295366677666e-03  2.8182369002848992e-03  2.9124960139094765e-03  3.0103576997542888e-03 
 3.1119801657801902e-03  3.2175293942364081e-03  3.3271795511607203e-03  3.4411134179341352e-03 
 3.5595228460341432e-03  3.6826092361811917e-03  3.8105840431247452e-03  3.9436693073678520e-03 
 4.0820982151824666e-03  4.2261156883216331e-03  4.3759790048888414e-03  4.5319584528789479e-03 
 4.6943380179590502e-03  4.8634161071108521e-03  5.0395063098082173e-03  5.2229381984542182e-03 
 5.4140581698504759e-03  5.6132303295174215e-03  5.8208374207266459e-03  6.0372818001448256e-03 
 6.2629864620223075e-03  6.4983961128870331e-03  6.7439782987254102e-03  7.0002245866446419e-03 
 7.2676518030148707e-03  7.5468033300829041e-03  7.8382504630308512e-03  8.1425938294211603e-03 
 8.4604648729227939e-03  8.7925274031494839e-03  9.1394792133588053e-03  9.5020537676577775e-03 
 9.8810219592346225e-03  1.0277193940985601e-02  1.0691421029727210e-02  1.1124597684975814e-02 
 1.1577663563035977e-02  1.2051605646862903e-02  1.2547460451850930e-02  1.3066316307345853e-02 
 1.3609315713281930e-02  1.4177657770901339e-02  1.4772600686022619e-02  1.5395464342782335e-02 
 1.6047632945178931e-02  1.6730557723096770e-02  1.7445759698781059e-02  1.8194832508967428e-02 
 1.8979445277044815e-02  1.9801345528744293e-02  2.0662362143901505e-02  2.1564408335836324e-02 
 2.2509484648833063e-02  2.3499681963090178e-02  2.4537184495344526e-02  2.5624272782167491e-02 
 2.6763326631684677e-02  2.7956828028197659e-02  2.9207363972893592e-02  3.0517629242531600e-02 
 3.1890429046704909e-02  3.3328681563014731e-02  3.4835420328271867e-02  3.6413796462688212e-02 
 3.8067080702954913e-02  3.9798665219150937e-02  4.1612065189613544e-02  4.3510920107253895e-02 
 4.5498994790343715e-02  4.7580180070553812e-02  4.9758493131008032e-02  5.2038077467333854e-02 
 5.4423202445136189e-02  5.6918262427963967e-02  5.9527775450625188e-02  6.2256381413537717e-02 
 6.5108839774536034e-02  6.8090026714976618e-02  7.1204931756806783e-02  7.4458653806097272e-02 
 7.7856396595884225e-02  8.1403463496398723e-02  8.5105251653117817e-02  8.8967245401655709e-02 
 9.2995008892328063e-02  9.7194177835182347e-02  1.0157045024732494e-01  1.0612957604752786e-01 
 1.1087734529767443e-01  1.1581957483637974e-01  1.2096209298759170e-01  1.2631072195761608e-01 
 1.3187125746055822e-01  1.3764944503890666e-01  1.4365095247889142e-01  1.4988133766715178e-01 
 1.5634601120575828e-01  1.6305019310794741e-01  1.6999886294947442e-01  1.7719670296331114e-01 
 1.8464803375135697e-01  1.9235674255724922e-01  2.0032620440739646e-01  2.0855919688517235e-01 
 2.1705780984829798e-01  2.2582335200971121e-01  2.3485625693556941e-01  2.4415599160395274e-01 
 2.5372097112294179e-01  2.6354848341802833e-01  2.7363462755834195e-01  2.8397426882245919e-01 
 2.9456101259907774e-01  3.0538719786364554e-01  3.1644390945637058e-01  3.2772100695947443e-01 
 3.3920716687203983e-01  3.5088993415907516e-01  3.6275577911755708e-01  3.7479015573693969e-01 
 3.8697755815490387e-01  3.9930157227160995e-01  4.1174492003678115e-01  4.2428949442284214e-01 
 4.3691638376623743e-01  4.4960588510304189e-01  4.6233750735828977e-01  4.7508996666005354e-01 
 4.8784117742311289e-01  5.0056824392729748e-01  5.1324745768868174e-01  5.2585430588058468e-01 
 5.3836349542828632e-01  5.5074899630811680e-01  5.6298410622013739e-01  5.7504153737258290e-01 
 5.8689352507880244e-01  5.9851195906195476e-01  6.0986852873649278e-01  6.2093486137811549e-01 
 6.3168271836673651e-01  6.4208416365066734e-01  6.5211174214580436e-01  6.6173865886240257e-01 
 6.7093895444811391e-01  6.7968767426711552e-01  6.8796102849807994e-01  6.9573654111090377e-01 
 7.0299318595887850e-01  7.0971150858909460e-01  7.1587373272279420e-01  7.2146385068533603e-01 
 7.2646769737058392e-01  7.3087300760611940e-01  7.3466945704353814e-01  7.3784868693200523e-01 
 7.4040431334306789e-01  7.4233192159983286e-01  7.4362904682335174e-01  7.4429514164261956e-01 
 7.4433153222116488e-01  7.4374136383230283e-01  7.4252953726650539e-01  7.4070263737830866e-01 
 7.3826885507756779e-01  7.3523790404211176e-01  7.3162093337796508e-01  7.2743043738189539e-01 
 7.2268016347218922e-01  7.1738501925095788e-01  7.1156097954643927e-01  7.0522499416589124e-01 
 6.9839489697012047e-01  6.9108931675520968e-01  6.8332759031289925e-01  6.7512967793663659e-01 
 6.6651608154240805e-01  6.5750776549137502e-01  6.4812608013421980e-01  6.3839268804609195e-01 
 6.2832949288654583e-01  6.1795857080039607e-01  6.0730210427189479e-01  5.9638231835423927e-01 
 5.8522141921686066e-01  5.7384153500109403e-01  5.6226465888709631e-01  5.5051259461301272e-01 
 5.3860690431650560e-01  5.2656885889947025e-01  5.1441939101892187e-01  5.0217905083961356e-01 
 4.8986796468707500e-01  4.7750579673230586e-01  4.6511171382163485e-01  4.5270435353820443e-01 
 4.4030179554664139e-01  4.2792153623163104e-01  4.1558046659649184e-01  4.0329485334168286e-01 
 3.9108032299767459e-01  3.7895184894378270e-01  3.6692374110618575e-01  3.5500963809596514e-01 
 3.4322250152291289e-01  3.3157461220425022e-01  3.2007756798040071e-01  3.0874228285373928e-01 
 2.9757898718202869e-01  2.8659722868725862e-01  2.7580587408387269e-01  2.6521311118836455e-01 
 2.5482645144443061e-01  2.4465273288218908e-01  2.3469812362226111e-01  2.2496812612923017e-01 
 2.1546758250532386e-01  2.0620068118358009e-01  1.9717096541929746e-01  1.8838134397960579e-01 
 1.7983410438729427e-01  1.7153092898569805e-01  1.6347291396208513e-01  1.5566059130974663e-01 
 1.4809395354111335e-01  1.4077248080530094e-01  1.3369516993199182e-01  1.2686056483346958e-01 
 1.2026678765504382e-01  1.1391157007047624e-01  1.0779228416610456e-01  1.0190597243353301e-01 
 9.6249376482950816e-02  9.0818964185611514e-02  8.5610955046234380e-02  8.0621343689537439e-02 
 7.5845921418832965e-02  7.1280295870068094e-02  6.6919908844155954e-02  6.2760052455553453e-02 
 5.8795883785795054e-02  5.5022438275129898e-02  5.1434642120026505e-02  4.8027323965008445e-02 
 4.4795226180563412e-02  4.1733016002906728e-02  3.8835296776707502e-02  3.6096619491377373e-02 
 3.3511494740314035e-02  3.1074405166239202e-02  2.8779818390694194e-02  2.6622200367370997e-02 
 2.4596029050786703e-02  2.2695808236334988e-02  2.0916081405480756e-02  1.9251445400186497e-02 
 1.7696563751921978e-02  1.6246179500683040e-02  1.4895127356022872e-02  1.3638345072969110e-02 
 1.2470883938913808e-02  1.1387918291521354e-02  1.0384754011173327e-02  9.4568359535767126e-03 
 8.5997543083240115e-03  7.8092498870753887e-03  7.0812183604876790e-03  6.4117134760345931e-03 
 5.7969492995310189e-03  5.2333015316376047e-03  4.7173079570591771e-03  4.2456680887582414e-03 
 3.8152420724835170e-03  3.4230489184611762e-03  3.0662641274046376e-03  2.7422167772505816e-03 
 2.4483861353985547e-03  2.1823978588843642e-03  1.9420198420093627e-03  1.7251577676247031e-03 
 1.5298504146663613e-03  1.3542647707749625e-03  1.1966909950215916e-03  1.0555372719873292e-03 
 9.2932459478362733e-04  8.1668151110776926e-04  7.1633886313968327e-04  6.2712454902381302e-04 
 5.4795833084828602e-04  4.7784671142692218e-04  4.1587789979214296e-04  3.6121688309694369e-04 
 3.1310062057706247e-04  2.7083337331500293e-04  2.3378218175198519e-04  2.0137250119166844e-04 
 1.7308400391425444e-04  1.4844655495958916e-04  1.2703636713603091e-04  1.0847233936529032e-04 
 9.2412581083026134e-05  7.8551124084401771e-05  6.6614821938883108e-05  5.6360435906294360e-05 
 4.7571905174038374e-05  4.0057798210697212e-05  3.3648941100467839e-05  2.8196217891381955e-05 
 2.3568537261851150e-05  1.9650959186966870e-05  1.6342974768643570e-05  1.3556931980908919e-05 
 1.1216599770601803e-05  9.2558627401793225e-06  7.6175385177450775e-06  6.2523098832403581e-06 
 5.1177637616239004e-06  4.1775293058569620e-06  3.4005074662960622e-06  2.7601846702061102e-06 
 2.2340235071003861e-06  1.8029236242419364e-06  1.4507463739878021e-06  1.1638971132548631e-06 
 9.3095942830418971e-07  7.4237593895420161e-07  5.9017071956548656e-07  4.6770875468854205e-07 
 3.6948822080616965e-07  2.9096174848073852e-07  2.2838316842651236e-07  1.7867657817641516e-07 
 1.3932488128153922e-07  1.0827524707618576e-07  8.3859215140658790e-08  6.4725424297489467e-08 
 4.9783181248336267e-08  3.8155299073709018e-08  2.9138831310090232e-08  2.2172503932751050e-08 
 1.6809806214975374e-08  1.2696843134483701e-08  9.5541778683570009e-09  7.1620041219247501e-09 
 5.3480857596859386e-09  3.9779866292257799e-09  2.9471877508765750e-09  2.1747533055582012e-09 
 1.5982621575353433e-09  1.1697690027654859e-09  8.5259957395854477e-10  6.1881852527159430e-10 
 4.4723745386272844e-10  3.2185470994958466e-10  2.3063884738515207e-10  1.6458435007822896e-10 
 1.1698214801875016e-10  8.2858862390862008e-11  5.8548090021093923e-11  0.0000000000000000e+00 
 0.0000000000000000e+00  0.0000000000000000e+00  0.0000000000000000e+00  0.0000000000000000e+00 
 0.0000000000000000e+00  0.0000000000000000e+00  0.0000000000000000e+00  0.0000000000000000e+00 
 0.0000000000000000e+00  0.0000000000000000e+00  0.0000000000000000e+00  0.0000000000000000e+00 
 0.0000000000000000e+00  0.0000000000000000e+00  0.0000000000000000e+00  0.0000000000000000e+00 
 0.0000000000000000e+00  0.0000000000000000e+00  0.0000000000000000e+00  0.0000000000000000e+00 
 0.0000000000000000e+00  0.0000000000000000e+00  0.0000000000000000e+00  0.0000000000000000e+00 
 0.0000000000000000e+00  0.0000000000000000e+00  0.0000000000000000e+00  0.0000000000000000e+00 
 0.0000000000000000e+00  0.0000000000000000e+00  0.0000000000000000e+00  0.0000000000000000e+00 
 0.0000000000000000e+00  0.0000000000000000e+00  0.0000000000000000e+00  0.0000000000000000e+00 
 0.0000000000000000e+00  0.0000000000000000e+00  0.0000000000000000e+00  0.0000000000000000e+00 
 0.0000000000000000e+00  0.0000000000000000e+00  0.0000000000000000e+00  0.0000000000000000e+00 
 0.0000000000000000e+00  0.0000000000000000e+00  0.0000000000000000e+00  0.0000000000000000e+00 
 0.0000000000000000e+00  0.0000000000000000e+00  0.0000000000000000e+00  0.0000000000000000e+00 
 0.0000000000000000e+00  0.0000000000000000e+00  0.0000000000000000e+00  0.0000000000000000e+00 
 0.0000000000000000e+00  0.0000000000000000e+00  0.0000000000000000e+00  0.0000000000000000e+00 
 0.0000000000000000e+00  0.0000000000000000e+00  0.0000000000000000e+00  0.0000000000000000e+00 
 0.0000000000000000e+00  0.0000000000000000e+00  0.0000000000000000e+00  0.0000000000000000e+00 
 0.0000000000000000e+00  0.0000000000000000e+00  0.0000000000000000e+00  0.0000000000000000e+00 
 0.0000000000000000e+00  0.0000000000000000e+00  0.0000000000000000e+00  0.0000000000000000e+00 
 0.0000000000000000e+00  0.0000000000000000e+00  0.0000000000000000e+00  0.0000000000000000e+00 
 0.0000000000000000e+00  0.0000000000000000e+00  0.0000000000000000e+00  0.0000000000000000e+00 
 0.0000000000000000e+00  0.0000000000000000e+00  0.0000000000000000e+00  0.0000000000000000e+00 
 0.0000000000000000e+00  0.0000000000000000e+00  0.0000000000000000e+00  0.0000000000000000e+00 
 0.0000000000000000e+00  0.0000000000000000e+00  0.0000000000000000e+00  0.0000000000000000e+00 
 0.0000000000000000e+00  0.0000000000000000e+00  0.0000000000000000e+00  0.0000000000000000e+00 
 0.0000000000000000e+00  0.0000000000000000e+00  0.0000000000000000e+00  0.0000000000000000e+00 
 0.0000000000000000e+00  0.0000000000000000e+00  0.0000000000000000e+00  0.0000000000000000e+00 
 0.0000000000000000e+00  0.0000000000000000e+00 
D    2   0.50          Wavefunction
 5.0260319535504130e-17  5.2259196754628701e-17  5.4337570287960564e-17  5.6498601742380352e-17 
 5.8745578463404603e-17  6.1081918535872235e-17  6.3511175983510614e-17  6.6037046175291062e-17 
 6.8663371446797537e-17  7.1394146945160123e-17  7.4233526706444060e-17  7.7185829974739776e-17 
 8.0255547772566009e-17  8.3447349732580962e-17  8.6766091200994264e-17  9.0216820623484704e-17 
 9.3804787224859680e-17  9.7535448994138420e-17  1.0141448098720577e-16  1.0544778395966652e-16 
 1.0964149334303276e-16  1.1400198857789825e-16  1.1853590281829780e-16  1.2325013302201389e-16 
 1.2815185044217923e-16  1.3324851153613609e-16  1.3854786930814556e-16  1.4405798510320242e-16 
 1.4978724086989540e-16  1.5574435191096757e-16  1.6193838014097250e-16  1.6837874787119395e-16 
 1.7507525214279867e-16  1.8203807963002514e-16  1.8927782213607992e-16  1.9680549270531297e-16 
 2.0463254237618229e-16  2.1277087760049155e-16  2.2123287835540011e-16  2.3003141697575564e-16 
 2.3917987773539816e-16  2.4869217720722207e-16  2.5858278543296773e-16  2.6886674793494567e-16 
 2.7955970860317805e-16  2.9067793349277272e-16  3.0223833556773053e-16  3.1425850042882585e-16 
 3.2675671306469702e-16  3.3975198566684146e-16  3.5326408655082609e-16  3.6731357022770795e-16 
 3.8192180867141123e-16  3.9711102382962153e-16  4.1290432142765490e-16  4.2932572611672367e-16 
 4.4640021802006491e-16  4.6415377073252694e-16  4.8261339083141753e-16  5.0180715895871828e-16 
 5.2176427253715746e-16  5.4251509018512375e-16  5.6409117789798087e-16  5.8652535706603611e-16 
 6.0985175440220872e-16  6.3410585385534243e-16  6.5932455058813910e-16  6.8554620710181877e-16 
 7.1281071159288659e-16  7.4115953863077490e-16  7.7063581224866684e-16  8.0128437154347132e-16 
 8.3315183888474119e-16  8.6628669083629376e-16  9.0073933189841905e-16  9.3656217118285076e-16 
 9.7380970213713897e-16  1.0125385854397006e-15  1.0528077351916443e-15  1.0946784085364888e-15 
 1.1382142988441013e-15  1.1834816326006036e-15  1.2305492701516413e-15  1.2794888104522593e-15 
 1.3303746999827317e-15  1.3832843459960295e-15  1.4382982342691910e-15  1.4955000515377281e-15 
 1.5549768127993022e-15  1.6168189936803376e-15  1.6811206680669102e-15  1.7479796512092955e-15 
 1.8174976485178440e-15  1.8897804102765482e-15  1.9649378925096434e-15  2.0430844242459500e-15 
 2.1243388814354018e-15  2.2088248677823228e-15  2.2966709027705274e-15  2.3880106171662765e-15 
 2.4829829562964781e-15  2.5817323914113647e-15  2.6844091394531694e-15  2.7911693915651092e-15 
 2.9021755506882793e-15  3.0175964786079029e-15  3.1376077528247225e-15  3.2623919336423004e-15 
 3.3921388418765070e-15  3.5270458476096623e-15  3.6673181704285599e-15  3.8131691916031158e-15 
 3.9648207786805152e-15  4.1225036229886252e-15  4.2864575905620865e-15  4.4569320870249224e-15 
 4.6341864369846860e-15  4.8184902785153218e-15  5.0101239733288087e-15  5.2093790332595106e-15 
 5.4165585637100460e-15  5.6319777247332160e-15  5.8559642104513789e-15  6.0888587475425826e-15 
 6.3310156135517445e-15  6.5828031758153128e-15  6.8446044518192387e-15  7.1168176918426757e-15 
 7.3998569847736916e-15  7.6941528880185929e-15  8.0001530824630477e-15  8.3183230534813490e-15 
 8.6491467990297614e-15  8.9931275659010897e-15  9.3507886152604630e-15  9.7226740186268866e-15 
 1.0109349485511346e-14  1.0511403223970519e-14  1.0929446835385155e-14  1.1364116244824229e-14 
 1.1816072668410132e-14  1.2286003619156541e-14  1.2774623952808860e-14  1.3282676955278397e-14 
 1.3810935473324230e-14  1.4360203090202981e-14  1.4931315348074710e-14  1.5525141019024522e-14 
 1.6142583426633427e-14  1.6784581820108652e-14  1.7452112803063919e-14  1.8146191819122977e-14 
 1.8867874696606406e-14  1.9618259254651394e-14  2.0398486973207754e-14  2.1209744729450504e-14 
 2.2053266603250524e-14  2.2930335754449722e-14  2.3842286374796390e-14  2.4790505717510082e-14 
 2.5776436207563323e-14  2.6801577635890341e-14  2.7867489440860694e-14  2.8975793080488204e-14 
 3.0128174498983989e-14  3.1326386691405564e-14  3.2572252370303456e-14  3.3867666738421709e-14 
 3.5214600371670245e-14  3.6615102216754532e-14  3.8071302708022587e-14  3.9585417008270730e-14 
 4.1159748378437843e-14  4.2796691681314331e-14  4.4498737024595295e-14  4.6268473548820129e-14 
 4.8108593365960422e-14  5.0021895654647680e-14  5.2011290918270494e-14  5.4079805412418676e-14 
 5.6230585748409133e-14  5.8466903679896746e-14  6.0792161079851197e-14  6.3209895115471102e-14 
 6.5723783628907433e-14  6.8337650731981026e-14  7.1055472623405670e-14  7.3881383637364984e-14 
 7.6819682532644981e-14  7.9874839031888848e-14  8.3051500620921713e-14  8.6354499618488442e-14 
 8.9788860527159132e-14  9.3359807676584184e-14  9.7072773170726258e-14  1.0093340515115832e-13 
 1.0494757638899779e-13  1.0912139321854712e-13  1.1346120482623062e-13  1.1797361290895770e-13 
 1.2266548171660518e-13  1.2754394849389498e-13  1.3261643433755214e-13  1.3789065548525792e-13 
 1.4337463505357217e-13  1.4907671524267979e-13  1.5500557002652733e-13  1.6117021834765482e-13 
 1.6758003783679413e-13  1.7424477907810397e-13  1.8117458044174311e-13  1.8837998350634410e-13 
 1.9587194909484872e-13  2.0366187394809918e-13  2.1176160806154883e-13  2.2018347271146510e-13 
 2.2894027919804686e-13  2.3804534833396764e-13  2.4751253070799139e-13  2.5735622775448601e-13 
 2.6759141366088607e-13  2.7823365814642925e-13  2.8929915014682022e-13  3.0080472244084949e-13 
 3.1276787725642918e-13  3.2520681289500092e-13  3.3814045141481319e-13  3.5158846741518423e-13 
 3.6557131796553408e-13  3.8011027372471740e-13  3.9522745129799392e-13  4.1094584688085989e-13 
 4.2728937124091884e-13  4.4428288609100733e-13  4.6195224190890866e-13  4.8032431726118212e-13 
 4.9942705969093316e-13  5.1928952823171724e-13  5.3994193761225910e-13  5.6141570421922100e-13 
 5.8374349388794882e-13  6.0695927159389001e-13  6.3109835312027579e-13  6.5619745878066641e-13 
 6.8229476927807964e-13  7.0942998378567605e-13  7.3764438033735551e-13  7.6698087862012700e-13 
 7.9748410526377220e-13  8.2920046172711988e-13  8.6217819488419946e-13  8.9646747041764243e-13 
 9.3212044913098045e-13  9.6919136629591771e-13  1.0077366141552799e-12  1.0478148277071308e-12 
 1.0894869739005573e-12  1.1328164443787849e-12  1.1778691519107071e-12  1.2247136306575083e-12 
 1.2734211404268914e-12  1.3240657750734961e-12  1.3767245752103953e-12  1.4314776454031129e-12 
 1.4884082760244288e-12  1.5476030699553338e-12  1.6091520743248579e-12  1.6731489174891824e-12 
 1.7396909514583967e-12  1.8088793999875797e-12  1.8808195125574933e-12  1.9556207244791397e-12 
 2.0333968233657742e-12  2.1142661222256470e-12  2.1983516394388382e-12  2.2857812858920371e-12 
 2.3766880595559969e-12  2.4712102478017696e-12  2.5694916377635632e-12  2.6716817350683592e-12 
 2.7779359912651394e-12  2.8884160402998295e-12  3.0032899443958322e-12  3.1227324497143631e-12 
 3.2469252521836545e-12  3.3760572739016032e-12  3.5103249505325346e-12  3.6499325301354586e-12 
 3.7950923838786310e-12  3.9460253291132845e-12  4.1029609652982109e-12  4.2661380232866572e-12 
 4.4358047285052332e-12  4.6122191785400744e-12  4.7956497357244983e-12  4.9863754353779180e-12 
 5.1846864102829279e-12  5.3908843320444149e-12  5.6052828700024556e-12  5.8282081683971984e-12 
 6.0599993425117165e-12  6.3010089945476837e-12  6.5516037500187596e-12  6.8121648154778355e-12 
 7.0830885584267133e-12  7.3647871102905858e-12  7.6576889933748161e-12  7.9622397727579807e-12 
 8.2789027341131507e-12  8.6081595884888307e-12  8.9505112051220799e-12  9.3064783733989693e-12 
 9.6766025951219827e-12  1.0061446908290119e-11  1.0461596743645453e-11  1.0877660815289850e-11 
 1.1310272046727521e-11  1.1760088533742970e-11  1.2227794545580247e-11  1.2714101565947662e-11 
 1.3219749375432952e-11  1.3745507176977184e-11  1.4292174766121207e-11  1.4860583747807047e-11 
 1.5451598801587661e-11  1.6066118997172491e-11  1.6705079162313227e-11  1.7369451305114300e-11 
 1.8060246092935823e-11  1.8778514390143475e-11  1.9525348857049826e-11  2.0301885612485315e-11 
 2.1109305962534540e-11  2.1948838198074596e-11  2.2821759463857319e-11  2.3729397701986035e-11 
 2.4673133672750299e-11  2.5654403055898225e-11  2.6674698635546066e-11  2.7735572572047424e-11 
 2.8838638764269882e-11  2.9985575305854215e-11  3.1178127039160417e-11  3.2418108210734752e-11 
 3.3707405232265150e-11  3.5047979551129764e-11  3.6441870634791597e-11  3.7891199073457534e-11 
 3.9398169805614241e-11  4.0965075471281762e-11  4.2594299898093958e-11  4.4288321725612704e-11 
 4.6049718173591235e-11  4.7881168960192854e-11  4.9785460376419763e-11  5.1765489523203776e-11 
 5.3824268717766618e-11  5.5964930076001338e-11  5.8190730277788914e-11  6.0505055522371059e-11 
 6.2911426681158291e-11  6.5413504655658254e-11  6.8015095948548436e-11  7.0720158456278968e-11 
 7.3532807491963539e-11  7.6457322047695847e-11  7.9498151305814536e-11  8.2659921409030397e-11 
 8.5947442499732076e-11  8.9365716039198195e-11  9.2919942417871347e-11  9.6615528868291284e-11 
 1.0045809769274382e-10  1.0445349481816035e-10  1.0860779869129799e-10  1.1292732952774934e-10 
 1.1741865892886547e-10  1.2208861988123821e-10  1.2694431715396662e-10  1.3199313810954026e-10 
 1.3724276394479906e-10  1.4270118137908621e-10  1.4837669480739029e-10  1.5427793893698028e-10 
 1.6041389192677613e-10  1.6679388904945973e-10  1.7342763689713026e-10  1.8032522815213490e-10 
 1.8749715694556684e-10  1.9495433482681840e-10  2.0270810736850828e-10  2.1077027143206926e-10 
 2.1915309312029086e-10  2.2786932644415850e-10  2.3693223273241697e-10  2.4635560081342187e-10 
 2.5615376800001685e-10  2.6634164190940081e-10  2.7693472315122011e-10  2.8794912891844685e-10 
 2.9940161751697921e-10  3.1130961387133090e-10  3.2369123604526814e-10  3.3656532281779577e-10 
 3.4995146235650776e-10  3.6387002203198850e-10  3.7834217941869386e-10  3.9338995452954809e-10 
 4.0903624333337772e-10  4.2530485260625872e-10  4.4222053616988827e-10  4.5980903257221123e-10 
 4.7809710426772953e-10  4.9711257835721214e-10  5.1688438894890448e-10  5.3744262120580997e-10 
 5.5881855714618908e-10  5.8104472326710144e-10  6.0415494006359531e-10  6.2818437351904586e-10 
 6.5316958864515381e-10  6.7914860515324489e-10  7.0616095534176661e-10  7.3424774428826269e-10 
 7.6345171243762987e-10  7.9381730068211673e-10  8.2539071803233862e-10  8.5822001198253345e-10 
 8.9235514167741120e-10  9.2784805399222588e-10  9.6475276264215084e-10  1.0031254304416741e-09 
 1.0430244548395481e-09  1.0845105568598305e-09  1.1276468735847719e-09  1.1724990543207175e-09 
 1.2191353605938253e-09  1.2676267701282711e-09  1.3180470849656953e-09  1.3704730438909962e-09 
 1.4249844393361554e-09  1.4816642389406479e-09  1.5405987119541212e-09  1.6018775606744334e-09 
 1.6655940571218703e-09  1.7318451851583748e-09  1.8007317882689649e-09  1.8723587232312156e-09 
 1.9468350199076751e-09  2.0242740474055093e-09  2.1047936868574129e-09  2.1885165110879941e-09 
 2.2755699714404047e-09  2.3660865920489702e-09  2.4602041718550241e-09  2.5580659946750128e-09 
 2.6598210476423516e-09  2.7656242483573156e-09  2.8756366810926923e-09  2.9900258424168103e-09 
 3.1089658966100404e-09  3.2326379412659412e-09  3.3612302834838928e-09  3.4949387270763320e-09 
 3.6339668712306995e-09  3.7785264210838336e-09  3.9288375106848751e-09  4.0851290388418684e-09 
 4.2476390183670898e-09  4.4166149392567879e-09  4.5923141463625352e-09  4.7750042321337229e-09 
 4.9649634450340270e-09  5.1624811142588481e-09  5.3678580914059449e-09  5.5814072097776442e-09 
 5.8034537620202882e-09  6.0343359968349547e-09  6.2744056355229892e-09  6.5240284091605548e-09 
 6.7835846172284397e-09  7.0534697085565427e-09  7.3340948854770247e-09  7.6258877321162490e-09 
 7.9292928677929024e-09  8.2447726265288129e-09  8.5728077637194927e-09  8.9138981910536416e-09 
 9.2685637408147971e-09  9.6373449607440145e-09  1.0020803940690069e-08  1.0419525172323141e-08 
 1.0834116443239598e-08  1.1265209766838949e-08  1.1713462349410076e-08  1.2179557595921800e-08 
 1.2664206156073458e-08  1.3168147012224032e-08  1.3692148610883969e-08  1.4237010039522065e-08 
 1.4803562250510739e-08  1.5392669334107135e-08  1.6005229842444193e-08  1.6642178166586286e-08 
 1.7304485968787183e-08  1.7993163672175181e-08  1.8709262010180565e-08  1.9453873638114765e-08 
 2.0228134809408730e-08  2.1033227119120020e-08  2.1870379317424632e-08  2.2740869195920133e-08 
 2.3646025549682154e-08  2.4587230218136359e-08  2.5565920207933095e-08  2.6583589901142302e-08 
 2.7641793352221817e-08  2.8742146677353882e-08  2.9886330539891495e-08  3.1076092735810284e-08 
 3.2313250883220656e-08  3.3599695220162149e-08  3.4937391515075063e-08  3.6328384094525346e-08 
 3.7774798992946946e-08  3.9278847229362207e-08  4.0842828216245608e-08  4.2469133305908755e-08 
 4.4160249480007724e-08  4.5918763188004088e-08  4.7747364340653445e-08  4.9648850464846449e-08 
 5.1626131026389544e-08  5.3682231927586106e-08  5.5820300186764124e-08  5.8043608807193164e-08 
 6.0355561843143885e-08  6.2759699671166588e-08  6.5259704475001824e-08  6.7859405952888295e-08 
 7.0562787256399761e-08  7.3373991170324879e-08  7.6297326543503551e-08  7.9337274980948849e-08 
 8.2498497808018760e-08  8.5785843317854299e-08  8.9204354313774497e-08  9.2759275958811182e-08 
 9.6456063945082362e-08  1.0030039299624035e-07  1.0429816571679202e-07  1.0845552180267460e-07 
 1.1277884762808175e-07  1.1727478622417436e-07  1.2195024766597545e-07  1.2681241988444843e-07 
 1.3186877992148168e-07  1.3712710564626577e-07  1.4259548795234078e-07  1.4828234345542347e-07 
 1.5419642771298757e-07  1.6034684898747930e-07  1.6674308257599429e-07  1.7339498573023335e-07 
 1.8031281319158722e-07  1.8750723336728332e-07  1.9498934517465653e-07  2.0277069558178960e-07 
 2.1086329787400456e-07  2.1927965067698056e-07  2.2803275776862539e-07  2.3713614871324501e-07 
 2.4660390035303487e-07  2.5645065919346958e-07  2.6669166472078598e-07  2.7734277369145726e-07 
 2.8842048543533089e-07  2.9994196821596610e-07  3.1192508669365654e-07  3.2438843053866444e-07 
 3.3735134424433490e-07  3.5083395819199551e-07  3.6485722102190065e-07  3.7944293336693490e-07 
 3.9461378300837501e-07  4.1039338151571034e-07  4.2680630243536030e-07  4.4387812109609847e-07 
 4.6163545610211260e-07  4.8010601258790192e-07  4.9931862731264330e-07  5.1930331567526346e-07 
 5.4009132073522861e-07  5.6171516432803660e-07  5.8420870036855903e-07  6.0760717043975481e-07 
 6.3194726176887442e-07  6.5726716769809253e-07  6.8360665076158616e-07  7.1100710848639279e-07 
 7.3951164203999230e-07  7.6916512785343175e-07  8.0001429235500658e-07  8.3210778995602081e-07 
 8.6549628443698301e-07  9.0023253388980497e-07  9.3637147937914045e-07  9.7397033749396927e-07 
 1.0130886969689298e-06  1.0537886195637323e-06  1.0961347453982856e-06  1.1401944029509676e-06 
 1.1860377239377880e-06  1.2337377633010633e-06  1.2833706245476799e-06  1.3350155906890928e-06 
 1.3887552610479497e-06  1.4446756942096299e-06  1.5028665574111661e-06  1.5634212826749339e-06 
 1.6264372300102573e-06  1.6920158580226835e-06  1.7602629022882705e-06  1.8312885618686923e-06 
 1.9052076943625824e-06  1.9821400199091616e-06  2.0622103345820335e-06  2.1455487336340695e-06 
 2.2322908450786872e-06  2.3225780741185608e-06  2.4165578589600421e-06  2.5143839385803510e-06 
 2.6162166330450267e-06  2.7222231370053714e-06  2.8325778270396597e-06  2.9474625835379714e-06 
 3.0670671278686612e-06  3.1915893756049032e-06  3.3212358066325271e-06  3.4562218530056709e-06 
 3.5967723054648405e-06  3.7431217395827298e-06  3.8955149625571546e-06  4.0542074817275382e-06 
 4.2194659959519638e-06  4.3915689110460396e-06  4.5708068805529278e-06  4.7574833731861528e-06 
 4.9519152683634482e-06  5.1544334813312559e-06  5.3653836194658066e-06  5.5851266714283759e-06 
 5.8140397309496464e-06  6.0525167571213135e-06  6.3009693731830253e-06  6.5598277059091343e-06 
 6.8295412678237703e-06  7.1105798846042509e-06  7.4034346701729522e-06  7.7086190521262480e-06 
 8.0266698503075232e-06  8.3581484114992362e-06  8.7036418033880293e-06  9.0637640711470078e-06 
 9.4391575601818499e-06  9.8304943088026868e-06  1.0238477514813060e-05  1.0663843080251110e-05 
 1.1107361238778025e-05  1.1569838270485204e-05  1.2052118309186184e-05  1.2555085247572921e-05 
 1.3079664745950125e-05  1.3626826350617189e-05  1.4197585728346401e-05  1.4793007023810018e-05 
 1.5414205347239625e-05  1.6062349400059510e-05  1.6738664246725398e-05  1.7444434241520923e-05 
 1.8181006119620226e-05  1.8949792262317573e-05  1.9752274146957116e-05  2.0590005992769460e-05 
 2.1464618614540882e-05  2.2377823496807325e-05  2.3331417102083101e-05  2.4327285427506553e-05 
 2.5367408825215383e-05  2.6453867102756868e-05  2.7588844920897628e-05  2.8774637507327157e-05 
 3.0013656705955175e-05  3.1308437382788983e-05  3.2661644210749874e-05  3.4076078857251333e-05 
 3.5554687599925056e-05  3.7100569397547498e-05  3.8716984444998522e-05  4.0407363242981526e-05 
 4.2175316215259091e-05  4.4024643908318115e-05  4.5959347810682529e-05  4.7983641831549427e-05 
 5.0101964481045864e-05  5.2318991797198903e-05  5.4639651067693014e-05  5.7069135397666872e-05 
 5.9612919178190713e-05  6.2276774513676567e-05  6.5066788670323564e-05  6.7989382611801158e-05 
 7.1051330692743921e-05  7.4259781585283292e-05  7.7622280518799036e-05  8.1146792918347529e-05 
 8.4841729532839110e-05  8.8715973150009598e-05  9.2778907001585842e-05  9.7040444968799538e-05 
 1.0151106370558501e-04  1.0620183680442506e-04  1.1112447113791099e-04  1.1629134551768421e-04 
 1.2171555182155252e-04  1.2741093874925319e-04  1.3339215837759354e-04  1.3967471569656823e-04 
 1.4627502131955912e-04  1.5321044757289851e-04  1.6049938818295134e-04  1.6816132179247207e-04 
 1.7621687955235647e-04  1.8468791705005945e-04  1.9359759085192072e-04  2.0297043995346286e-04 
 2.1283247244942231e-04  2.2321125775387734e-04  2.3413602472037201e-04  2.4563776603241864e-04 
 2.5774934925622652e-04  2.7050563496995572e-04  2.8394360240726127e-04  2.9810248307736892e-04 
 3.1302390284943172e-04  3.2875203301544289e-04  3.4533375087352923e-04  3.6281881040200011e-04 
 3.8126002362407434e-04  4.0071345329369281e-04  4.2123861756425114e-04  4.4289870733437179e-04 
 4.6576081699793123e-04  4.8989618935940487e-04  5.1538047551008429e-04  5.4229401049578016e-04 
 5.7072210564212684e-04  6.0075535843942453e-04  6.3248998092495549e-04  6.6602814753672160e-04 
 7.0147836344840891e-04  7.3895585443088652e-04  7.7858297932049058e-04  8.2048966620850425e-04 
 8.6481387349937892e-04  9.1170207701709444e-04  9.6130978436939206e-04  1.0138020778080856e-03 
 1.0693541868500923e-03  1.1281520919478370e-03  1.1903931605190625e-03  1.2562868166645235e-03 
 1.3260552459172981e-03  1.3999341363793018e-03  1.4781734576087980e-03  1.5610382786271691e-03 
 1.6488096264137579e-03  1.7417853862542738e-03  1.8402812453010321e-03  1.9446316806923992e-03 
 2.0551909935644392e-03  2.1723343902703492e-03  2.2964591121033178e-03  2.4279856147966816e-03 
 2.5673587990525113e-03  2.7150492933269614e-03  2.8715547900791112e-03  3.0374014366705972e-03 
 3.2131452820873757e-03  3.3993737806433072e-03  3.5967073538185875e-03  3.8058010113841399e-03 
 4.0273460329647709e-03  4.2620717111960943e-03  4.5107471576274665e-03  4.7741831725063482e-03 
 5.0532341795346530e-03  5.3488002265941383e-03  5.6618290532668277e-03  5.9933182256877229e-03 
 6.3443173388075345e-03  6.7159302854432369e-03  7.1093175904661356e-03  7.5256988070117855e-03 
 7.9663549695642519e-03  8.4326310960177384e-03  8.9259387271857869e-03  9.4477584875366297e-03 
 9.9996426450135144e-03  1.0583217640504527e-02  1.1200186548762068e-02  1.1852331422323998e-02 
 1.2541515458363300e-02  1.3269684915659720e-02  1.4038870695516528e-02  1.4851189487151762e-02 
 1.5708844365859606e-02  1.6614124722336514e-02  1.7569405395561077e-02  1.8577144881335852e-02 
 1.9639882496090888e-02  2.0760234392965468e-02  2.1940888356611538e-02  2.3184597346293752e-02 
 2.4494171814527135e-02  2.5872470899962429e-02  2.7322392675343220e-02  2.8846863717642873e-02 
 3.0448828347579025e-02  3.2131237945621012e-02  3.3897040775488947e-02  3.5749172719753156e-02 
 3.7690549247775949e-02  3.9724058797520487e-02  4.1852557576890694e-02  4.4078865605459129e-02 
 4.6405763655011451e-02  4.8835990631160869e-02  5.1372240876512217e-02  5.4017160859514350e-02 
 5.6773344722960889e-02  5.9643328184091418e-02  6.2629580298155144e-02  6.5734492628528457e-02 
 6.8960365429722781e-02  7.2309390566325474e-02  7.5783631071424898e-02  7.9384997483708974e-02 
 8.3115221365084924e-02  8.6975826650109750e-02  9.0968099674329825e-02  9.5093058841793296e-02 
 9.9351424911745187e-02  1.0374359281852517e-01  1.0826960580795873e-01  1.1292913250484775e-01 
 1.1772144740521065e-01  1.2264541558547633e-01  1.2769948053318378e-01  1.3288165130847679e-01 
 1.3818950311880010e-01  1.4362017424890480e-01  1.4917036760906977e-01  1.5483635548770078e-01 
 1.6061398703545415e-01  1.6649869823834970e-01  1.7248552414882040e-01  1.7856911315912236e-01 
 1.8474374311859967e-01  1.9100333911317149e-01  1.9734149274093349e-01  2.0375148273130117e-01 
 2.1022629676647928e-01  2.1675865437330580e-01  2.2334103076097928e-01  2.2996568148616353e-01 
 2.3662466783185324e-01  2.4330988279043159e-01  2.5001307754477070e-01  2.5672588834410354e-01 
 2.6343986367371852e-01  2.7014649161921928e-01  2.7683722732700444e-01  2.8350352046258898e-01 
 2.9013684256725225e-01  2.9672871421111863e-01  3.0327073183708497e-01  3.0975459418499574e-01 
 3.1617212817925350e-01  3.2251531415589929e-01  3.2877631029645338e-01  3.3494747612811299e-01 
 3.4102139494283318e-01  3.4699089497813884e-01  3.5284906919697023e-01  3.5858929350124269e-01 
 3.6420524321184589e-01  3.6969090765057494e-01  3.7504060266647982e-01  3.8024898096104204e-01 
 3.8531104008395217e-01  3.9022212799436595e-01  3.9497794611142489e-01  3.9957454981233809e-01 
 4.0400834637592875e-01  4.0827609041302249e-01  4.1237487687212332e-01  4.1630213175753256e-01 
 4.2005560074426401e-01  4.2363333592029162e-01  4.2703368092893207e-01  4.3025525481951449e-01 
 4.3329693494235916e-01  4.3615783924244295e-01  4.3883730831381101e-01  4.4133488757301476e-01 
 4.4365030989427201e-01  4.4578347902174026e-01  4.4773445403577672e-01  4.4950343510115659e-01 
 4.5109075066704574e-01  4.5249684622238251e-01  4.5372227463766696e-01  4.5476768804660644e-01 
 4.5563383114045497e-01  4.5632153566642009e-01  4.5683171584197713e-01  4.5716536432295662e-01 
 4.5732354829962713e-01  4.5730740524767899e-01  4.5711813783742455e-01  4.5675700751290954e-01 
 4.5622532630149731e-01  4.5552444651126428e-01  4.5465574812279008e-01  4.5362062388335822e-01 
 4.5242046235800454e-01  4.5105662946781627e-01  4.4953044932750463e-01  4.4784318545080776e-01 
 4.4599602358973317e-01  4.4399005758007348e-01  4.4182627955736425e-01  4.3950557577462340e-01 
 4.3702872900323370e-01  4.3439642815576096e-01  4.3160928537208937e-01  4.2866786040169996e-01 
 4.2557269173640622e-01  4.2232433363016780e-01  4.1892339790154898e-01  4.1537059925005088e-01 
 4.1166680271760975e-01  4.0781307187247978e-01  4.0381071626663040e-01  3.9966133670858012e-01 
 3.9536686690032774e-01  3.9092961001927745e-01  3.8635226890085755e-01  3.8163796861412724e-01 
 3.7679027043607111e-01  3.7181317652543788e-01  3.6671112496510416e-01  3.6148897526004192e-01 
 3.5615198481182586e-01  3.5070577730050900e-01  3.4515630425249499e-01  3.3950980138931347e-01 
 3.3377274113149674e-01  3.2795178357946481e-01  3.2205372700244272e-01  3.1608545962333467e-01 
 3.1005391390706233e-01  3.0396602437051257e-01  2.9782868967100679e-01  2.9164873947725700e-01 
 2.8543290639520014e-01  2.7918780301912061e-01  2.7291990400963706e-01  2.6663553296452902e-01 
 2.6034085374372967e-01  2.5404186583249222e-01  2.4774440327261438e-01  2.4145413665657034e-01 
 2.3517657765982869e-01  2.2891708557950202e-01  2.2268087535048078e-01  2.1647302652174985e-01 
 2.1029849269463832e-01  2.0416211095075903e-01  1.9806861083009908e-01  1.9202262245901081e-01 
 1.8602868347359680e-01  1.8009124443589333e-01  1.7421467249777822e-01  1.6840325312976490e-01 
 1.6266118979752645e-01  1.5699260153651007e-01  1.5140151844244926e-01  1.4589187516089649e-01 
 1.4046750251996334e-01  1.3513211750524828e-01  1.2988931182270944e-01  1.2474253933257057e-01 
 1.1969510266430682e-01  1.1475013933888158e-01  1.0991060772976678e-01  1.0517927318940407e-01 
 1.0055869465360399e-01  9.6051212014183748e-02  9.1658934521393565e-02  8.7383730443955365e-02 
 8.3227218177436224e-02  7.9190758952732226e-02  7.5275451257043449e-02  7.1482127041094704e-02 
 6.7811349749515096e-02  6.4263414177029257e-02  6.0838348122025827e-02  5.7535915781540735e-02 
 5.4355622807949117e-02  5.1296722927758907e-02  4.8358226006791800e-02  4.5538907433567019e-02 
 4.2837318683647825e-02  4.0251798921793397e-02  3.7780487495675731e-02  3.5421337174349067e-02 
 3.3172127986275786e-02  3.1030481515198400e-02  2.8993875517199692e-02  2.7059658728627076e-02 
 2.5225065741910274e-02  2.3487231834435136e-02  2.1843207644336650e-02  2.0289973596151797e-02 
 1.8824453988560742e-02  1.7443530665801611e-02  1.6144056203644529e-02  1.4922866549952963e-02 
 1.3776793068757613e-02  1.2702673945350062e-02  1.1697364918113613e-02  1.0757749310602482e-02 
 9.8807473447254206e-03  9.0633247227609893e-03  8.3025004723141956e-03  7.5953540542088556e-03 
 6.9390317386943566e-03  6.3307522602319057e-03  5.7678117655204459e-03  5.2475880733365322e-03 
 4.7675442682087428e-03  4.3252316529413708e-03  3.9182920875616093e-03  3.5444597444086730e-03 
 3.2015623108321996e-03  2.8875216723425381e-03  2.6003541100787677e-03  2.3381700471540460e-03 
 2.0991733788246723e-03  1.8816604215318733e-03  1.6840185157063808e-03  1.5047243168279014e-03 
 1.3423418086168253e-03  1.1955200714258330e-03  1.0629908379158519e-03  9.4356586696499702e-04 
 8.3613416549096814e-04  7.3965908648655266e-04  6.5317533009324840e-04  5.7578587298783349e-04 
 5.0665884974818122e-04  4.4502440821436170e-04  3.9017155918454820e-04  3.4144503909717651e-04 
 2.9824220266482264e-04  2.6000996075407461e-04  2.2624177716092428e-04  1.9647473632354362e-04 
 1.7028669245332489e-04  1.4729350905929667e-04  1.2714639639798157e-04  1.0952935300688882e-04 
 9.4156716180568745e-05  8.0770825027917756e-05  6.9139798611649565e-05  5.9055430618032615e-05 
 5.0331201038704370e-05  4.2800404467322133e-05  3.6314393821869597e-05  3.0740937597733177e-05 
 2.5962688135587612e-05  2.1875757849445226e-05  1.8388399901097501e-05  1.5419789424266000e-05 
 1.2898901091289175e-05  1.0763478572932048e-05  8.9590912634408405e-06  7.4382735235584346e-06 
 6.1597416289860839e-06  5.0876835957328676e-06  4.1911170819084412e-06  3.4433106327745212e-06 
 2.8212636373374890e-06  2.3052404956207964e-06  1.8783553201466218e-06  1.5262069094951272e-06 
 1.2365368008852833e-06  9.9894612037816854e-07  8.0464011680883868e-07  6.4620288267895009e-07 
 5.1740005414553540e-07  4.1300658129900994e-07  3.2865688022113848e-07  2.6071489334015893e-07 
 2.0616179274800606e-07  1.6249926108328941e-07  1.2766647524782003e-07  9.9969098797991683e-08 
 7.8018758750719532e-08  6.0681641394464046e-08  4.7034989317711309e-08  3.6330418248186188e-08 
 2.7963097571653975e-08  2.1445952830944106e-08  1.6388152460188047e-08  1.2477234937328430e-08 
 9.4643169566842254e-09  7.1518986980672851e-09  5.3838493974195799e-09  4.0372158222209971e-09 
 3.0155485448412620e-09  2.2434867054891745e-09  1.6623818664314569e-09  1.2267761624060515e-09 
 9.0157980323873950e-10  6.5981860671632759e-10  4.8084412136777128e-10  3.4891749211240908e-10 
 2.5209394159103732e-10  1.8134796392517548e-10  1.2989039661276239e-10  9.2637756040434449e-11 
 6.5801865174112852e-11  4.6574109975021868e-11  3.2883847463601095e-11  0.0000000000000000e+00 
 0.0000000000000000e+00  0.0000000000000000e+00  0.0000000000000000e+00  0.0000000000000000e+00 
 0.0000000000000000e+00  0.0000000000000000e+00  0.0000000000000000e+00  0.0000000000000000e+00 
 0.0000000000000000e+00  0.0000000000000000e+00  0.0000000000000000e+00  0.0000000000000000e+00 
 0.0000000000000000e+00  0.0000000000000000e+00  0.0000000000000000e+00  0.0000000000000000e+00 
 0.0000000000000000e+00  0.0000000000000000e+00  0.0000000000000000e+00  0.0000000000000000e+00 
 0.0000000000000000e+00  0.0000000000000000e+00  0.0000000000000000e+00  0.0000000000000000e+00 
 0.0000000000000000e+00  0.0000000000000000e+00  0.0000000000000000e+00  0.0000000000000000e+00 
 0.0000000000000000e+00  0.0000000000000000e+00  0.0000000000000000e+00  0.0000000000000000e+00 
 0.0000000000000000e+00  0.0000000000000000e+00  0.0000000000000000e+00  0.0000000000000000e+00 
 0.0000000000000000e+00  0.0000000000000000e+00  0.0000000000000000e+00  0.0000000000000000e+00 
 0.0000000000000000e+00  0.0000000000000000e+00 
</PP_PSWFC>


<PP_RHOATOM>
 8.0179586190251343e-14  8.2291592593376931e-14  8.4459231251260788e-14  8.6683967570414669e-14 
 8.8967305557556081e-14  9.1310788836374781e-14  9.3716001691081770e-14  9.6184570137446591e-14 
 9.8718163022046558e-14  1.0131849315047160e-13  1.0398731844524661e-13  1.0672644313425513e-13 
 1.0953771897046722e-13  1.1242304648379549e-13  1.1538437626592731e-13  1.1842371028899970e-13 
 1.2154310325901026e-13  1.2474466400487763e-13  1.2803055690409158e-13  1.3140300334591583e-13 
 1.3486428323313350e-13  1.3841673652334970e-13  1.4206276481089300e-13  1.4580483295038737e-13 
 1.4964547072308835e-13  1.5358727454711419e-13  1.5763290923272531e-13  1.6178510978383903e-13 
 1.6604668324699907e-13  1.7042051060904809e-13  1.7490954874478672e-13  1.7951683241593623e-13 
 1.8424547632275582e-13  1.8909867720970094e-13  1.9407971602654798e-13  1.9919196014644372e-13 
 2.0443886564238158e-13  2.0982397962364166e-13  2.1535094263377588e-13  2.2102349111175719e-13 
 2.2684545991795925e-13  2.3282078492667207e-13  2.3895350568690756e-13  2.4524776815329305e-13 
 2.5170782748889983e-13  2.5833805094190050e-13  2.6514292079800028e-13  2.7212703741063933e-13 
 2.7929512231101228e-13  2.8665202140001042e-13  2.9420270822424126e-13  3.0195228733834309e-13 
 3.0990599775586587e-13  3.1806921649105182e-13  3.2644746219391004e-13  3.3504639888104275e-13 
 3.4387183976474673e-13  3.5292975118297425e-13  3.6222625663281617e-13  3.7176764091023023e-13 
 3.8156035435881329e-13  3.9161101723049165e-13  4.0192642416107608e-13  4.1251354876370785e-13 
 4.2337954834330107e-13  4.3453176873516833e-13  4.4597774927109959e-13  4.5772522787625611e-13 
 4.6978214630031846e-13  4.8215665548643023e-13  4.9485712108156620e-13  5.0789212909204773e-13 
 5.2127049168803093e-13  5.3500125316089366e-13  5.4909369603754289e-13  5.6355734735578213e-13 
 5.7840198510497909e-13  5.9363764483638424e-13  6.0927462644757762e-13  6.2532350114561981e-13 
 6.4179511859362617e-13  6.5870061424558420e-13  6.7605141687438032e-13  6.9385925629812593e-13 
 7.1213617130999762e-13  7.3089451781696502e-13  7.5014697719289747e-13  7.6990656485170238e-13 
 7.9018663904628911e-13  8.1100090989931194e-13  8.3236344867178358e-13  8.5428869727584720e-13 
 8.7679147803811694e-13  8.9988700372019684e-13  9.2359088780315908e-13  9.4791915504291809e-13 
 9.7288825230365308e-13  9.9851505967659250e-13  1.0248169018916798e-12  1.0518115600298400e-12 
 1.0795172835437592e-12  1.1079528025953033e-12  1.1371373407179273e-12  1.1670906278126205e-12 
 1.1978329134861831e-12  1.2293849807408540e-12  1.2617681600245331e-12  1.2950043436511108e-12 
 1.3291160006006468e-12  1.3641261917094012e-12  1.4000585852599904e-12  1.4369374729822123e-12 
 1.4747877864753538e-12  1.5136351140630791e-12  1.5535057180923016e-12  1.5944265526877327e-12 
 1.6364252819741064e-12  1.6795302987784016e-12  1.7237707438247137e-12  1.7691765254347341e-12 
 1.8157783397471785e-12  1.8636076914698193e-12  1.9126969151781539e-12  1.9630791971751149e-12 
 2.0147885979265936e-12  2.0678600750879510e-12  2.1223295071370727e-12  2.1782337176299692e-12 
 2.2356105000952880e-12  2.2944986435846004e-12  2.3549379588957092e-12  2.4169693054867237e-12 
 2.4806346190991019e-12  2.5459769401083100e-12  2.6130404426212963e-12  2.6818704643404446e-12 
 2.7525135372141723e-12  2.8250174188949339e-12  2.8994311250258790e-12  2.9758049623779880e-12 
 3.0541905628600961e-12  3.1346409184248154e-12  3.2172104168939136e-12  3.3019548787274270e-12 
 3.3889315947613080e-12  3.4781993649391827e-12  3.5698185380643361e-12  3.6638510525988748e-12 
 3.7603604785375985e-12  3.8594120603848988e-12  3.9610727612637796e-12  4.0654113081867779e-12 
 4.1724982385194008e-12  4.2824059476675363e-12  4.3952087380210142e-12  4.5109828691864610e-12 
 4.6298066095433735e-12  4.7517602891583236e-12  4.8769263540930034e-12  5.0053894221428834e-12 
 5.1372363400441434e-12  5.2725562421875479e-12  5.4114406108790311e-12  5.5539833381876194e-12 
 5.7002807894226154e-12  5.8504318682829227e-12  6.0045380837225423e-12  6.1627036185774931e-12 
 6.3250354000005227e-12  6.4916431717512645e-12  6.6626395683906756e-12  6.8381401914300073e-12 
 7.0182636874856812e-12  7.2031318284930327e-12  7.3928695940330506e-12  7.5876052558279110e-12 
 7.7874704644623030e-12  7.9926003383892728e-12  8.2031335552807413e-12  8.4192124457844948e-12 
 8.6409830897509826e-12  8.8685954149950956e-12  9.1022032986595651e-12  9.3419646712486707e-12 
 9.5880416234025161e-12  9.8406005154841015e-12  1.0099812090053328e-11  1.0365851587303897e-11 
 1.0638898863541308e-11  1.0919138512781939e-11  1.1206759991555560e-11  1.1501957746995560e-11 
 1.1804931348303612e-11  1.2115885621677608e-11  1.2435030788794175e-11  1.2762582608939345e-11 
 1.3098762524883603e-11  1.3443797812599824e-11  1.3797921734925552e-11  1.4161373699273298e-11 
 1.4534399419495786e-11  1.4917251082015321e-11  1.5310187516329985e-11  1.5713474370011635e-11 
 1.6127384288314257e-11  1.6552197098514179e-11  1.6988199999106650e-11  1.7435687753986953e-11 
 1.7894962891747275e-11  1.8366335910224093e-11  1.8850125486434509e-11  1.9346658692043621e-11 
 1.9856271214508418e-11  2.0379307584048002e-11  2.0916121406593664e-11  2.1467075602876178e-11 
 2.2032542653812294e-11  2.2612904852356355e-11  2.3208554561987205e-11  2.3819894482005612e-11 
 2.4447337919821320e-11  2.5091309070414183e-11  2.5752243303158296e-11  2.6430587456203303e-11 
 2.7126800138611762e-11  2.7841352040457403e-11  2.8574726251093689e-11  2.9327418585808185e-11 
 3.0099937921083759e-11  3.0892806538693342e-11  3.1706560478861200e-11  3.2541749902729525e-11 
 3.3398939464375691e-11  3.4278708692631777e-11  3.5181652382965016e-11  3.6108380999683760e-11 
 3.7059521088741804e-11  3.8035715701419588e-11  3.9037624829169930e-11  4.0065925849921491e-11 
 4.1121313986142655e-11  4.2204502774975643e-11  4.3316224550758433e-11  4.4457230940261913e-11 
 4.5628293370976305e-11  4.6830203592791279e-11  4.8063774213422712e-11  4.9329839247947961e-11 
 5.0629254682821439e-11  5.1962899054752223e-11  5.3331674044834697e-11  5.4736505088334329e-11 
 5.6178342000540782e-11  5.7658159619111357e-11  5.9176958463339105e-11  6.0735765410790823e-11 
 6.2335634391772889e-11  6.3977647102093488e-11  6.5662913734603170e-11  6.7392573730008195e-11 
 6.9167796547463245e-11  7.0989782455465170e-11  7.2859763343581545e-11  7.4779003555562700e-11 
 7.6748800744401106e-11  7.8770486749915790e-11  8.0845428499456314e-11  8.2975028932335890e-11 
 8.5160727948620012e-11  8.7404003382914760e-11  8.9706372003815454e-11  9.2069390539694800e-11 
 9.4494656731528704e-11  9.6983810413476349e-11  9.9538534621951913e-11  1.0216055673394399e-10 
 1.0485164963536034e-10  1.0761363292019730e-10  1.1044837412135309e-10  1.1335778997392843e-10 
 1.1634384771187872e-10  1.1940856639890691e-10  1.2255401829450792e-10  1.2578233025610250e-10 
 1.2909568517821979e-10  1.3249632346971716e-10  1.3598654457004871e-10  1.3956870850562192e-10 
 1.4324523748731085e-10  1.4701861755021671e-10  1.5089140023680089e-10  1.5486620432455712e-10 
 1.5894571759927344e-10  1.6313269867237865e-10  1.6742997884511250e-10  1.7184046402455329e-10 
 1.7636713669033145e-10  1.8101305791322180e-10  1.8578136942700538e-10  1.9067529575501356e-10 
 1.9569814639280091e-10  2.0085331804843484e-10  2.0614429694192723e-10  2.1157466116537739e-10 
 2.1714808310543578e-10  2.2286833192974106e-10  2.2873927613903097e-10  2.3476488618666831e-10 
 2.4094923716737604e-10  2.4729651157701868e-10  2.5381100214532578e-10  2.6049711474349155e-10 
 2.6735937136865597e-10  2.7440241320731030e-10  2.8163100377973780e-10  2.8905003216765603e-10 
 2.9666451632728692e-10  3.0447960649014474e-10  3.1250058865389647e-10  3.2073288816571726e-10 
 3.2918207340062812e-10  3.3785385953738870e-10  3.4675411243457470e-10  3.5588885260956266e-10 
 3.6526425932321818e-10  3.7488667477317132e-10  3.8476260839864840e-10  3.9489874129992206e-10 
 4.0530193077553663e-10  4.1597921498055874e-10  4.2693781770921571e-10  4.3818515330536701e-10 
 4.4972883170437754e-10  4.6157666361004768e-10  4.7373666581035771e-10  4.8621706663586480e-10 
 4.9902631156466050e-10  5.1217306897782968e-10  5.2566623606934734e-10  5.3951494491427890e-10 
 5.5372856869899580e-10  5.6831672811685031e-10  5.8328929793238383e-10  5.9865641371660905e-10 
 6.1442847875533354e-10  6.3061617113189703e-10  6.4723045098530248e-10  6.6428256794477524e-10 
 6.8178406874260278e-10  6.9974680500885251e-10  7.1818294125435567e-10  7.3710496305168056e-10 
 7.5652568542707892e-10  7.7645826147854815e-10  7.9691619123552852e-10  8.1791333077410112e-10 
 8.3946390159842140e-10  8.6158250029546706e-10  8.8428410846703836e-10  9.0758410294107618e-10 
 9.3149826626382689e-10  9.5604279747502291e-10  9.8123432316950045e-10  1.0070899088501543e-09 
 1.0336270705785097e-09  1.0608637869302903e-09  1.0888185112642130e-09  1.1175101843128086e-09 
 1.1469582471045039e-09  1.1771826542264643e-09  1.2082038874379739e-09  1.2400429696442819e-09 
 1.2727214792410979e-09  1.3062615648400777e-09  1.3406859603858825e-09  1.3760180006756233e-09 
 1.4122816372917425e-09  1.4495014549596729e-09  1.4877026883418541e-09  1.5269112392800433e-09 
 1.5671536944981042e-09  1.6084573437778333e-09  1.6508501986206898e-09  1.6943610114086459e-09 
 1.7390192950777737e-09  1.7848553433184934e-09  1.8319002513168632e-09  1.8801859370516380e-09 
 1.9297451631622782e-09  1.9806115594034698e-09  2.0328196457022097e-09  2.0864048558339064e-09 
 2.1414035617344449e-09  2.1978530984656598e-09  2.2557917898520844e-09  2.3152589748074595e-09 
 2.3762950343698849e-09  2.4389414194651781e-09  2.5032406794184220e-09  2.5692364912343636e-09 
 2.6369736896678605e-09  2.7064982981062014e-09  2.7778575602857752e-09  2.8510999728661464e-09 
 2.9262753188853404e-09  3.0034347021207948e-09  3.0826305823811261e-09  3.1639168117546275e-09 
 3.2473486718411705e-09  3.3329829119949038e-09  3.4208777886060213e-09  3.5110931054506867e-09 
 3.6036902551389858e-09  3.6987322616917720e-09  3.7962838242780753e-09  3.8964113621457868e-09 
 3.9991830607791895e-09  4.1046689193180369e-09  4.2129407992738028e-09  4.3240724745798211e-09 
 4.4381396830132543e-09  4.5552201790277272e-09  4.6753937880369371e-09  4.7987424621904778e-09 
 4.9253503376846425e-09  5.0553037936520320e-09  5.1886915126753065e-09  5.3256045429717388e-09 
 5.4661363622966540e-09  5.6103829436153766e-09  5.7584428225947824e-09  5.9104171669671770e-09 
 6.0664098478208774e-09  6.2265275128735203e-09  6.3908796617859701e-09  6.5595787235764286e-09 
 6.7327401361962801e-09  6.9104824283311769e-09  7.0929273034928787e-09  7.2801997264694095e-09 
 7.4724280122033507e-09  7.6697439171702409e-09  7.8722827333315042e-09  8.0801833847385995e-09 
 8.2935885268677453e-09  8.5126446487669797e-09  8.7375021781002150e-09  8.9683155891755965e-09 
 9.2052435140483874e-09  9.4484488567916372e-09  9.6980989110310394e-09  9.9543654808434649e-09 
 1.0217425005122299e-08  1.0487458685515805e-08  1.0764652618048764e-08  1.1049197928541007e-08 
 1.1341290911940781e-08  1.1641133175694493e-08  1.1948931787278928e-08  1.2264899426026282e-08 
 1.2589254539376892e-08  1.2922221503699290e-08  1.3264030789822129e-08  1.3614919133427731e-08 
 1.3975129710462013e-08  1.4344912317721626e-08  1.4724523558784267e-08  1.5114227035454660e-08 
 1.5514293544904530e-08  1.5925001282691723e-08  1.6346636051850123e-08  1.6779491478249190e-08 
 1.7223869232429276e-08  1.7680079258126394e-08  1.8148440007708433e-08  1.8629278684752509e-08 
 1.9122931494002433e-08  1.9629743898953842e-08  2.0150070887324224e-08  2.0684277244674676e-08 
 2.1232737836460578e-08  2.1795837898799263e-08  2.2373973338253109e-08  2.2967551040939435e-08 
 2.3576989191289371e-08  2.4202717600791461e-08  2.4845178047068584e-08  2.5504824623650774e-08 
 2.6182124100820888e-08  2.6877556297925285e-08  2.7591614467557319e-08  2.8324805692037811e-08 
 2.9077651292634692e-08  2.9850687251980718e-08  3.0644464650168351e-08  3.1459550115019584e-08 
 3.2296526287049992e-08  3.3155992299667075e-08  3.4038564275166287e-08  3.4944875837111196e-08 
 3.5875578639709293e-08  3.6831342914821269e-08  3.7812858037267547e-08  3.8820833109125819e-08 
 3.9855997563742082e-08  4.0919101790209073e-08  4.2010917779099173e-08  4.3132239790272600e-08 
 4.4283885043618194e-08  4.5466694433620737e-08  4.6681533268690445e-08  4.7929292036228690e-08 
 4.9210887194450426e-08  5.0527261992027518e-08  5.1879387316665641e-08  5.3268262573778175e-08 
 5.4694916596472403e-08  5.6160408588119029e-08  5.7665829098834666e-08  5.9212301037267280e-08 
 6.0800980719139042e-08  6.2433058954068424e-08  6.4109762172264141e-08  6.5832353592758209e-08 
 6.7602134434922667e-08  6.9420445175097786e-08  7.1288666850245747e-08  7.3208222410633103e-08 
 7.5180578123644597e-08  7.7207245030925967e-08  7.9289780461164494e-08  8.1429789600923525e-08 
 8.3628927126066071e-08  8.5888898896425301e-08  8.8211463716508883e-08  9.0598435165161755e-08 
 9.3051683497254258e-08  9.5573137620615547e-08  9.8164787151589821e-08  1.0082868455276233e-07 
 1.0356694735657846e-07  1.0638176047876515e-07  1.0927537862566185e-07  1.1225012879977367e-07 
 1.1530841290807898e-07  1.1845271047785310e-07  1.2168558148501370e-07  1.2500966930024848e-07 
 1.2842770375845577e-07  1.3194250435731633e-07  1.3555698359111064e-07  1.3927415042621911e-07 
 1.4309711392507304e-07  1.4702908702568157e-07  1.5107339048422966e-07  1.5523345698864218e-07 
 1.5951283545142022e-07  1.6391519549049962e-07  1.6844433210734730e-07  1.7310417057199965e-07 
 1.7789877152527048e-07  1.8283233630890368e-07  1.8790921253502753e-07  1.9313389990688085e-07 
 1.9851105630343392e-07  2.0404550414121127e-07  2.0974223702735409e-07  2.1560642671872780e-07 
 2.2164343040269751e-07  2.2785879831605508e-07  2.3425828171949781e-07  2.4084784124602294e-07 
 2.4763365564263074e-07  2.5462213092581642e-07  2.6181990997247407e-07  2.6923388256906790e-07 
 2.7687119594320921e-07  2.8473926580315450e-07  2.9284578791219535e-07  3.0119875022644657e-07 
 3.0980644562618696e-07  3.1867748527263447e-07  3.2782081262388917e-07  3.3724571814572774e-07 
 3.4696185475501969e-07  3.5697925403573712e-07  3.6730834326987989e-07  3.7795996332812701e-07 
 3.8894538746767849e-07  4.0027634108756314e-07  4.1196502249468222e-07  4.2402412473705338e-07 
 4.3646685856408898e-07  4.4930697657736511e-07  4.6255879863916441e-07  4.7623723861016179e-07 
 4.9035783249197286e-07  5.0493676805491473e-07  5.1999091603626527e-07  5.3553786299955893e-07 
 5.5159594595107649e-07  5.6818428881564020e-07  5.8532284088021587e-07  6.0303241732061304e-07 
 6.2133474193382366e-07  6.4025249220628870e-07  6.5980934685663135e-07  6.8003003600023575e-07 
 7.0094039409245547e-07  7.2256741581732574e-07  7.4493931509938762e-07  7.6808558742776331e-07 
 7.9203707569390572e-07  8.1682603975760011e-07  8.4248622996988597e-07  8.6905296489661552e-07 
 8.9656321350251202e-07  9.2505568207283690e-07  9.5457090616829937e-07  9.8515134792865147e-07 
 1.0168414990616556e-06  1.0496879898768843e-06  1.0837397047482813e-06  1.1190479044155481e-06 
 1.1556663555626114e-06  1.1936514681415818e-06  1.2330624409430454e-06  1.2739614159483403e-06 
 1.3164136420369018e-06  1.3604876486619605e-06  1.4062554301511269e-06  1.4537926413349061e-06 
 1.5031788052561976e-06  1.5544975337677203e-06  1.6078367618822436e-06  1.6632889968029728e-06 
 1.7209515826286647e-06  1.7809269818005913e-06  1.8433230744365623e-06  1.9082534767815253e-06 
 1.9758378800952099e-06  2.0462024113953310e-06  2.1194800175808359e-06  2.1958108745740898e-06 
 2.2753428232444123e-06  2.3582318340089868e-06  2.4446425021515008e-06  2.5347485760550305e-06 
 2.6287335207146370e-06  2.7267911190778940e-06  2.8291261139595548e-06  2.9359548934909065e-06 
 3.0475062232966045e-06  3.1640220288435093e-06  3.2857582316789983e-06  3.4129856435722160e-06 
 3.5459909228930047e-06  3.6850775979118090e-06  3.8305671620826716e-06  3.9828002467824175e-06 
 4.1421378774263402e-06  4.3089628193663982e-06  4.4836810205064072e-06  4.6667231581435789e-06 
 4.8585462981714354e-06  5.0596356754603223e-06  5.2705066049738910e-06  5.4917065339882869e-06 
 5.7238172466622911e-06  5.9674572331676975e-06  6.2232842366377559e-06  6.4919979923358657e-06 
 6.7743431746959619e-06  7.0711125692507134e-06  7.3831504879545557e-06  7.7113564480383977e-06 
 8.0566891363153096e-06  8.4201706828056601e-06  8.8028912696845776e-06  9.2060141038901626e-06 
 9.6307807842899080e-06  1.0078517097106110e-05  1.0550639276374359e-05  1.1048660769578940e-05 
 1.1574199552306091e-05  1.2128986039813054e-05  1.2714871647865359e-05  1.3333838060087201e-05 
 1.3988007264445244e-05  1.4679652427395105e-05  1.5411209680717425e-05  1.6185290903218105e-05 
 1.7004697587333220e-05  1.7872435889339205e-05  1.8791732971406629e-05  1.9766054754243115e-05 
 2.0799125210654096e-05  2.1894947343119408e-05  2.3057826002570002e-05  2.4292392721091504e-05 
 2.5603632748437686e-05  2.6996914501181894e-05  2.8478021654260532e-05  3.0053188127787950e-05 
 3.1729136247582810e-05  3.3513118386112459e-05  3.5412962421827101e-05  3.7437121389452283e-05 
 3.9594727732101733e-05  4.1895652608471554e-05  4.4350570755337612e-05  4.6971031457602868e-05 
 4.9769536235799489e-05  5.2759623924860149e-05  5.5955963888843520e-05  5.9374458194894743e-05 
 6.3032353656918992e-05  6.6948364756197845e-05  7.1142808553564791e-05  7.5637752826960365e-05 
 8.0457178800544336e-05  8.5627159978521978e-05  9.1176058760086500e-05  9.7134742693215977e-05 
 1.0353682242651798e-04  1.1041891364213959e-04  1.1782092550146292e-04  1.2578637841165704e-04 
 1.3436275422824693e-04  1.4360188235009561e-04  1.5356036554237945e-04  1.6430004974443753e-04 
 1.7588854258745865e-04  1.8839978586694062e-04  2.0191468779237877e-04  2.1652182147796707e-04 
 2.3231819685008129e-04  2.4941011393753653e-04  2.6791410638737049e-04  2.8795798502129178e-04 
 3.0968199232593558e-04  3.3324007996453467e-04  3.5880132272042776e-04  3.8655148374684050e-04 
 4.1669474761656431e-04  4.4945563945458940e-04  4.8508115041265732e-04  5.2384309192445564e-04 
 5.6604070358238503e-04  6.1200354212111456e-04  6.6209468190037732e-04  7.1671426047133636e-04 
 7.7630340631003000e-04  8.4134858963118297e-04  9.1238644137963635e-04  9.9000909005858844e-04 
 1.0748700710169709e-03  1.1676908682049709e-03  1.2692681542376288e-03  1.3804818008996791e-03 
 1.5023037389951034e-03  1.6358077537019968e-03  1.7821803093410605e-03  1.9427325057000480e-03 
 2.1189132767628015e-03  2.3123239518436632e-03  2.5247343086853904e-03  2.7581002579819968e-03 
 3.0145833089581394e-03  3.2965719759689752e-03  3.6067052964462261e-03  3.9478986407416291e-03 
 4.3233720043050544e-03  4.7366809819357402e-03  5.1917506322693950e-03  5.6929124478673539e-03 
 6.2449446518562735e-03  6.8531160455683237e-03  7.5232336325283195e-03  8.2616942418377790e-03 
 9.0755403678607523e-03  9.9725204324049733e-03  1.0961153659534099e-02  1.2050799730912264e-02 
 1.3251733360297327e-02  1.4575223888564364e-02  1.6033619954553539e-02  1.7640439241210542e-02 
 1.9410463230093027e-02  2.1359836819610074e-02  2.3506172572733224e-02  2.5868659257934908e-02 
 2.8468174232569036e-02  3.1327399090877950e-02  3.4470937859681028e-02  3.7925436874313795e-02 
 4.1719705306651846e-02  4.5884835147542956e-02  5.0454319269466391e-02  5.5464166013751592e-02 
 6.0953008562304810e-02  6.6962207168470622e-02  7.3535942136940591e-02  8.0721295259302814e-02 
 8.8568317229571702e-02  9.7130078380950211e-02  1.0646269989738823e-01  1.1662536245530081e-01 
 1.2768028903407413e-01  1.3969269838891971e-01  1.5273072539558416e-01  1.6686530414334308e-01 
 1.8217000926350171e-01  1.9872085053418484e-01  2.1659601530723105e-01  2.3587555278249678e-01 
 2.5664099365078491e-01  2.7897489820450594e-01  3.0296032576820370e-01  3.2868021835242089e-01 
 3.5621669193748190e-01  3.8565022992827847e-01  4.1705877528314472e-01  4.5051672080235411e-01 
 4.8609380122257284e-01  5.2385389617720990e-01  5.6385375967555496e-01  6.0614169923064765e-01 
 6.5075623554491535e-01  6.9772478085150436e-01  7.4706237946594334e-01  7.9877055661468177e-01 
 8.5283632018770361e-01  9.0923135429795621e-01  9.6791143383805189e-01  1.0288160768646211e+00 
 1.0918684383982049e+00  1.1569754368500413e+00  1.2240280939333870e+00  1.2929020608940482e+00 
 1.3634582978481165e+00  1.4355438684469271e+00  1.5089928089133049e+00  1.5836270293010815e+00 
 1.6592572067218894e+00  1.7356836363301378e+00  1.8126970164536065e+00  1.8900791586730967e+00 
 1.9676036300113782e+00  2.0450363500942323e+00  2.1221361785983199e+00  2.1986555356072950e+00 
 2.2743410988902513e+00  2.3489346179825845e+00  2.4221738765342065e+00  2.4937938233475223e+00 
 2.5635278831092672e+00  2.6311094669431236e+00  2.6962736160604792e+00  2.7587585940566539e+00 
 2.8183080088667807e+00  2.8746727094935749e+00  2.9276127813336443e+00  2.9768995541993921e+00 
 3.0223175765868762e+00  3.0636665207781304e+00  3.1007629855367722e+00  3.1334421659479990e+00 
 3.1615593632018939e+00  3.1849913106897678e+00  3.2036372965757169e+00  3.2174200669417941e+00 
 3.2262864976244594e+00  3.2302080269093709e+00  3.2291808452817774e+00  3.2232258423882914e+00 
 3.2123883151986110e+00  3.1967374450026895e+00  3.1763655542793190e+00  3.1513871575652530e+00 
 3.1219378231825368e+00  3.0881728649960585e+00  3.0502658852335633e+00  3.0084071907795060e+00 
 2.9628021062395642e+00  2.9136692074666750e+00  2.8612384991596356e+00  2.8057495596228734e+00 
 2.7474496748547965e+00  2.6865919828670783e+00  2.6234336479120137e+00  2.5582340804856307e+00 
 2.4912532222163737e+00  2.4227499057901358e+00  2.3529803032328078e+00  2.2821964717781742e+00 
 2.2106450049355191e+00  2.1385657945336796e+00  2.0661909078151952e+00  1.9937435821045046e+00 
 1.9214373381868337e+00  1.8494752123090936e+00  1.7780491056436603e+00  1.7073392491273003e+00 
 1.6375137807845743e+00  1.5687284320274295e+00  1.5011263183265968e+00  1.4348378303494354e+00 
 1.3699806195224986e+00  1.3066596727928304e+00  1.2449674704785243e+00  1.1849842208345045e+00 
 1.1267781646596269e+00  1.0704059430218995e+00  1.0159130209881861e+00  9.6333416012177708e-01 
 9.1269393246349118e-01  8.6400726874546607e-01  8.1728003370478675e-01  7.7250962156648428e-01 
 7.2968556504878623e-01  6.8879015160097079e-01  6.4979904100633901e-01  6.1268187895812143e-01 
 5.7740290173196174e-01  5.4392152762219492e-01  5.1219293136820043e-01  4.8216859836071169e-01 
 4.5379685597669189e-01  4.2702337993732553e-01  4.0179167411034472e-01  3.7804352267934305e-01 
 3.5571941407306873e-01  3.3475893648029970e-01  3.1510114516296633e-01  2.9668490211270909e-01 
 2.7944918886444359e-01  2.6333339347591034e-01  2.4827757279837082e-01  2.3422269119917394e-01 
 2.2111083685715405e-01  2.0888541664984070e-01  1.9749133050783640e-01  1.8687512595235845e-01 
 1.7698513338448119e-01  1.6777158258378827e-01  1.5918670081732256e-01  1.5118479296370912e-01 
 1.4372230411747111e-01  1.3675786524011707e-01  1.3025232254653929e-01  1.2416875143502110e-01 
 1.1847245586729757e-01  1.1313095416907826e-01  1.0811395224726392e-01  1.0339330521236817e-01 
 9.8942968364676143e-02  9.4738938465503880e-02  9.0759186185942753e-02  8.6983580617078227e-02 
 8.3393806744726809e-02  7.9973276838170820e-02  7.6707036769258816e-02  7.3581668353239413e-02 
 7.0585188870605706e-02  6.7706948975019943e-02  6.4937530204079746e-02  6.2268643300896084e-02 
 5.9693028357799535e-02  5.7204357998235443e-02  5.4797144252933826e-02  5.2466649945527175e-02 
 5.0208805110127708e-02  4.8020128821568919e-02  4.5897656666160962e-02  4.3838873943959002e-02 
 4.1841654575748809e-02  3.9904205590405910e-02  3.8025016990611442e-02  3.6202816735732675e-02 
 3.4436530538046288e-02  3.2725246140229453e-02  3.1068181726015932e-02  2.9464658110114072e-02 
 2.7914074356152112e-02  2.6415886481025712e-02  2.4969588919272083e-02  2.3574698440870238e-02 
 2.2230740239184185e-02  2.0937235931740898e-02  1.9693693244334114e-02  1.8499597177760462e-02 
 1.7354402485527977e-02  1.6257527319333435e-02  1.5208347926205037e-02  1.4206194306205691e-02 
 1.3250346761810680e-02  1.2340033288932864e-02  1.1474427774625115e-02  1.0652648977468775e-02 
 9.8737602734717250e-03  9.1367701530615780e-03  8.4406334537795863e-03  7.7842533090371454e-03 
 7.1664837864174264e-03  6.5861331802112705e-03  6.0419679129447533e-03  5.5327169903602860e-03 
 5.0570769443841306e-03  4.6137171896942445e-03  4.2012857121238884e-03  3.8184150016934595e-03 
 3.4637281398100955e-03  3.1358449492268317e-03  2.8333881166973419e-03  2.5549892017740464e-03 
 2.2992944506624547e-03  2.0649703411812913e-03  1.8507087933609685e-03  1.6552319896940173e-03 
 1.4772967591794688e-03  1.3156984897398248e-03  1.1692745440214844e-03  1.0369071637384483e-03 
 9.1752585734703579e-04  8.1010927475195203e-04  7.1368658079187179e-04  6.2733834632951744e-04 
 5.5019698181162069e-04  4.8144674313958406e-04  4.2032334360608831e-04  3.6611320853781413e-04 
 3.1815241119398840e-04  2.7582532947645425e-04  2.3856306319425919e-04  2.0584165108801901e-04 
 1.7718012565509484e-04  1.5213844212613793e-04  1.3031531582565042e-04  1.1134599969921959e-04 
 9.4900031097808291e-05  8.0678974057866377e-05  6.8414180380118678e-05  5.7864589856199983e-05 
 4.8814587078558121e-05  4.1071929444037637e-05  3.4465758265446671e-05  2.8844702370025083e-05 
 2.4075081213129980e-05  2.0039212386521672e-05  1.6633826463794294e-05  1.3768590405450630e-05 
 1.1364739242605049e-05  9.3538144668353497e-06  7.6765064663372568e-06  6.2815974545296298e-06 
 5.1250006237448853e-06  4.1688907092193172e-06  3.3809207518735202e-06  2.7335195864248466e-06 
 2.2032644381720893e-06  1.7703229715439881e-06  1.4179591809404492e-06  1.1320976350061274e-06 
 9.0094076568045194e-07  7.1463412064639975e-07  5.6497476077692320e-07  4.4515827266725664e-07 
 3.4956017135957941e-07  2.7354778211585008e-07  2.1331900592375626e-07  1.6576468576752104e-07 
 1.2835159501477511e-07  9.9023361953633988e-08  7.6116922798436868e-08  5.8292357362131005e-08 
 4.4474205725230464e-08  3.3802589845691736e-08  2.5592670866478657e-08  1.9301161006702996e-08 
 1.4498778813346629e-08  1.0847688905500555e-08  8.0831030584963303e-09  5.9983395850538324e-09 
 4.4327436009540884e-09  3.2619630878452529e-09  2.3901558760297297e-09  1.7437719427406320e-09 
 1.2666148989992380e-09  9.1593731128318425e-10  6.5936759932492035e-10  4.7250262219386265e-10 
 3.3703058761289087e-10  2.3927439074378220e-10  1.6906662546134130e-10  1.1888495294435278e-10 
 8.3190824681430532e-11  5.7926235494983662e-11  4.0132658133330998e-11  2.7663956505635204e-11 
 1.8971208467932069e-11  1.2942262185144660e-11  8.7827311971323643e-12  5.9281940568890367e-12 
 3.9797642556813794e-12  2.6570668713250073e-12  1.7641093543615591e-12  1.1646537652953337e-12 
 7.6451162997180539e-13  4.9894667570929719e-13  3.2372285878907077e-13  2.0878908279129245e-13 
 1.3385140801490147e-13  8.5287218098147857e-14  5.4007672458345886e-14  3.3986127804685220e-14 
 2.1251342394535904e-14  1.3203004926307528e-14  8.1493644511011232e-15  4.9969103572413109e-15 
 3.0434633585014879e-15  1.8411308011631662e-15  1.1061451100586085e-15  6.5994964504406998e-16 
 3.9096741290092021e-16  2.2996444641353977e-16  1.3428577052918378e-16  7.7840695840644592e-17 
 4.4786647728290278e-17  2.5574827493708263e-17  1.4492917167047586e-17  8.1495557975957808e-18 
 4.5467665131471263e-18  2.5166162988533350e-18  1.3817567349200671e-18  7.5248987632385947e-19 
 4.0642307080400211e-19  2.1768029688453790e-19  1.1560553452697197e-19  6.0871708151006529e-20 
 3.1775677693452671e-20  1.6443542009903373e-20  8.4357575661103587e-21  4.2908769221035249e-21 
 2.1649427301960629e-21  1.0845738599827158e-21  5.4067371200469205e-22  0.0000000000000000e+00 
 0.0000000000000000e+00  0.0000000000000000e+00  0.0000000000000000e+00  0.0000000000000000e+00 
 0.0000000000000000e+00  0.0000000000000000e+00  0.0000000000000000e+00  0.0000000000000000e+00 
 0.0000000000000000e+00  0.0000000000000000e+00  0.0000000000000000e+00  0.0000000000000000e+00 
 0.0000000000000000e+00  0.0000000000000000e+00  0.0000000000000000e+00  0.0000000000000000e+00 
 0.0000000000000000e+00  0.0000000000000000e+00  0.0000000000000000e+00  0.0000000000000000e+00 
 0.0000000000000000e+00  0.0000000000000000e+00  0.0000000000000000e+00  0.0000000000000000e+00 
 0.0000000000000000e+00  0.0000000000000000e+00  0.0000000000000000e+00  0.0000000000000000e+00 
 0.0000000000000000e+00  0.0000000000000000e+00  0.0000000000000000e+00  0.0000000000000000e+00 
 0.0000000000000000e+00  0.0000000000000000e+00  0.0000000000000000e+00  0.0000000000000000e+00 
 0.0000000000000000e+00  0.0000000000000000e+00  0.0000000000000000e+00  0.0000000000000000e+00 
 0.0000000000000000e+00  0.0000000000000000e+00 
</PP_RHOATOM>
