  <PP_INFO>

############################################################
#    Opium Parameter File                                  #
############################################################
#-----------------------------------------------------------
#Command line   : opium At At.log ae ps nl tc2 ke upf qmcpack rpt 
 
#Opium version  : 4.1 
#Compile Host   : py-garuda.cos.ncsu.edu 
#Compile OS     : Linux 5.15.0-113-generic x86_64 
#Compile Date   : Sat Jul 13 02:11:52 EDT 2024 
#-----------------------------------------------------------
#Execution Host : Gwaihir 
#Execution Date : Wed Apr  8 10:57:35 2026
 
#-----------------------------------------------------------
############################################################
[Atom]
At
16
100   2.00  -
200   2.00  -
210   6.00  -
300   2.00  -
310   6.00  -
320   10.00  -
400   2.00  -
410   6.00  -
420   10.00  -
430   14.00  -
500   2.00  -
510   6.00  -
520   10.00  -
600   2.00  -
610   3.50  -
700   0.50  -

[Pseudo]
3 -1 -1 -1
g

[KBdesign]
s

[Relativity]
frl

[XC]
pbe

[Gaussinfo]
7 5 3
2 2 2 2 4  4 4 2
2 7.2874668 -15.1756059  
2 2.5273178 49.5666528
2 1.4035959 24.4908456
2 0.8030397 -2.3129707
2 1.4543826 20.6670482
2 0.7008671 5.2661947
2 1.1559242 -2.6853847
2 1.1081977 -3.3230707
1 4.0000190 7.0
3 5.1000368 28.00013300
2 3.9999461 -0.5000100
2 2.0003029 -1.0000499
2  1.45908707  -16.54452133
2  2.06410520  17.31428850
2  0.69777010  3.36723186
2  1.63331716  -0.84529194
2  1.51189072  -8.17615257
2  1.44912026  8.32694692
2  0.82262536  -2.19713072
2  0.76005563  2.04323037
2  1.14690858  1.79140300
2  1.09597319  -1.66211111

[Configs]
17

600   2.00 -
610   5.00 -
700   0.00 -

600   2.00 -
610   4.00 -
700   1.00 -

600   2.00 -
610   4.00 -
700   0.00 -

600   2.00 -
610   3.00 -
700   1.00 -

600   2.00 -
610   3.00 -
700   0.00 -

600   2.00 -
610   2.00 -
700   1.00 -

600   2.00 -
610   1.00 -
700   2.00 -

600   2.00 -
610   2.00 -
700   0.00 -

600   2.00 -
610   1.00 -
700   1.00 -

600   2.00 -
610   0.00 -
700   2.00 -

600   2.00 -
610   1.00 -
700   0.00 -

600   2.00 -
610   0.00 -
700   1.00 -

600   2.00 -
610   0.00 -
700   0.00 -

600   1.00 -
610   1.00 -
700   0.00 -

600   1.00 -
610   0.00 -
700   1.00 -

600   0.00 -
610   1.00 -
700   1.00 -

600   1.00 -
610   0.00 -
700   0.00 -
############################################################
  </PP_INFO>



<PP_HEADER>
   0         Version Number
   At        Element
   NC        Norm - Conserving pseudopotential
    F      Nonlinear Core Correction
SLA  PW   PBE  PBE     PBE  Exchange-Correlation functional
 7          Z valence
 0          Total energy
 0.000000   0.000000     Suggested cutoff for wfc and rho
 1           Max angular momentum component
 1190           Number of points in mesh
 3  2     Number of Wavefuncitons, Number of Projectors
 Wavefunctions         nl  l   occ
                      6S  0  2.000000
                      6P  1  1.166667
                      6P  1  2.333333
</PP_HEADER>
<PP_MESH>
  <PP_R>
 2.2743660195259523e-05  2.3041257972191066e-05  2.3342749776560324e-05  2.3648186561199826e-05 
 2.3957619945653147e-05  2.4271102224898755e-05  2.4588686378187925e-05  2.4910426077998455e-05 
 2.5236375699105398e-05  2.5566590327770498e-05  2.5901125771051951e-05  2.6240038566235898e-05 
 2.6583385990391369e-05  2.6931226070050243e-05  2.7283617591013909e-05  2.7640620108288082e-05 
 2.8002293956147900e-05  2.8368700258334480e-05  2.8739900938384969e-05  2.9115958730097784e-05 
 2.9496937188134789e-05  2.9882900698762152e-05  3.0273914490731801e-05  3.0670044646305258e-05 
 3.1071358112421581e-05  3.1477922712011747e-05  3.1889807155460734e-05  3.2307081052219834e-05 
 3.2729814922570727e-05  3.3158080209543668e-05  3.3591949290991454e-05  3.4031495491821509e-05 
 3.4476793096387968e-05  3.4927917361045783e-05  3.5384944526869443e-05  3.5847951832537732e-05 
 3.6317017527387309e-05  3.6792220884637027e-05  3.7273642214785305e-05  3.7761362879182750e-05 
 3.8255465303782509e-05  3.8756032993070278e-05  3.9263150544176992e-05  3.9776903661175755e-05 
 4.0297379169566144e-05  4.0824665030947853e-05  4.1358850357886441e-05  4.1900025428973572e-05 
 4.2448281704084319e-05  4.3003711839834068e-05  4.3566409705237790e-05  4.4136470397573919e-05 
 4.4713990258456320e-05  4.5299066890116013e-05  4.5891799171896301e-05  4.6492287276963551e-05 
 4.7100632689236769e-05  4.7716938220538514e-05  4.8341308027970511e-05  4.8973847631516172e-05 
 4.9614663931874061e-05  5.0263865228524132e-05  5.0921561238030695e-05  5.1587863112584719e-05 
 5.2262883458788875e-05  5.2946736356688289e-05  5.3639537379050329e-05  5.4341403610896725e-05 
 5.5052453669291208e-05  5.5772807723385918e-05  5.6502587514730559e-05  5.7241916377846811e-05 
 5.7990919261072217e-05  5.8749722747676746e-05  5.9518455077255645e-05  6.0297246167402294e-05 
 6.1086227635664554e-05  6.1885532821788340e-05  6.2695296810252546e-05  6.3515656453098549e-05 
 6.4346750393058560e-05  6.5188719086986462e-05  6.6041704829595540e-05  6.6905851777506462e-05 
 6.7781305973610171e-05  6.8668215371749501e-05  6.9566729861723648e-05  7.0477001294620034e-05 
 7.1399183508477211e-05  7.2333432354284305e-05  7.3279905722319831e-05  7.4238763568835713e-05 
 7.5210167943090146e-05  7.6194283014734447e-05  7.7191275101558070e-05  7.8201312697596487e-05 
 7.9224566501607491e-05  8.0261209445919399e-05  8.1311416725657096e-05  8.2375365828350492e-05 
 8.3453236563930204e-05  8.4545211095115994e-05  8.5651473968202641e-05  8.6772212144248703e-05 
 8.7907615030673414e-05  8.9057874513267016e-05  9.0223184988619644e-05  9.1403743396975236e-05 
 9.2599749255514686e-05  9.3811404692074679e-05  9.5038914479307824e-05  9.6282486069289809e-05 
 9.7542329628579229e-05  9.8818658073735954e-05  1.0011168710730511e-04  1.0142163525427090e-04 
 1.0274872389898797e-04  1.0409317732259588e-04  1.0545522274092312e-04  1.0683509034288723e-04 
 1.0823301332939712e-04  1.0964922795276473e-04  1.1108397355663211e-04  1.1253749261642130e-04 
 1.1401003078031267e-04  1.1550183691076079e-04  1.1701316312655240e-04  1.1854426484541504e-04 
 1.2009540082718338e-04  1.2166683321753018e-04  1.2325882759226968e-04  1.2487165300224009e-04 
 1.2650558201877452e-04  1.2816089077976562e-04  1.2983785903633382e-04  1.3153677020010584e-04 
 1.3325791139111190e-04  1.3500157348630981e-04  1.3676805116874367e-04  1.3855764297734626e-04 
 1.4037065135739262e-04  1.4220738271161423e-04  1.4406814745198131e-04  1.4595326005216387e-04 
 1.4786303910067816e-04  1.4979780735472880e-04  1.5175789179475567e-04  1.5374362367969431e-04 
 1.5575533860295962e-04  1.5779337654916152e-04  1.5985808195156370e-04  1.6194980375029339e-04 
 1.6406889545131310e-04  1.6621571518616389e-04  1.6839062577249066e-04  1.7059399477535893e-04 
 1.7282619456937448e-04  1.7508760240161528e-04  1.7737860045538741e-04  1.7969957591481474e-04 
 1.8205092103027416e-04  1.8443303318468640e-04  1.8684631496067525e-04  1.8929117420860483e-04 
 1.9176802411550707e-04  1.9427728327491115e-04  1.9681937575758741e-04  1.9939473118321584e-04 
 2.0200378479299304e-04  2.0464697752318878e-04  2.0732475607966548e-04  2.1003757301337272e-04 
 2.1278588679682887e-04  2.1557016190160483e-04  2.1839086887681989e-04  2.2124848442866654e-04 
 2.2414349150097441e-04  2.2707637935682915e-04  2.3004764366125907e-04  2.3305778656500324e-04 
 2.3610731678937703e-04  2.3919674971224642e-04  2.4232660745512869e-04  2.4549741897143162e-04 
 2.4870972013584826e-04  2.5196405383492109e-04  2.5526097005879077e-04  2.5860102599414641e-04 
 2.6198478611839032e-04  2.6541282229503743e-04  2.6888571387036051e-04  2.7240404777130190e-04 
 2.7596841860466447e-04  2.7957942875760279e-04  2.8323768849942721e-04  2.8694381608474108e-04 
 2.9069843785792753e-04  2.9450218835900215e-04  2.9835571043085324e-04  3.0225965532788254e-04 
 3.0621468282606963e-04  3.1022146133447476e-04  3.1428066800820253e-04  3.1839298886284200e-04 
 3.2255911889040543e-04  3.2677976217678346e-04  3.3105563202073660e-04  3.3538745105444567e-04 
 3.3977595136563759e-04  3.4422187462131002e-04  3.4872597219307467e-04  3.5328900528414152e-04 
 3.5791174505796339e-04  3.6259497276856464e-04  3.6733947989257506e-04  3.7214606826299070e-04 
 3.7701555020468630e-04  3.8194874867170006e-04  3.8694649738631453e-04  3.9200964097995712e-04 
 3.9713903513594620e-04  4.0233554673410268e-04  4.0760005399725457e-04  4.1293344663965987e-04 
 4.1833662601736864e-04  4.2381050528055589e-04  4.2935600952784568e-04  4.3497407596265460e-04 
 4.4066565405158147e-04  4.4643170568486992e-04  4.5227320533896978e-04  4.5819114024122585e-04 
 4.6418651053672222e-04  4.7026032945730780e-04  4.7641362349283681e-04  4.8264743256464654e-04 
 4.8896281020130753e-04  4.9536082371667118e-04  5.0184255439024959e-04  5.0840909764995380e-04 
 5.1506156325722367e-04  5.2180107549458054e-04  5.2862877335563285e-04  5.3554581073756986e-04 
 5.4255335663617229e-04  5.4965259534337603e-04  5.5684472664741902e-04  5.6413096603560951e-04 
 5.7151254489974646e-04  5.7899071074422664e-04  5.8656672739687663e-04  5.9424187522254203e-04 
 6.0201745133947322e-04  6.0989476983854050e-04  6.1787516200531936e-04  6.2595997654507944e-04 
 6.3415057981072102e-04  6.4244835603369027e-04  6.5085470755791848e-04  6.5937105507682153e-04 
 6.6799883787339908e-04  6.7673951406347905e-04  6.8559456084214137e-04  6.9456547473336770e-04 
 7.0365377184295657e-04  7.1286098811475099e-04  7.2218867959021485e-04  7.3163842267140857e-04 
 7.4121181438740417e-04  7.5091047266418679e-04  7.6073603659808917e-04  7.7069016673280192e-04 
 7.8077454534001016e-04  7.9099087670369942e-04  8.0134088740818643e-04  8.1182632662991428e-04 
 8.2244896643306772e-04  8.3321060206905675e-04  8.4411305227991712e-04  8.5515815960568334e-04 
 8.6634779069578224e-04  8.7768383662450045e-04  8.8916821321058034e-04  9.0080286134099920e-04 
 9.1258974729898279e-04  9.2453086309631145e-04  9.3662822680997695e-04  9.4888388292323862e-04 
 9.6129990267114984e-04  9.7387838439059917e-04  9.8662145387493571e-04  9.9953126473323133e-04 
 1.0126099987542477e-03  1.0258598662751636e-03  1.0392831065551254e-03  1.0528819881536900e-03 
 1.0666588093142131e-03  1.0806158983522616e-03  1.0947556140491017e-03  1.1090803460503411e-03 
 1.1235925152697809e-03  1.1382945742985601e-03  1.1531890078196473e-03  1.1682783330277571e-03 
 1.1835651000547645e-03  1.1990518924006803e-03  1.2147413273702714e-03  1.2306360565153898e-03 
 1.2467387660830920e-03  1.2630521774696212e-03  1.2795790476803305e-03  1.2963221697956182e-03 
 1.3132843734429739e-03  1.3304685252751851e-03  1.3478775294548117e-03  1.3655143281449951e-03 
 1.3833819020066911e-03  1.4014832707024091e-03  1.4198214934065415e-03  1.4383996693223733e-03 
 1.4572209382058498e-03  1.4762884808962099e-03  1.4956055198535509e-03  1.5151753197034327e-03 
 1.5350011877886085e-03  1.5550864747279716e-03  1.5754345749828202e-03  1.5960489274305276e-03 
 1.6169330159457229e-03  1.6380903699890689e-03  1.6595245652037565e-03  1.6812392240197923e-03 
 1.7032380162661995e-03  1.7255246597912271e-03  1.7481029210906749e-03  1.7709766159444411e-03 
 1.7941496100613980e-03  1.8176258197327060e-03  1.8414092124936726e-03  1.8655038077942828e-03 
 1.8899136776784897e-03  1.9146429474724016e-03  1.9396957964814717e-03  1.9650764586968111e-03 
 1.9907892235107422e-03  2.0168384364417178e-03  2.0432284998687239e-03  2.0699638737752880e-03 
 2.0970490765032340e-03  2.1244886855162890e-03  2.1522873381736845e-03  2.1804497325138839e-03 
 2.2089806280485591e-03  2.2378848465669622e-03  2.2671672729508174e-03  2.2968328559998812e-03 
 2.3268866092682910e-03  2.3573336119118824e-03  2.3881790095465687e-03  2.4194280151179659e-03 
 2.4510859097823905e-03  2.4831580437993900e-03  2.5156498374359479e-03  2.5485667818825226e-03 
 2.5819144401810733e-03  2.6156984481652181e-03  2.6499245154127183e-03  2.6845984262104002e-03 
 2.7197260405317151e-03  2.7553132950270914e-03  2.7913662040272395e-03  2.8278908605595893e-03 
 2.8648934373780278e-03  2.9023801880061094e-03  2.9403574477939072e-03  2.9788316349887174e-03 
 3.0178092518197475e-03  3.0572968855970134e-03  3.0973012098246080e-03  3.1378289853285389e-03 
 3.1788870613993271e-03  3.2204823769495508e-03  3.2626219616865410e-03  3.3053129373004095e-03 
 3.3485625186676460e-03  3.3923780150704407e-03  3.4367668314319692e-03  3.4817364695678482e-03 
 3.5272945294539532e-03  3.5734487105108384e-03  3.6202068129049534e-03  3.6675767388668948e-03 
 3.7155664940268897e-03  3.7641841887677821e-03  3.8134380395956988e-03  3.8633363705286592e-03 
 3.9138876145033523e-03  3.9651003148003282e-03  4.0169831264878272e-03  4.0695448178845114e-03 
 4.1227942720413330e-03  4.1767404882427743e-03  4.2313925835277752e-03  4.2867597942305158e-03 
 4.3428514775413849e-03  4.3996771130883645e-03  4.4572463045391133e-03  4.5155687812240067e-03 
 4.5746543997804172e-03  4.6345131458185151e-03  4.6951551356088413e-03  4.7565906177920100e-03 
 4.8188299751107302e-03  4.8818837261645261e-03  4.9457625271873999e-03  5.0104771738487611e-03 
 5.0760386030779224e-03  5.1424578949124684e-03  5.2097462743708051e-03  5.2779151133492061e-03 
 5.3469759325437127e-03  5.4169404033971380e-03  5.4878203500715803e-03  5.5596277514467279e-03 
 5.6323747431443220e-03  5.7060736195791040e-03  5.7807368360366018e-03  5.8563770107781087e-03 
 5.9330069271731753e-03  6.0106395358600646e-03  6.0892879569344176e-03  6.1689654821665873e-03 
 6.2496855772479773e-03  6.3314618840667782e-03  6.4143082230134789e-03  6.4982385953165434e-03 
 6.5832671854086583e-03  6.6694083633239134e-03  6.7566766871264084e-03  6.8450869053705721e-03 
 6.9346539595937107e-03  7.0253929868411696e-03  7.1173193222245192e-03  7.2104485015132332e-03 
 7.3047962637602685e-03  7.4003785539620056e-03  7.4972115257529743e-03  7.5953115441358843e-03 
 7.6946951882473288e-03  7.7953792541597062e-03  7.8973807577197921e-03  8.0007169374244642e-03 
 8.1054052573340408e-03  8.2114634100237567e-03  8.3189093195738494e-03  8.4277611445987520e-03 
 8.5380372813159810e-03  8.6497563666551053e-03  8.7629372814074513e-03  8.8775991534169926e-03 
 8.9937613608130091e-03  9.1114435352850215e-03  9.2306655654006160e-03  9.3514475999666481e-03 
 9.4738100514344167e-03  9.5977735993494611e-03  9.7233591938464259e-03  9.8505880591896865e-03 
 9.9794816973603033e-03  1.0110061891689904e-02  1.0242350710542128e-02  1.0376370511042217e-02 
 1.0512143942855448e-02  1.0649693952014932e-02  1.0789043784799609e-02  1.0930216991662883e-02 
 1.1073237431212723e-02  1.1218129274243814e-02  1.1364917007822486e-02  1.1513625439425081e-02 
 1.1664279701130481e-02  1.1816905253867497e-02  1.1971527891717786e-02  1.2128173746275166e-02 
 1.2286869291061896e-02  1.2447641346002750e-02  1.2610517081957671e-02  1.2775524025313695e-02 
 1.2942690062636979e-02  1.3112043445385701e-02  1.3283612794684639e-02  1.3457427106162149e-02 
 1.3633515754850580e-02  1.3811908500150669e-02  1.3992635490860958e-02  1.4175727270273030e-02 
 1.4361214781333382e-02  1.4549129371872858e-02  1.4739502799904517e-02  1.4932367238990815e-02 
 1.5127755283680967e-02  1.5325699955019584e-02  1.5526234706127247e-02  1.5729393427854187e-02 
 1.5935210454507912e-02  1.6143720569655788e-02  1.6354959012003557e-02  1.6568961481350737e-02 
 1.6785764144624012e-02  1.7005403641989457e-02  1.7227917093044900e-02  1.7453342103093180e-02 
 1.7681716769497525e-02  1.7913079688120111e-02  1.8147469959844852e-02  1.8384927197185541e-02 
 1.8625491530980462e-02  1.8869203617174604e-02  1.9116104643690564e-02  1.9366236337389486e-02 
 1.9619640971122940e-02  1.9876361370877157e-02  2.0136440923010718e-02  2.0399923581586946e-02 
 2.0666853875802253e-02  2.0937276917511682e-02  2.1211238408852931e-02  2.1488784649970061e-02 
 2.1769962546838419e-02  2.2054819619191809e-02  2.2343404008553450e-02  2.2635764486371997e-02 
 2.2931950462264053e-02  2.3232011992364490e-02  2.3535999787786074e-02  2.3843965223189767e-02 
 2.4155960345467107e-02  2.4472037882536348e-02  2.4792251252253560e-02  2.5116654571440359e-02 
 2.5445302665029798e-02  2.5778251075331909e-02  2.6115556071420479e-02  2.6457274658642678e-02 
 2.6803464588253077e-02  2.7154184367173706e-02  2.7509493267881973e-02  2.7869451338427772e-02 
 2.8234119412581752e-02  2.8603559120116393e-02  2.8977832897221573e-02  2.9357003997056427e-02 
 2.9741136500439299e-02  3.0130295326677548e-02  3.0524546244538996e-02  3.0923955883367150e-02 
 3.1328591744341591e-02  3.1738522211885910e-02  3.2153816565224792e-02  3.2574544990092394e-02 
 3.3000778590593881e-02  3.3432589401222228e-02  3.3870050399032209e-02  3.4313235515973595e-02 
 3.4762219651385998e-02  3.5217078684656934e-02  3.5677889488045629e-02  3.6144729939674630e-02 
 3.6617678936691392e-02  3.7096816408602074e-02  3.7582223330779818e-02  3.8073981738149826e-02 
 3.8572174739053312e-02  3.9076886529293205e-02  3.9588202406363307e-02  4.0106208783863846e-02 
 4.0630993206105512e-02  4.1162644362904711e-02  4.1701252104572310e-02  4.2246907457098602e-02 
 4.2799702637536900e-02  4.3359731069588341e-02  4.3927087399390899e-02  4.4501867511514664e-02 
 4.5084168545166635e-02  4.5674088910607410e-02  4.6271728305782835e-02  4.6877187733173127e-02 
 4.7490569516862563e-02  4.8111977319832550e-02  4.8741516161480695e-02  4.9379292435369662e-02 
 5.0025413927207690e-02  5.0679989833064744e-02  5.1343130777826873e-02  5.2014948833892072e-02 
 5.2695557540110800e-02  5.3385071920974338e-02  5.4083608506054204e-02  5.4791285349695767e-02 
 5.5508222050969981e-02  5.6234539773885747e-02  5.6970361267866955e-02  5.7715810888497393e-02 
 5.8471014618537209e-02  5.9236100089214226e-02  6.0011196601793972e-02  6.0796435149431914e-02 
 6.1591948439311470e-02  6.2397870915072054e-02  6.3214338779530269e-02  6.4041490017698446e-02 
 6.4879464420104574e-02  6.5728403606417088e-02  6.6588451049379049e-02  6.7459752099055303e-02 
 6.8342454007397052e-02  6.9236705953127697e-02  7.0142659066954466e-02  7.1060466457109880e-02 
 7.1990283235227451e-02  7.2932266542555482e-02  7.3886575576515068e-02  7.4853371617604275e-02 
 7.5832818056655121e-02  7.6825080422446998e-02  7.7830326409681364e-02  7.8848725907322698e-02 
 7.9880451027309951e-02  8.0925676133644028e-02  8.1984577871855618e-02  8.3057335198858787e-02 
 8.4144129413195060e-02  8.5245144185673319e-02  8.6360565590410665e-02  8.7490582136279277e-02 
 8.8635384798764955e-02  8.9795167052242442e-02  9.0970124902673088e-02  9.2160456920729827e-02 
 9.3366364275356981e-02  9.4588050767767634e-02  9.5825722865886767e-02  9.7079589739244715e-02 
 9.8349863294327419e-02  9.9636758210389045e-02  1.0094049197573333e-01  1.0226128492446969e-01 
 1.0359936027375002e-01  1.0495494416149309e-01  1.0632826568460241e-01  1.0771955693768397e-01 
 1.0912905305227096e-01  1.1055699223656150e-01  1.1200361581567633e-01  1.1346916827244348e-01 
 1.1495389728871645e-01  1.1645805378723242e-01  1.1798189197401987e-01  1.1952566938135924e-01 
 1.2108964691130672e-01  1.2267408887978729e-01  1.2427926306126472e-01  1.2590544073399620e-01 
 1.2755289672587883e-01  1.2922190946089637e-01  1.3091276100617347e-01  1.3262573711964562e-01 
 1.3436112729835309e-01  1.3611922482736646e-01  1.3790032682935258e-01  1.3970473431478897e-01 
 1.4153275223283535e-01  1.4338468952287073e-01  1.4526085916670514e-01  1.4716157824147341e-01 
 1.4908716797322324e-01  1.5103795379120244e-01  1.5301426538285728e-01  1.5501643674955060e-01 
 1.5704480626300871e-01  1.5909971672250708e-01  1.6118151541280426e-01  1.6329055416283383e-01 
 1.6542718940516424e-01  1.6759178223623680e-01  1.6978469847739197e-01  1.7200630873669381e-01 
 1.7425698847156385e-01  1.7653711805223402e-01  1.7884708282603046e-01  1.8118727318249783e-01 
 1.8355808461937664e-01  1.8595991780944179e-01  1.8839317866821934e-01  1.9085827842258579e-01 
 1.9335563368026687e-01  1.9588566650024494e-01  1.9844880446408844e-01  2.0104548074821377e-01 
 2.0367613419709318e-01  2.0634120939742079e-01  2.0904115675324864e-01  2.1177643256210596e-01 
 2.1454749909211465e-01  2.1735482466011374e-01  2.2019888371080587e-01  2.2308015689693977e-01 
 2.2599913116054166e-01  2.2895629981520943e-01  2.3195216262948451e-01  2.3498722591131219e-01 
 2.3806200259361118e-01  2.4117701232095912e-01  2.4433278153741389e-01  2.4752984357548416e-01 
 2.5076873874626365e-01  2.5405001443074510e-01  2.5737422517232900e-01  2.6074193277054253e-01 
 2.6415370637598534e-01  2.6761012258651706e-01  2.7111176554470390e-01  2.7465922703654000e-01 
 2.7825310659146080e-01  2.8189401158366484e-01  2.8558255733476157e-01  2.8931936721776202e-01 
 2.9310507276243086e-01  2.9694031376201441e-01  3.0082573838137050e-01  3.0476200326650738e-01 
 3.0874977365555928e-01  3.1278972349121331e-01  3.1688253553460721e-01  3.2102890148071755e-01 
 3.2522952207525796e-01  3.2948510723310681e-01  3.3379637615828445e-01  3.3816405746550049e-01 
 3.4258888930329146e-01  3.4707161947876936e-01  3.5161300558400310e-01  3.5621381512405365e-01 
 3.6087482564668344e-01  3.6559682487376449e-01  3.7038061083440565e-01  3.7522699199981896e-01 
 3.8013678741995671e-01  3.8511082686193077e-01  3.9014995095024546e-01  3.9525501130886548e-01 
 4.0042687070514182e-01  4.0566640319562203e-01  4.1097449427376759e-01  4.1635204101960444e-01 
 4.2179995225133171e-01  4.2731914867891424e-01  4.3291056305968434e-01  4.3857514035598055e-01 
 4.4431383789484813e-01  4.5012762552982993e-01  4.5601748580487361e-01  4.6198441412038393e-01 
 4.6802941890144911e-01  4.7415352176826314e-01  4.8035775770878719e-01  4.8664317525366196e-01 
 4.9301083665341239e-01  4.9946181805797085e-01  5.0599720969854844e-01  5.1261811607188745e-01 
 5.1932565612692327e-01  5.2612096345388992e-01  5.3300518647589901e-01  5.3997948864302636e-01 
 5.4704504862893788e-01  5.5420306053008794e-01  5.6145473406752433e-01  5.6880129479133479e-01 
 5.7624398428776702e-01  5.8378406038906028e-01  5.9142279738602299e-01  5.9916148624338628e-01 
 6.0700143481798707e-01  6.1494396807979423e-01  6.2299042833583307e-01  6.3114217545703799e-01 
 6.3940058710807468e-01  6.4776705898016795e-01  6.5624300502697697e-01  6.6482985770355751e-01 
 6.7352906820844927e-01  6.8234210672893258e-01  6.9127046268949344e-01  7.0031564500353927e-01 
 7.0947918232840967e-01  7.1876262332372265e-01  7.2816753691310199e-01  7.3769551254932875e-01 
 7.4734816048296449e-01  7.5712711203448124e-01  7.6703401986996789e-01  7.7707055828042759e-01 
 7.8723842346473971e-01  7.9753933381632092e-01  8.0797503021353800e-01  8.1854727631391977e-01 
 8.2925785885222048e-01  8.4010858794238108e-01  8.5110129738344353e-01  8.6223784496946743e-01 
 8.7352011280350039e-01  8.8495000761565967e-01  8.9652946108537268e-01  9.0826043016783575e-01 
 9.2014489742474503e-01  9.3218487135935291e-01  9.4438238675591235e-01  9.5673950502355354e-01 
 9.6925831454467604e-01  9.8194093102788516e-01  9.9478949786555249e-01  1.0078061864960541e+00 
 1.0209931967707502e+00  1.0343527573257627e+00  1.0478871259586231e+00  1.0615985900098432e+00 
 1.0754894667494823e+00  1.0895621037687713e+00  1.1038188793768602e+00  1.1182622030027594e+00 
 1.1328945156025383e+00  1.1477182900718528e+00  1.1627360316638697e+00  1.1779502784126623e+00 
 1.1933636015621440e+00  1.2089786060006089e+00  1.2247979307009738e+00  1.2408242491667647e+00 
 1.2570602698839464e+00  1.2735087367786635e+00  1.2901724296809705e+00  1.3070541647946285e+00 
 1.3241567951730520e+00  1.3414832112014814e+00  1.3590363410854636e+00  1.3768191513457271e+00 
 1.3948346473195308e+00  1.4130858736685727e+00  1.4315759148935459e+00  1.4503078958554254e+00 
 1.4692849823035774e+00  1.4885103814107790e+00  1.5079873423152406e+00  1.5277191566697064e+00 
 1.5477091591977690e+00  1.5679607282574333e+00  1.5884772864120715e+00  1.6092623010088429e+00 
 1.6303192847646846e+00  1.6516517963599693e+00  1.6732634410399299e+00  1.6951578712239548e+00 
 1.7173387871228569e+00  1.7398099373642146e+00  1.7625751196259032e+00  1.7856381812779079e+00 
 1.8090030200325400e+00  1.8326735846031594e+00  1.8566538753715178e+00  1.8809479450638293e+00 
 1.9055598994356986e+00  1.9304938979659856e+00  1.9557541545597914e+00  1.9813449382606019e+00 
 2.0072705739717711e+00  2.0335354431874393e+00  2.0601439847330174e+00  2.0871006955153577e+00 
 2.1144101312827410e+00  2.1420769073948120e+00  2.1701056996025834e+00  2.1985012448386487e+00 
 2.2272683420177377e+00  2.2564118528477417e+00  2.2859367026513553e+00  2.3158478811984673e+00 
 2.3461504435494440e+00  2.3768495109094459e+00  2.4079502714939274e+00  2.4394579814054418e+00 
 2.4713779655219592e+00  2.5037156183967690e+00  2.5364764051701729e+00  2.5696658624931099e+00 
 2.6032895994628613e+00  2.6373532985710035e+00  2.6718627166637603e+00  2.7068236859149244e+00 
 2.7422421148115106e+00  2.7781239891523017e+00  2.8144753730594632e+00  2.8513024100033952e+00 
 2.8886113238409936e+00  2.9264084198674958e+00  2.9647000858820900e+00  3.0034927932674718e+00 
 3.0427930980835245e+00  3.0826076421752902e+00  3.1229431542954873e+00  3.1638064512416677e+00 
 3.2052044390082730e+00  3.2471441139537673e+00  3.2896325639830373e+00  3.3326769697452638e+00 
 3.3762846058474705e+00  3.4204628420839498e+00  3.4652191446817744e+00  3.5105610775626057e+00 
 3.5564963036210213e+00  3.6030325860195536e+00  3.6501777895006895e+00  3.6979398817160267e+00 
 3.7463269345728287e+00  3.7953471255981945e+00  3.8450087393210857e+00  3.8953201686724093e+00 
 3.9462899164034764e+00  3.9979265965229680e+00  4.0502389357527244e+00  4.1032357750025827e+00 
 4.1569260708645146e+00  4.2113188971263087e+00  4.2664234463050645e+00  4.3222490312007453e+00 
 4.3788050864700709e+00  4.4361011702209892e+00  4.4941469656280235e+00  4.5529522825687554e+00 
 4.6125270592817076e+00  4.6728813640459386e+00  4.7340253968826032e+00  4.7959694912787798e+00 
 4.8587241159338621e+00  4.9222998765287613e+00  4.9867075175183455e+00  5.0519579239472359e+00 
 5.1180621232894215e+00  5.1850312873119266e+00  5.2528767339628626e+00  5.3216099292841941e+00 
 5.3912424893495210e+00  5.4617861822272253e+00  5.5332529299693061e+00  5.6056548106262296e+00 
 5.6790040602881495e+00  5.7533130751528372e+00  5.8285944136206673e+00  5.9048607984170172e+00 
 5.9821251187424407e+00  6.0604004324509679e+00  6.1396999682569282e+00  6.2200371279705946e+00 
 6.3014254887631775e+00  6.3838788054613644e+00  6.4674110128719215e+00  6.5520362281367195e+00 
 6.6377687531185519e+00  6.7246230768181929e+00  6.8126138778230700e+00  6.9017560267879805e+00 
 6.9920645889482635e+00  7.0835548266658686e+00  7.1762422020087273e+00  7.2701423793638753e+00 
 7.3652712280847785e+00  7.4616448251732850e+00  7.5592794579966842e+00  7.6581916270402992e+00 
 7.7583980486961366e+00  7.8599156580879264e+00  7.9627616119332929e+00  8.0669532914432196e+00 
 8.1725083052595284e+00  8.2794444924307893e+00  8.3877799254271466e+00  8.4975329131946307e+00 
 8.6087220042493939e+00  8.7213659898124654e+00  8.8354839069855124e+00  8.9510950419681450e+00 
 9.0682189333173433e+00  9.1868753752495103e+00  9.3070844209857455e+00  9.4288663861408892e+00 
 9.5522418521569055e+00  9.6772316697811949e+00  9.8038569625904444e+00  9.9321391305604791e+00 
 1.0062099853683032e+01  1.0193761095629629e+01  1.0327145107463526e+01  1.0462274431400186e+01 
 1.0599171904616979e+01  1.0737860663112707e+01  1.0878364145617647e+01  1.1020706097554758e+01 
 1.1164910575052700e+01  1.1311001949011395e+01  1.1459004909220750e+01  1.1608944468533306e+01 
 1.1760845967091452e+01  1.1914735076609990e+01  1.2070637804714694e+01  1.2228580499337683e+01 
 1.2388589853170288e+01  1.2550692908174096e+01  1.2714917060151251e+01  1.2881290063374303e+01 
 1.3049840035276782e+01  1.3220595461205106e+01  1.3393585199232666e+01  1.3568838485036929e+01 
 1.3746384936840311e+01  1.3926254560415742e+01  1.4108477754157718e+01  1.4293085314219688e+01 
 1.4480108439718689e+01  1.4669578738008060e+01  1.4861528230019170e+01  1.5055989355673027e+01 
 1.5252994979362706e+01  1.5452578395507528e+01  1.5654773334179797e+01  1.5859613966805414e+01 
 1.6067134911938837e+01  1.6277371241113716e+01  1.6490358484770059e+01  1.6706132638258975e+01 
 1.6924730167925972e+01  1.7146188017273843e+01  1.7370543613206220e+01  1.7597834872352802e+01 
 1.7828100207477359e+01  1.8061378533969584e+01  1.8297709276421880e+01  1.8537132375292206e+01 
 1.8779688293654129e+01  1.9025418024035151e+01  1.9274363095344569e+01  1.9526565579891987e+01 
 1.9782068100497487e+01  2.0040913837695207e+01  2.0303146537030813e+01  2.0568810516454626e+01 
 2.0837950673811481e+01  2.1110612494428548e+01  2.1386842058802472e+01  2.1666686050387089e+01 
 2.1950191763483030e+01  2.2237407111230578e+01  2.2528380633707105e+01  2.2823161506130454e+01 
 2.3121799547169669e+01  2.3424345227364476e+01  2.3730849677654916e+01  2.4041364698022601e+01 
 2.4355942766245025e+01  2.4674637046764484e+01  2.4997501399672824e+01  2.5324590389814187e+01 
 2.5655959296006404e+01  2.5991664120383302e+01  2.6331761597859227e+01  2.6676309205717327e+01 
 2.7025365173323397e+01  2.7378988491966737e+01  2.7737238924829860e+01  2.8100177017088587e+01 
 2.8467864106144347e+01  2.8840362331990313e+01  2.9217734647713243e+01  2.9600044830132667e+01 
 2.9987357490579356e+01  3.0379738085814765e+01  3.0777252929093390e+01  3.1179969201369925e+01 
 3.1587954962652784e+01  3.2001279163506716e+01  3.2420011656705427e+01  3.2844223209036876e+01 
 3.3273985513263085e+01  3.3709371200236340e+01  3.4150453851173999e+01  3.4597308010093897e+01 
 3.5050009196412432e+01  3.5508633917707606e+01  3.5973259682648766e+01  3.6443965014096257e+01 
 3.6920829462371167e+01  3.7403933618700485e+01  3.7893359128836217e+01  3.8389188706854718e+01 
 3.8891506149134521e+01  3.9400396348519216e+01  3.9915945308663566e+01  4.0438240158568753e+01 
 4.0967369167307801e+01  4.1503421758942281e+01  4.2046488527636328e+01  4.2596661252966108e+01 
 4.3154032915431962e+01  4.3718697712171142e+01  4.4290751072878571e+01  4.4870289675933428e+01 
 4.5457411464739302e+01  4.6052215664275600e+01  4.6654802797868051e+01  4.7265274704176122e+01 
 4.7883734554405294e+01  4.8510286869741897e+01  4.9145037539018844e+01  4.9788093836609839e+01 
 5.0439564440559515e+01  5.1099559450950863e+01  5.1768190408511146e+01  5.2445570313463939e+01 
 5.3131813644625062e+01  5.3827036378751174e+01  5.4531356010138651e+01  5.5244891570481947e+01 
 5.5967763648988630e+01  5.6700094412760890e+01  5.7442007627440418e+01  5.8193628678126721e+01 
 5.8955084590565882e+01  5.9726504052619866e+01  6.0508017436013390e+01  6.1299756818368749e+01 
 6.2101856005525548e+01  6.2914450554155913e+01  6.3737677794672422e+01  6.4571676854437854e+01 
 6.5416588681278725e+01  6.6272556067304336e+01  6.7139723673040635e+01  6.8018238051876480e+01 
 6.8908247674833333e+01  6.9809902955655275e+01  7.0723356276231286e+01  7.1648762012346168e+01 
 7.2586276559772372e+01  7.3536058360699286e+01  7.4498267930512341e+01  7.5473067884918478e+01 
 7.6460622967430638e+01  7.7461100077207689e+01  7.8474668297262994e+01  7.9501498923037843e+01 
 8.0541765491351640e+01  8.1595643809730973e+01  8.2663311986119382e+01  8.3744950458980412e+01 
 8.4840742027789801e+01  8.5950871883931370e+01  8.7075527641992394e+01  8.8214899371473408e+01 
 8.9369179628907887e+01  9.0538563490407256e+01  9.1723248584626717e+01  9.2923435126167519e+01 
 9.4139325949411074e+01  9.5371126542801122e+01  9.6619045083569048e+01  9.7883292472919152e+01 
 9.9164082371668513e+01  1.0046163123635915e+02  1.0177615835583715e+02  1.0310788588831403e+02 
 1.0445703889891313e+02  1.0582384539770362e+02  1.0720853637823771e+02  1.0861134585658603e+02 
 1.1003251091088998e+02  1.1147227172142553e+02  1.1293087161119718e+02  1.1440855708705712e+02 
 1.1590557788136860e+02  1.1742218699420812e+02 
  </PP_R>
  <PP_RAB>
 2.9566758253837379e-07  2.9953635363848385e-07  3.0345574709528419e-07  3.0742642529559771e-07 
 3.1144905929349091e-07  3.1552432892368380e-07  3.1965292291644300e-07  3.2383553901397989e-07 
 3.2807288408837018e-07  3.3236567426101647e-07  3.3671463502367535e-07  3.4112050136106663e-07 
 3.4558401787508775e-07  3.5010593891065315e-07  3.5468702868318080e-07  3.5932806140774507e-07 
 3.6402982142992269e-07  3.6879310335834824e-07  3.7361871219900459e-07  3.7850746349127120e-07 
 3.8346018344575225e-07  3.8847770908390798e-07  3.9356088837951341e-07  3.9871058040196831e-07 
 4.0392765546148055e-07  4.0921299525615272e-07  4.1456749302098953e-07  4.1999205367885781e-07 
 4.2548759399341944e-07  4.3105504272406765e-07  4.3669534078288886e-07  4.4240944139367962e-07 
 4.4819831025304354e-07  4.5406292569359515e-07  4.6000427884930273e-07  4.6602337382299049e-07 
 4.7212122785603497e-07  4.7829887150028134e-07  4.8455734879220891e-07  4.9089771742937573e-07 
 4.9732104894917263e-07  5.0382842890991354e-07  5.1042095707430090e-07  5.1709974759528483e-07 
 5.2386592920435988e-07  5.3072064540232211e-07  5.3766505465252372e-07  5.4470033057665641e-07 
 5.5182766215309615e-07  5.5904825391784287e-07  5.6636332616809130e-07  5.7377411516846091e-07 
 5.8128187335993209e-07  5.8888786957150809e-07  5.9659338923465193e-07  6.0439973460052611e-07 
 6.1230822496007799e-07  6.2032019686700070e-07  6.2843700436361660e-07  6.3666001920971022e-07 
 6.4499063111436276e-07  6.5343024797081367e-07  6.6198029609439903e-07  6.7064222046360128e-07 
 6.7941748496425533e-07  6.8830757263694769e-07  6.9731398592765428e-07  7.0643824694165739e-07 
 7.1568189770078568e-07  7.2504650040401688e-07  7.3453363769149722e-07  7.4414491291200850e-07 
 7.5388195039393878e-07  7.6374639571979763e-07  7.7373991600432331e-07  7.8386420017622983e-07 
 7.9412095926363917e-07  8.0451192668324837e-07  8.1503885853328301e-07  8.2570353389028107e-07 
 8.3650775510976120e-07  8.4745334813082392e-07  8.5854216278474200e-07  8.6977607310758392e-07 
 8.8115697765693221e-07  8.9268679983274352e-07  9.0436748820240740e-07  9.1620101683006041e-07 
 9.2818938561020369e-07  9.4033462060569593e-07  9.5263877439015771e-07  9.6510392639486424e-07 
 9.7773218326017182e-07  9.9052567919154778e-07  1.0034865763202549e-06  1.0166170650687542e-06 
 1.0299193645208973e-06  1.0433957227969521e-06  1.0570484174335421e-06  1.0708797557685563e-06 
 1.0848920753310926e-06  1.0990877442365079e-06  1.1134691615866343e-06  1.1280387578752331e-06 
 1.1427989953987543e-06  1.1577523686724711e-06  1.1729014048520553e-06  1.1882486641606780e-06 
 1.2037967403216909e-06  1.2195482609969708e-06  1.2355058882310016e-06  1.2516723189007674e-06 
 1.2680502851715298e-06  1.2846425549585674e-06  1.3014519323949665e-06  1.3184812583055218e-06 
 1.3357334106868436e-06  1.3532113051937463e-06  1.3709178956320004e-06  1.3888561744575340e-06 
 1.4070291732821624e-06  1.4254399633859414e-06  1.4440916562362175e-06  1.4629874040134768e-06 
 1.4821304001440645e-06  1.5015238798398902e-06  1.5211711206451812e-06  1.5410754429903954e-06 
 1.5612402107533839e-06  1.5816688318278923e-06  1.6023647586995058e-06  1.6233314890291212e-06 
 1.6445725662440686e-06  1.6660915801369529e-06  1.6878921674723395e-06  1.7099780126013758e-06 
 1.7323528480844547e-06  1.7550204553220274e-06  1.7779846651936676e-06  1.8012493587055013e-06 
 1.8248184676461041e-06  1.8486959752509849e-06  1.8728859168757569e-06  1.8973923806781303e-06 
 1.9222195083088160e-06  1.9473714956114742e-06  1.9728525933318235e-06  1.9986671078360260e-06 
 2.0248194018384750e-06  2.0513138951390996e-06  2.0781550653703281e-06  2.1053474487538142e-06 
 2.1328956408670702e-06  2.1608042974201304e-06  2.1890781350423787e-06  2.2177219320796659e-06 
 2.2467405294018680e-06  2.2761388312209986e-06  2.3059218059200362e-06  2.3360944868925915e-06 
 2.3666619733935639e-06  2.3976294314009230e-06  2.4290020944887780e-06  2.4607852647118627e-06 
 2.4929843135015920e-06  2.5256046825738448e-06  2.5586518848486361e-06  2.5921315053818060e-06 
 2.6260492023089094e-06  2.6604107078014541e-06  2.6952218290356511e-06  2.7304884491738453e-06 
 2.7662165283587753e-06  2.8024121047208626e-06  2.8390812953986582e-06  2.8762302975726648e-06 
 2.9138653895126674e-06  2.9519929316387786e-06  2.9906193675963678e-06  3.0297512253450420e-06 
 3.0693951182619014e-06  3.1095577462592032e-06  3.1502458969166730e-06  3.1914664466286110e-06 
 3.2332263617660274e-06  3.2755326998539739e-06  3.3183926107642799e-06  3.3618133379239030e-06 
 3.4058022195390740e-06  3.4503666898354864e-06  3.4955142803146867e-06  3.5412526210269245e-06 
 3.5875894418606379e-06  3.6345325738488363e-06  3.6820899504925535e-06  3.7302696091016337e-06 
 3.7790796921530576e-06  3.8285284486670280e-06  3.8786242356010922e-06  3.9293755192624725e-06 
 3.9807908767389054e-06  4.0328789973481719e-06  4.0856486841066324e-06  4.1391088552169458e-06 
 4.1932685455752708e-06  4.2481369082981849e-06  4.3037232162695753e-06  4.3600368637077936e-06 
 4.4170873677532885e-06  4.4748843700770300e-06  4.5334376385099706e-06  4.5927570686938394e-06 
 4.6528526857535241e-06  4.7137346459913399e-06  4.7754132386034754e-06  4.8378988874188787e-06 
 4.9012021526609220e-06  4.9653337327321004e-06  5.0303044660220888e-06  5.0961253327394422e-06 
 5.1628074567673008e-06  5.2303621075433350e-06  5.2988007019643088e-06  5.3681348063155780e-06 
 5.4383761382257918e-06  5.5095365686472264e-06  5.5816281238619938e-06  5.6546629875145098e-06 
 5.7286535026705587e-06  5.8036121739033088e-06  5.8795516694066066e-06  5.9564848231359354e-06 
 6.0344246369773890e-06  6.1133842829450009e-06  6.1933771054068783e-06  6.2744166233404050e-06 
 6.3565165326169977e-06  6.4396907083167252e-06  6.5239532070732445e-06  6.6093182694493989e-06 
 6.6958003223439077e-06  6.7834139814295464e-06  6.8721740536232263e-06  6.9620955395884082e-06 
 7.0531936362702398e-06  7.1454837394638878e-06  7.2389814464164466e-06  7.3337025584629229e-06 
 7.4296630836967035e-06  7.5268792396749460e-06  7.6253674561593959e-06  7.7251443778930466e-06 
 7.8262268674131520e-06  7.9286320079010266e-06  8.0323771060691519e-06  8.1374796950860316e-06 
 8.2439575375393734e-06  8.3518286284379723e-06  8.4611111982529396e-06  8.5718237159986794e-06 
 8.6839848923541869e-06  8.7976136828252266e-06  8.9127292909478379e-06  9.0293511715337802e-06 
 9.1474990339584342e-06  9.2671928454917621e-06  9.3884528346727921e-06  9.5112994947283111e-06 
 9.6357535870362535e-06  9.7618361446344286e-06  9.8895684757751591e-06  1.0018972167526424e-05 
 1.0150069089420131e-05  1.0282881397148091e-05  1.0417431536306423e-05  1.0553742246188885e-05 
 1.0691836563629880e-05  1.0831737826897737e-05  1.0973469679638923e-05  1.1117056074873883e-05 
 1.1262521279045169e-05  1.1409889876118506e-05  1.1559186771737544e-05  1.1710437197432989e-05 
 1.1863666714886776e-05  1.2018901220252048e-05  1.2176166948529699e-05  1.2335490478002102e-05 
 1.2496898734724947e-05  1.2660418997077789e-05  1.2826078900374163e-05  1.2993906441532006e-05 
 1.3163929983805219e-05  1.3336178261577126e-05  1.3510680385216630e-05  1.3687465845997969e-05 
 1.3866564521084771e-05  1.4048006678579400e-05  1.4231822982638321e-05  1.4418044498654434e-05 
 1.4606702698507150e-05  1.4797829465881281e-05  1.4991457101655413e-05  1.5187618329360841e-05 
 1.5386346300711937e-05  1.5587674601208843e-05  1.5791637255813526e-05  1.5998268734700066e-05 
 1.6207603959080196e-05  1.6419678307105074e-05  1.6634527619844296e-05  1.6852188207343035e-05 
 1.7072696854758659e-05  1.7296090828577405e-05  1.7522407882912551e-05  1.7751686265884936e-05 
 1.7983964726086984e-05  1.8219282519131319e-05  1.8457679414285038e-05  1.8699195701190850e-05 
 1.8943872196676046e-05  1.9191750251650729e-05  1.9442871758096162e-05  1.9697279156144623e-05 
 1.9955015441251909e-05  2.0216124171463629e-05  2.0480649474776660e-05  2.0748636056596859e-05 
 2.1020129207294398e-05  2.1295174809857896e-05  2.1573819347648832e-05  2.1856109912257297e-05 
 2.2142094211460592e-05  2.2431820577285950e-05  2.2725337974178775e-05  2.3022696007277732e-05 
 2.3323944930798172e-05  2.3629135656525178e-05  2.3938319762417743e-05  2.4251549501325676e-05 
 2.4568877809820366e-05  2.4890358317141221e-05  2.5216045354259130e-05  2.5545993963058541e-05 
 2.5880259905639646e-05  2.6218899673742330e-05  2.6561970498293408e-05  2.6909530359078743e-05 
 2.7261637994542042e-05  2.7618352911711755e-05  2.7979735396257898e-05  2.8345846522680489e-05 
 2.8716748164631265e-05  2.9092503005370509e-05  2.9473174548360626e-05  2.9858827127998455e-05 
 3.0249525920487781e-05  3.0645336954854469e-05  3.1046327124105392e-05  3.1452564196533557e-05 
 3.1864116827171078e-05  3.2281054569392067e-05  3.2703447886667318e-05  3.3131368164472790e-05 
 3.3564887722353952e-05  3.4004079826147837e-05  3.4449018700365334e-05  3.4899779540735198e-05 
 3.5356438526912298e-05  3.5819072835352187e-05  3.6287760652354112e-05  3.6762581187274662e-05 
 3.7243614685914360e-05  3.7730942444079421e-05  3.8224646821320794e-05  3.8724811254853324e-05 
 3.9231520273656715e-05  3.9744859512761174e-05  4.0264915727719902e-05  4.0791776809271005e-05 
 4.1325531798191253e-05  4.1866270900344158e-05  4.2414085501925029e-05  4.2969068184905321e-05 
 4.3531312742679397e-05  4.4100914195915727e-05  4.4677968808615599e-05  4.5262574104382023e-05 
 4.5854828882901388e-05  4.6454833236640898e-05  4.7062688567764389e-05  4.7678497605269632e-05 
 4.8302364422349562e-05  4.8934394453981166e-05  4.9574694514744086e-05  5.0223372816872565e-05 
 5.0880538988543576e-05  5.1546304092404263e-05  5.2220780644341749e-05  5.2904082632498649e-05 
 5.3596325536537329e-05  5.4297626347156065e-05  5.5008103585861073e-05  5.5727877324996705e-05 
 5.6457069208038001e-05  5.7195802470148738e-05  5.7944201959008469e-05  5.8702394155912087e-05 
 5.9470507197145419e-05  6.0248670895640695e-05  6.1037016762914941e-05  6.1835678031296127e-05 
 6.2644789676439492e-05  6.3464488440138840e-05  6.4294912853436197e-05  6.5136203260033893e-05 
 6.5988501840012992e-05  6.6851952633862081e-05  6.7726701566820461e-05  6.8612896473539675e-05 
 6.9510687123068259e-05  7.0420225244162792e-05  7.1341664550930541e-05  7.2275160768807455e-05 
 7.3220871660876189e-05  7.4178957054528354e-05  7.5149578868475826e-05  7.6132901140115404e-05 
 7.7129090053251273e-05  7.8138313966180829e-05  7.9160743440147424e-05  8.0196551268165627e-05 
 8.1245912504223698e-05  8.2309004492868115e-05  8.3386006899175219e-05  8.4477101739115055e-05 
 8.5582473410312560e-05  8.6702308723210866e-05  8.7836796932643307e-05  8.8986129769817428e-05 
 9.0150501474718233e-05  9.1330108828935197e-05  9.2525151188918751e-05  9.3735830519672033e-05 
 9.4962351428883488e-05  9.6204921201506070e-05  9.7463749834788660e-05  9.8739050073766495e-05 
 1.0003103744721527e-04  1.0133993030407618e-04  1.0266594985035730e-04  1.0400932018651803e-04 
 1.0537026834534253e-04  1.0674902433030884e-04  1.0814582115446004e-04  1.0956089487978377e-04 
 1.1099448465710774e-04  1.1244683276651636e-04  1.1391818465829686e-04  1.1540878899442089e-04 
 1.1691889769056912e-04  1.1844876595870528e-04  1.1999865235020800e-04  1.2156881879956642e-04 
 1.2315953066864742e-04  1.2477105679154299e-04  1.2640366952000354e-04  1.2805764476946592e-04 
 1.2973326206568395e-04  1.3143080459196874e-04  1.3315055923704766e-04  1.3489281664354880e-04 
 1.3665787125712083e-04  1.3844602137619410e-04  1.4025756920239490e-04  1.4209282089161748e-04 
 1.4395208660576540e-04  1.4583568056516957e-04  1.4774392110169230e-04  1.4967713071252603e-04 
 1.5163563611469624e-04  1.5361976830027745e-04  1.5562986259233121e-04  1.5766625870157716e-04 
 1.5972930078380463e-04  1.6181933749803573e-04  1.6393672206544972e-04  1.6608181232907802e-04 
 1.6825497081428072e-04  1.7045656479001411e-04  1.7268696633090030e-04  1.7494655238010792e-04 
 1.7723570481305753e-04  1.7955481050195869e-04  1.8190426138119245e-04  1.8428445451354938e-04 
 1.8669579215733396e-04  1.8913868183434714e-04  1.9161353639875873e-04  1.9412077410688058e-04 
 1.9666081868785257e-04  1.9923409941525458e-04  2.0184105117965420e-04  2.0448211456210443e-04 
 2.0715773590860285e-04  2.0986836740552524e-04  2.1261446715604624e-04  2.1539649925755958e-04 
 2.1821493388011215e-04  2.2107024734586292e-04  2.2396292220958370e-04  2.2689344734021133e-04 
 2.2986231800346780e-04  2.3287003594556143e-04  2.3591710947798306e-04  2.3900405356341202e-04 
 2.4213138990274600e-04  2.4529964702326985e-04  2.4850936036797732e-04  2.5176107238606332e-04 
 2.5505533262459818e-04  2.5839269782140301e-04  2.6177373199913934e-04  2.6519900656063027e-04 
 2.6866910038542927e-04  2.7218459992765185e-04  2.7574609931508811e-04  2.7935420044961079e-04 
 2.8300951310889942e-04  2.8671265504949349e-04  2.9046425211119487e-04  2.9426493832283596e-04 
 2.9811535600943266e-04  3.0201615590073834e-04  3.0596799724121894e-04  3.0997154790146696e-04 
 3.1402748449107235e-04  3.1813649247297251e-04  3.2229926627929626e-04  3.2651650942872463e-04 
 3.3078893464538733e-04  3.3511726397931482e-04  3.3950222892846623e-04  3.4394457056235479e-04 
 3.4844503964728997e-04  3.5300439677325815e-04  3.5762341248246561e-04  3.6230286739956103e-04 
 3.6704355236356277e-04  3.7184626856151309e-04  3.7671182766388042e-04  3.8164105196173353e-04 
 3.8663477450571088e-04  3.9169383924680809e-04  3.9681910117900693e-04  4.0201142648377291e-04 
 4.0727169267644068e-04  4.1260078875451683e-04  4.1799961534792226e-04  4.2346908487120110e-04 
 4.2901012167772043e-04  4.3462366221588893e-04  4.4031065518741871e-04  4.4607206170765672e-04 
 4.5190885546801793e-04  4.5782202290054012e-04  4.6381256334459317e-04  4.6988148921577017e-04 
 4.7602982617698809e-04  4.8225861331182695e-04  4.8856890330013759e-04  4.9496176259594769e-04 
 5.0143827160769303e-04  5.0799952488081164e-04  5.1464663128272293e-04  5.2138071419022996e-04 
 5.2820291167937161e-04  5.3511437671776121e-04  5.4211627735944003e-04  5.4920979694228185e-04 
 5.5639613428797963e-04  5.6367650390464841e-04  5.7105213619208165e-04  5.7852427764969064e-04 
 5.8609419108716628e-04  5.9376315583789627e-04  6.0153246797517684e-04  6.0940344053125059e-04 
 6.1737740371921334e-04  6.2545570515782311e-04  6.3363971009924901e-04  6.4193080165980557e-04 
 6.5033038105369995e-04  6.5883986782984167e-04  6.6746070011174932e-04  6.7619433484059695e-04 
 6.8504224802144037e-04  6.9400593497266638e-04  7.0308691057870457e-04  7.1228670954604498e-04 
 7.2160688666260972e-04  7.3104901706051468e-04  7.4061469648227041e-04  7.5030554155046609e-04 
 7.6012319004098374e-04  7.7006930115978490e-04  7.8014555582332161e-04  7.9035365694261482e-04 
 8.0069532971104908e-04  8.1117232189593664e-04  8.2178640413389347e-04  8.3253937023007975e-04 
 8.4343303746135941e-04  8.5446924688342208e-04  8.6564986364192763e-04  8.7697677728771890e-04 
 8.8845190209616161e-04  9.0007717739065999e-04  9.1185456787040806e-04  9.2378606394242840e-04 
 9.3587368205795681e-04  9.4811946505322117e-04  9.6052548249469583e-04  9.7309383102885550e-04 
 9.8582663473651658e-04  9.9872604549181097e-04  1.0117942433258576e-03  1.0250334367951951e-03 
 1.0384458633550292e-03  1.0520337897373722e-03  1.0657995123341229e-03  1.0797453575851642e-03 
 1.0938736823715358e-03  1.1081868744137531e-03  1.1226873526753386e-03  1.1373775677716305e-03 
 1.1522600023839444e-03  1.1673371716791516e-03  1.1826116237347501e-03  1.1980859399694877e-03 
 1.2137627355796408e-03  1.2296446599809792e-03  1.2457343972565279e-03  1.2620346666101813e-03 
 1.2785482228262564e-03  1.2952778567350575e-03  1.3122263956845332e-03  1.3293967040181058e-03 
 1.3467916835587501e-03  1.3644142740994100e-03  1.3822674538998313e-03  1.4003542401898916e-03 
 1.4186776896795224e-03  1.4372408990752995e-03  1.4560470056037922e-03  1.4750991875417652e-03 
 1.4944006647533139e-03  1.5139546992340215e-03  1.5337645956622582e-03  1.5538337019576701e-03 
 1.5741654098469873e-03  1.5947631554372346e-03  1.6156304197964412e-03  1.6367707295419506e-03 
 1.6581876574364247e-03  1.6798848229916527e-03  1.7018658930802550e-03  1.7241345825553930e-03 
 1.7466946548785902e-03  1.7695499227557640e-03  1.7927042487815834e-03  1.8161615460922564e-03 
 1.8399257790268594e-03  1.8640009637973193e-03  1.8883911691671667e-03  1.9131005171391542e-03 
 1.9381331836519021e-03  1.9634933992856317e-03  1.9891854499771446e-03  2.0152136777441577e-03 
 2.0415824814191130e-03  2.0682963173925921e-03  2.0953597003664551e-03  2.1227772041168399e-03 
 2.1505534622671351e-03  2.1786931690710785e-03  2.2072010802060955e-03  2.2360820135770196e-03 
 2.2653408501303301e-03  2.2949825346790420e-03  2.3250120767383960e-03  2.3554345513724716e-03 
 2.3862551000518963e-03  2.4174789315227433e-03  2.4491113226868511e-03  2.4811576194936152e-03 
 2.5136232378434693e-03  2.5465136645031841e-03  2.5798344580331496e-03  2.6135912497267789e-03 
 2.6477897445622111e-03  2.6824357221664702e-03  2.7175350377922321e-03  2.7530936233073774e-03 
 2.7891174881974905e-03  2.8256127205814785e-03  2.8625854882404762e-03  2.9000420396602168e-03 
 2.9379887050870416e-03  2.9764318975977226e-03  3.0153781141832986e-03  3.0548339368470581e-03 
 3.0948060337169453e-03  3.1353011601724682e-03  3.1763261599863806e-03  3.2178879664812939e-03 
 3.2599936037014275e-03  3.3026501875996861e-03  3.3458649272402768e-03  3.3896451260170529e-03 
 3.4339981828878092e-03  3.4789315936247216e-03  3.5244529520811504e-03  3.5705699514750199e-03 
 3.6172903856889903e-03  3.6646221505876428e-03  3.7125732453519001e-03  3.7611517738309059e-03 
 3.8103659459116012e-03  3.8602240789061869e-03  3.9107345989578164e-03  3.9619060424645955e-03 
 4.0137470575222706e-03  4.0662664053857725e-03  4.1194729619498938e-03  4.1733757192493276e-03 
 4.2279837869783534e-03  4.2833063940303879e-03  4.3393528900576980e-03  4.3961327470515062e-03 
 4.4536555609427887e-03  4.5119310532240010e-03  4.5709690725920403e-03  4.6307795966126974e-03 
 4.6913727334068848e-03  4.7527587233589380e-03  4.8149479408472733e-03  4.8779508959976466e-03 
 4.9417782364594371e-03  5.0064407492050999e-03  5.0719493623531909e-03  5.1383151470152507e-03 
 5.2055493191668434e-03  5.2736632415430864e-03  5.3426684255589788e-03  5.4125765332548575e-03 
 5.4833993792673119e-03  5.5551489328258844e-03  5.6278373197758960e-03  5.7014768246277468e-03 
 5.7760798926330256e-03  5.8516591318877893e-03  5.9282273154633563e-03  6.0057973835649908e-03 
 6.0843824457188379e-03  6.1639957829874208e-03  6.2446508502142332e-03  6.3263612782976054e-03 
 6.4091408764943604e-03  6.4930036347536210e-03  6.5779637260811293e-03  6.6640355089345365e-03 
 6.7512335296500024e-03  6.8395725249005687e-03  6.9290674241866863e-03  7.0197333523593424e-03 
 7.1115856321761917e-03  7.2046397868911431e-03  7.2989115428778156e-03  7.3944168322873519e-03 
 7.4911717957409710e-03  7.5891927850577834e-03  7.6884963660182985e-03  7.7890993211640214e-03 
 7.8910186526338320e-03  7.9942715850373249e-03  8.0988755683658303e-03  8.2048482809414930e-03 
 8.3122076324049707e-03  8.4209717667421830e-03  8.5311590653507005e-03  8.6427881501462481e-03 
 8.7558778867098397e-03  8.8704473874761224e-03  8.9865160149634141e-03  9.1041033850460095e-03 
 9.2232293702693251e-03  9.3439141032083933e-03  9.4661779798703247e-03  9.5900416631412733e-03 
 9.7155260862785385e-03  9.8426524564482563e-03  9.9714422583095826e-03  1.0101917257645558e-02 
 1.0234099505041616e-02  1.0368011339612172e-02  1.0503675392775993e-02  1.0641114592080957e-02 
 1.0780352165078865e-02  1.0921411643250953e-02  1.1064316865984766e-02  1.1209091984603075e-02 
 1.1355761466445504e-02  1.1504350099003574e-02  1.1654882994109845e-02  1.1807385592181864e-02 
 1.1961883666521685e-02  1.2118403327671588e-02  1.2276971027826860e-02  1.2437613565306196e-02 
 1.2600358089080789e-02  1.2765232103362506e-02  1.2932263472252181e-02  1.3101480424448702e-02 
 1.3272911558019752e-02  1.3446585845234914e-02  1.3622532637462100e-02  1.3800781670127962e-02 
 1.3981363067743269e-02  1.4164307348994026e-02  1.4349645431899182e-02  1.4537408639035871e-02 
 1.4727628702832996e-02  1.4920337770934086e-02  1.5115568411630306e-02  1.5313353619364610e-02 
 1.5513726820307872e-02  1.5716721878007916e-02  1.5922373099112659e-02  1.6130715239167939e-02 
 1.6341783508491303e-02  1.6555613578122626e-02  1.6772241585852617e-02  1.6991704142330172e-02 
 1.7214038337249674e-02  1.7439281745619258e-02  1.7667472434111025e-02  1.7898648967494452e-02 
 1.8132850415153900e-02  1.8370116357691445e-02  1.8610486893616097e-02  1.8854002646120530e-02 
 1.9100704769946505e-02  1.9350634958340125e-02  1.9603835450098125e-02  1.9860349036706183e-02 
 2.0120219069570996e-02  2.0383489467346631e-02  2.0650204723356928e-02  2.0920409913114956e-02 
 2.1194150701940900e-02  2.1471473352679599e-02  2.1752424733519089e-02  2.2037052325911410e-02 
 2.2325404232597140e-02  2.2617529185734789e-02  2.2913476555136741e-02  2.3213296356612800e-02 
 2.3517039260423020e-02  2.3824756599841072e-02  2.4136500379829732e-02  2.4452323285829781e-02 
 2.4772278692664081e-02  2.5096420673557811e-02  2.5424804009277286e-02  2.5757484197387822e-02 
 2.6094517461633025e-02  2.6435960761436710e-02  2.6781871801529224e-02  2.7132309041699647e-02 
 2.7487331706675631e-02  2.7846999796132556e-02  2.8211374094833583e-02  2.8580516182902433e-02 
 2.8954488446230588e-02  2.9333354087020640e-02  2.9717177134467618e-02  3.0106022455580073e-02 
 3.0499955766142769e-02  3.0899043641822794e-02  3.1303353529421055e-02  3.1712953758270740e-02 
 3.2127913551785466e-02  3.2548303039157997e-02  3.2974193267212244e-02  3.3405656212410428e-02 
 3.3842764793017198e-02  3.4285592881423042e-02  3.4734215316628882e-02  3.5188707916894019e-02 
 3.5649147492549639e-02  3.6115611858979921e-02  3.6588179849773021e-02  3.7066931330044135e-02 
 3.7551947209932914e-02  3.8043309458277441e-02  3.8541101116467170e-02  3.9045406312477132e-02 
 3.9556310275085819e-02  4.0073899348278770e-02  4.0598261005841331e-02  4.1129483866141681e-02 
 4.1667657707107550e-02  4.2212873481398974e-02  4.2765223331779484e-02  4.3324800606688425e-02 
 4.3891699876017112e-02  4.4466016947091347e-02  4.5047848880863064e-02  4.5637294008313872e-02 
 4.6234451947073277e-02  4.6839423618254196e-02  4.7452311263508962e-02  4.8073218462308345e-02 
 4.8702250149446770e-02  4.9339512632776528e-02  4.9985113611174109e-02  5.0639162192741317e-02 
 5.1301768913245192e-02  5.1973045754798580e-02  5.2653106164785413e-02  5.3342065075033571e-02 
 5.4040038921238688e-02  5.4747145662642008e-02  5.5463504801965838e-02  5.6189237405609688e-02 
 5.6924466124110923e-02  5.7669315212872857e-02  5.8423910553164302e-02  5.9188379673393819e-02 
 5.9962851770662198e-02  6.0747457732597196e-02  6.1542330159473836e-02  6.2347603386624137e-02 
 6.3163413507140206e-02  6.3989898394873901e-02  6.4827197727738484e-02  6.5675453011314069e-02 
 6.6534807602762480e-02  6.7405406735055046e-02  6.8287397541517206e-02  6.9180929080694523e-02 
 7.0086152361543766e-02  7.1003220368953929e-02  7.1932288089600976e-02  7.2873512538140978e-02 
 7.3827052783745947e-02  7.4793069976986884e-02  7.5771727377068665e-02  7.6763190379421226e-02 
 7.7767626543651727e-02  7.8785205621862586e-02  7.9816099587340067e-02  8.0860482663617728e-02 
 8.1918531353921298e-02  8.2990424470997734e-02  8.4076343167334977e-02  8.5176470965777351e-02 
 8.6290993790541171e-02  8.7420099998636508e-02  8.8563980411699911e-02  8.9722828348243744e-02 
 9.0896839656327416e-02  9.2086212746656293e-02  9.3291148626113457e-02  9.4511850931730368e-02 
 9.5748525965102110e-02  9.7001382727252700e-02  9.8270632953956896e-02  9.9556491151523888e-02 
 1.0085917463304978e-01  1.0217890355514304e-01  1.0351590095513280e-01  1.0487039278876185e-01 
 1.0624260796837387e-01  1.0763277840160025e-01  1.0904113903055290e-01  1.1046792787153019e-01 
 1.1191338605524212e-01  1.1337775786756205e-01  1.1486129079081166e-01  1.1636423554558588e-01 
 1.1788684613312546e-01  1.1942937987824363e-01  1.2099209747281468e-01  1.2257526301983156e-01 
 1.2417914407803976e-01  1.2580401170715552e-01  1.2745014051367576e-01  1.2911780869728623e-01 
 1.3080729809787942e-01  1.3251889424318516e-01  1.3425288639702582e-01  1.3600956760820240e-01 
 1.3778923476002072e-01  1.3959218862046519e-01  1.4141873389302942e-01  1.4326917926821184e-01 
 1.4514383747568510e-01  1.4704302533714814e-01  1.4896706381986974e-01  1.5091627809093297e-01 
 1.5289099757218888e-01  1.5489155599592985e-01  1.5691829146129102e-01  1.5897154649138986e-01 
 1.6105166809121374e-01  1.6315900780626325e-01  1.6529392178196625e-01  1.6745677082386592e-01 
 1.6964792045859817e-01  1.7186774099566637e-01  1.7411660759002465e-01  1.7639490030548008e-01 
 1.7870300417892404e-01  1.8104130928540466e-01  1.8341021080405032e-01  1.8581010908485593e-01 
 1.8824140971634296e-01  1.9070452359410475e-01  1.9319986699024919e-01  1.9572786162374933e-01 
 1.9828893473171516e-01  2.0088351914159785e-01  2.0351205334433736e-01  2.0617498156847036e-01 
 2.0887275385520487e-01  2.1160582613447829e-01  2.1437466030201077e-01  2.1717972429736665e-01 
 2.2002149218303763e-01  2.2290044422455996e-01  2.2581706697168086e-01  2.2877185334058642e-01 
 2.3176530269720566e-01  2.3479792094160459e-01  2.3787022059348442e-01  2.4098272087879866e-01 
 2.4413594781750367e-01  2.4733043431245694e-01  2.5056672023947940e-01  2.5384535253859580e-01 
 2.5716688530646731e-01  2.6053187989003768e-01  2.6394090498140055e-01  2.6739453671391011e-01 
 2.7089335875954923e-01  2.7443796242757112e-01  2.7802894676443213e-01  2.8166691865503213e-01 
 2.8535249292527937e-01  2.8908629244599748e-01  2.9286894823819237e-01  2.9670109957969587e-01 
 3.0058339411320567e-01  3.0451648795573816e-01  3.0850104580951387e-01  3.1253774107429383e-01 
 3.1662725596118529e-01  3.2077028160793830e-01  3.2496751819574671e-01  3.2921967506758443e-01 
 3.3352747084808326e-01  3.3789163356498292e-01  3.4231290077216991e-01  3.4679201967432521e-01 
 3.5132974725320415e-01  3.5592685039556754e-01  3.6058410602278818e-01  3.6530230122215163e-01 
 3.7008223337987650e-01  3.7492471031587404e-01  3.7983055042027214e-01  3.8480058279172463e-01 
 3.8983564737753162e-01  3.9493659511559193e-01  4.0010428807821402e-01  4.0533959961780902e-01 
 4.1064341451448616e-01  4.1601662912558729e-01  4.2146015153717054e-01  4.2697490171747937e-01 
 4.3256181167242008e-01  4.3822182560307238e-01  4.4395590006526198e-01  4.4976500413122067e-01 
 4.5565011955336160e-01  4.6161224093019887e-01  4.6765237587443392e-01  4.7377154518325132e-01 
 4.7997078301082513e-01  4.8625113704310630e-01  4.9261366867487077e-01  4.9905945318911132e-01 
 5.0558957993874876e-01  5.1220515253074983e-01  5.1890728901262639e-01  5.2569712206139374e-01 
 5.3257579917500142e-01  5.3954448286624968e-01  5.4660435085927228e-01  5.5375659628855933e-01 
 5.6100242790061550e-01  5.6834307025822484e-01  5.7577976394742136e-01  5.8331376578713456e-01 
 5.9094634904161092e-01  5.9867880363558279e-01  6.0651243637228458e-01  6.1444857115428952e-01 
 6.2248854920726882e-01  6.3063372930664463e-01  6.3888548800724498e-01  6.4724521987592787e-01 
 6.5571433772727361e-01  6.6429427286236120e-01  6.7298647531064482e-01  6.8179241407503122e-01 
 6.9071357738012573e-01  6.9975147292376527e-01  7.0890762813180241e-01  7.1818359041626523e-01 
 7.2758092743685210e-01  7.3710122736589156e-01  7.4674609915672541e-01  7.5651717281564734e-01 
 7.6641609967735647e-01  7.7644455268405821e-01  7.8660422666817398e-01  7.9689683863879368e-01 
 8.0732412807183207e-01  8.1788785720402679e-01  8.2858981133074150e-01  8.3943179910769206e-01 
 8.5041565285662335e-01  8.6154322887495638e-01  8.7281640774952818e-01  8.8423709467439415e-01 
 8.9580721977283329e-01  9.0752873842351856e-01  9.1940363159100669e-01  9.3143390616050015e-01 
 9.4362159527704081e-01  9.5596875868909070e-01  9.6847748309666037e-01  9.8114988250394020e-01 
 9.9398809857659820e-01  1.0069943010036999e+00  1.0201706878644188e+00  1.0335194859994918e+00 
 1.0470429513875712e+00  1.0607433695265025e+00  1.0746230558195520e+00  1.0886843559667454e+00 
 1.1029296463612674e+00  1.1173613344911077e+00  1.1319818593459010e+00  1.1467936918291541e+00 
 1.1617993351758025e+00  1.1770013253752942e+00  1.1924022316001472e+00  1.2080046566401776e+00 
 1.2238112373423440e+00  1.2398246450564145e+00  1.2560475860863975e+00  1.2724828021479488e+00 
 1.2891330708316906e+00  1.3060012060726689e+00  1.3230900586258829e+00  1.3404025165480824e+00 
 1.3579415056858706e+00  1.3757099901701471e+00  1.3937109729170902e+00  1.4119474961356182e+00 
 1.4304226418415698e+00  1.4491395323785319e+00  1.4681013309455633e+00  1.4873112421317425e+00 
 1.5067725124577918e+00  1.5264884309247055e+00 
  </PP_RAB>
</PP_MESH>


<PP_LOCAL>
6.5781973988956537e+01 6.5781973988610787e+01 6.5781973988352277e+01 6.5781973988110877e+01 
6.5781973987673084e+01 6.5781973987403816e+01 6.5781973987048389e+01 6.5781973986778695e+01 
6.5781973986414471e+01 6.5781973986037755e+01 6.5781973985682811e+01 6.5781973985334403e+01 
6.5781973984940095e+01 6.5781973984567486e+01 6.5781973984042622e+01 6.5781973983658389e+01 
6.5781973983256108e+01 6.5781973982706631e+01 6.5781973982368896e+01 6.5781973981879645e+01 
6.5781973981458364e+01 6.5781973980927589e+01 6.5781973980405752e+01 6.5781973979860865e+01 
6.5781973979455174e+01 6.5781973978805027e+01 6.5781973978317211e+01 6.5781973977687585e+01 
6.5781973977078806e+01 6.5781973976508397e+01 6.5781973975878714e+01 6.5781973975279371e+01 
6.5781973974611333e+01 6.5781973973965151e+01 6.5781973973181167e+01 6.5781973972547434e+01 
6.5781973971844096e+01 6.5781973971067686e+01 6.5781973970304449e+01 6.5781973969532856e+01 
6.5781973968687055e+01 6.5781973967913316e+01 6.5781973967096306e+01 6.5781973966150332e+01 
6.5781973965302512e+01 6.5781973964410554e+01 6.5781973963463258e+01 6.5781973962506044e+01 
6.5781973961460025e+01 6.5781973960506420e+01 6.5781973959476005e+01 6.5781973958427230e+01 
6.5781973957279277e+01 6.5781973956154729e+01 6.5781973955051114e+01 6.5781973953819389e+01 
6.5781973952572557e+01 6.5781973951333029e+01 6.5781973950050713e+01 6.5781973948779509e+01 
6.5781973947388110e+01 6.5781973946014418e+01 6.5781973944591613e+01 6.5781973943113172e+01 
6.5781973941619711e+01 6.5781973940100031e+01 6.5781973938513190e+01 6.5781973936887766e+01 
6.5781973935234475e+01 6.5781973933542659e+01 6.5781973931790958e+01 6.5781973930002337e+01 
6.5781973928155622e+01 6.5781973926238592e+01 6.5781973924281232e+01 6.5781973922370653e+01 
6.5781973920242820e+01 6.5781973918182445e+01 6.5781973915997938e+01 6.5781973913794332e+01 
6.5781973911514655e+01 6.5781973909183705e+01 6.5781973906797731e+01 6.5781973904342507e+01 
6.5781973901797912e+01 6.5781973899233734e+01 6.5781973896554163e+01 6.5781973893856033e+01 
6.5781973891051848e+01 6.5781973888198365e+01 6.5781973885256946e+01 6.5781973882244685e+01 
6.5781973879104697e+01 6.5781973875926553e+01 6.5781973872657545e+01 6.5781973869304252e+01 
6.5781973865885789e+01 6.5781973862316462e+01 6.5781973858682335e+01 6.5781973854971582e+01 
6.5781973851137536e+01 6.5781973847233559e+01 6.5781973843219987e+01 6.5781973839065742e+01 
6.5781973834835895e+01 6.5781973830487530e+01 6.5781973826029443e+01 6.5781973821431023e+01 
6.5781973816724985e+01 6.5781973811926392e+01 6.5781973806934744e+01 6.5781973801863131e+01 
6.5781973796646099e+01 6.5781973791284599e+01 6.5781973785766553e+01 6.5781973780147666e+01 
6.5781973774346355e+01 6.5781973768411348e+01 6.5781973762311850e+01 6.5781973756006394e+01 
6.5781973749586527e+01 6.5781973742985869e+01 6.5781973736220749e+01 6.5781973729263669e+01 
6.5781973722143178e+01 6.5781973714818520e+01 6.5781973707306264e+01 6.5781973699586260e+01 
6.5781973691676100e+01 6.5781973683539547e+01 6.5781973675216634e+01 6.5781973666631430e+01 
6.5781973657877060e+01 6.5781973648828085e+01 6.5781973639603493e+01 6.5781973630076095e+01 
6.5781973620327022e+01 6.5781973610342064e+01 6.5781973600070174e+01 6.5781973589516880e+01 
6.5781973578705362e+01 6.5781973567591947e+01 6.5781973556224074e+01 6.5781973544498172e+01 
6.5781973532490710e+01 6.5781973520185346e+01 6.5781973507526672e+01 6.5781973494553895e+01 
6.5781973481218472e+01 6.5781973467544915e+01 6.5781973453515448e+01 6.5781973439108882e+01 
6.5781973424318267e+01 6.5781973409148790e+01 6.5781973393587677e+01 6.5781973377590347e+01 
6.5781973361184072e+01 6.5781973344365241e+01 6.5781973327067575e+01 6.5781973309335257e+01 
6.5781973291115790e+01 6.5781973272439288e+01 6.5781973253255401e+01 6.5781973233578341e+01 
6.5781973213375423e+01 6.5781973192633487e+01 6.5781973171343722e+01 6.5781973149501809e+01 
6.5781973127077919e+01 6.5781973104063638e+01 6.5781973080443692e+01 6.5781973056208827e+01 
6.5781973031323759e+01 6.5781973005784920e+01 6.5781972979582662e+01 6.5781972952671808e+01 
6.5781972925061638e+01 6.5781972896717107e+01 6.5781972867636298e+01 6.5781972837775584e+01 
6.5781972807122301e+01 6.5781972775679591e+01 6.5781972743399834e+01 6.5781972710260547e+01 
6.5781972676248259e+01 6.5781972641343231e+01 6.5781972605526761e+01 6.5781972568753076e+01 
6.5781972531012471e+01 6.5781972492262724e+01 6.5781972452511809e+01 6.5781972411706121e+01 
6.5781972369821389e+01 6.5781972326833440e+01 6.5781972282711450e+01 6.5781972237419410e+01 
6.5781972190937609e+01 6.5781972143229837e+01 6.5781972094257071e+01 6.5781972043997825e+01 
6.5781971992417454e+01 6.5781971939464754e+01 6.5781971885111375e+01 6.5781971829335063e+01 
6.5781971772084802e+01 6.5781971713317432e+01 6.5781971653007361e+01 6.5781971591100799e+01 
6.5781971527555356e+01 6.5781971462339015e+01 6.5781971395397136e+01 6.5781971326686161e+01 
6.5781971256174074e+01 6.5781971183786226e+01 6.5781971109499651e+01 6.5781971033243707e+01 
6.5781970954968173e+01 6.5781970874645864e+01 6.5781970792187735e+01 6.5781970707555303e+01 
6.5781970620685925e+01 6.5781970531526071e+01 6.5781970440010738e+01 6.5781970346075198e+01 
6.5781970249663203e+01 6.5781970150710507e+01 6.5781970049135282e+01 6.5781969944884224e+01 
6.5781969837871898e+01 6.5781969728042341e+01 6.5781969615306096e+01 6.5781969499593089e+01 
6.5781969380819589e+01 6.5781969258913264e+01 6.5781969133786731e+01 6.5781969005352892e+01 
6.5781968873523994e+01 6.5781968738213735e+01 6.5781968599328607e+01 6.5781968456773541e+01 
6.5781968310450608e+01 6.5781968160268150e+01 6.5781968006109281e+01 6.5781967847880097e+01 
6.5781967685472807e+01 6.5781967518765043e+01 6.5781967347655680e+01 6.5781967172017161e+01 
6.5781966991746160e+01 6.5781966806704915e+01 6.5781966616771413e+01 6.5781966421822204e+01 
6.5781966221712707e+01 6.5781966016313604e+01 6.5781965805486564e+01 6.5781965589084223e+01 
6.5781965366958431e+01 6.5781965138959833e+01 6.5781964904929168e+01 6.5781964664711779e+01 
6.5781964418141854e+01 6.5781964165052543e+01 6.5781963905260369e+01 6.5781963638602889e+01 
6.5781963364889180e+01 6.5781963083935025e+01 6.5781962795545724e+01 6.5781962499528191e+01 
6.5781962195680620e+01 6.5781961883786963e+01 6.5781961563644572e+01 6.5781961235027609e+01 
6.5781960897714882e+01 6.5781960551471030e+01 6.5781960196067402e+01 6.5781959831254170e+01 
6.5781959456780569e+01 6.5781959072397868e+01 6.5781958677833813e+01 6.5781958272824511e+01 
6.5781957857090077e+01 6.5781957430346267e+01 6.5781956992305055e+01 6.5781956542655863e+01 
6.5781956081096666e+01 6.5781955607319404e+01 6.5781955120983454e+01 6.5781954621767213e+01 
6.5781954109323863e+01 6.5781953583300364e+01 6.5781953043339811e+01 6.5781952489071045e+01 
6.5781951920110899e+01 6.5781951336070122e+01 6.5781950736550229e+01 6.5781950121134273e+01 
6.5781949489405648e+01 6.5781948840926574e+01 6.5781948175250008e+01 6.5781947491925322e+01 
6.5781946790476269e+01 6.5781946070424169e+01 6.5781945331270705e+01 6.5781944572508394e+01 
6.5781943793619604e+01 6.5781942994063300e+01 6.5781942173288044e+01 6.5781941330735037e+01 
6.5781940465818863e+01 6.5781939577947668e+01 6.5781938666504260e+01 6.5781937730864371e+01 
6.5781936770385428e+01 6.5781935784402194e+01 6.5781934772234919e+01 6.5781933733183791e+01 
6.5781932666534686e+01 6.5781931571549521e+01 6.5781930447474821e+01 6.5781929293532301e+01 
6.5781928108925626e+01 6.5781926892835060e+01 6.5781925644421449e+01 6.5781924362822821e+01 
6.5781923047151096e+01 6.5781921696498273e+01 6.5781920309928935e+01 6.5781918886481478e+01 
6.5781917425172253e+01 6.5781915924989121e+01 6.5781914384892048e+01 6.5781912803817576e+01 
6.5781911180663798e+01 6.5781909514309518e+01 6.5781907803598230e+01 6.5781906047341693e+01 
6.5781904244321709e+01 6.5781902393285648e+01 6.5781900492950342e+01 6.5781898541991922e+01 
6.5781896539056689e+01 6.5781894482753373e+01 6.5781892371647999e+01 6.5781890204273495e+01 
6.5781887979122232e+01 6.5781885694643904e+01 6.5781883349247110e+01 6.5781880941297757e+01 
6.5781878469118382e+01 6.5781875930983247e+01 6.5781873325121822e+01 6.5781870649715430e+01 
6.5781867902897460e+01 6.5781865082747174e+01 6.5781862187296397e+01 6.5781859214518093e+01 
6.5781856162334606e+01 6.5781853028610414e+01 6.5781849811151531e+01 6.5781846507704898e+01 
6.5781843115955880e+01 6.5781839633527298e+01 6.5781836057978765e+01 6.5781832386797376e+01 
6.5781828617408962e+01 6.5781824747166837e+01 6.5781820773351569e+01 6.5781816693167158e+01 
6.5781812503747361e+01 6.5781808202143139e+01 6.5781803785325266e+01 6.5781799250183852e+01 
6.5781794593522122e+01 6.5781789812056360e+01 6.5781784902413591e+01 6.5781779861129081e+01 
6.5781774684640595e+01 6.5781769369291069e+01 6.5781763911322315e+01 6.5781758306874252e+01 
6.5781752551977178e+01 6.5781746642556243e+01 6.5781740574424717e+01 6.5781734343277549e+01 
6.5781727944695319e+01 6.5781721374134008e+01 6.5781714626926927e+01 6.5781707698276321e+01 
6.5781700583255059e+01 6.5781693276798165e+01 6.5781685773701426e+01 6.5781678068619556e+01 
6.5781670156054048e+01 6.5781662030361389e+01 6.5781653685736742e+01 6.5781645116218300e+01 
6.5781636315675527e+01 6.5781627277813712e+01 6.5781617996157834e+01 6.5781608464056916e+01 
6.5781598674674541e+01 6.5781588620984948e+01 6.5781578295767517e+01 6.5781567691599221e+01 
6.5781556800853153e+01 6.5781545615687563e+01 6.5781534128046161e+01 6.5781522329643366e+01 
6.5781510211966179e+01 6.5781497766263186e+01 6.5781484983538675e+01 6.5781471854544705e+01 
6.5781458369775677e+01 6.5781444519460507e+01 6.5781430293553342e+01 6.5781415681728205e+01 
6.5781400673368609e+01 6.5781385257560402e+01 6.5781369423083902e+01 6.5781353158402851e+01 
6.5781336451657481e+01 6.5781319290653045e+01 6.5781301662853281e+01 6.5781283555366912e+01 
6.5781264954940255e+01 6.5781245847944902e+01 6.5781226220366435e+01 6.5781206057796140e+01 
6.5781185345415849e+01 6.5781164067987945e+01 6.5781142209844589e+01 6.5781119754870858e+01 
6.5781096686495374e+01 6.5781072987676382e+01 6.5781048640886070e+01 6.5781023628098893e+01 
6.5780997930774902e+01 6.5780971529845033e+01 6.5780944405696218e+01 6.5780916538155097e+01 
6.5780887906471520e+01 6.5780858489300584e+01 6.5780828264685297e+01 6.5780797210040234e+01 
6.5780765302131059e+01 6.5780732517054588e+01 6.5780698830222079e+01 6.5780664216334117e+01 
6.5780628649363663e+01 6.5780592102532736e+01 6.5780554548289686e+01 6.5780515958284781e+01 
6.5780476303350071e+01 6.5780435553470497e+01 6.5780393677761154e+01 6.5780350644440475e+01 
6.5780306420802418e+01 6.5780260973189812e+01 6.5780214266964506e+01 6.5780166266477963e+01 
6.5780116935040979e+01 6.5780066234892018e+01 6.5780014127164236e+01 6.5779960571851788e+01 
6.5779905527775327e+01 6.5779848952546672e+01 6.5779790802531139e+01 6.5779731032808684e+01 
6.5779669597136319e+01 6.5779606447906048e+01 6.5779541536103437e+01 6.5779474811263768e+01 
6.5779406221427493e+01 6.5779335713094881e+01 6.5779263231176515e+01 6.5779188718946301e+01 
6.5779112117988092e+01 6.5779033368145377e+01 6.5778952407465567e+01 6.5778869172144752e+01 
6.5778783596469097e+01 6.5778695612756110e+01 6.5778605151291799e+01 6.5778512140267409e+01 
6.5778416505713764e+01 6.5778318171432716e+01 6.5778217058926316e+01 6.5778113087326034e+01 
6.5778006173314878e+01 6.5777896231052409e+01 6.5777783172092469e+01 6.5777666905301672e+01 
6.5777547336772798e+01 6.5777424369736565e+01 6.5777297904470316e+01 6.5777167838202303e+01 
6.5777034065015528e+01 6.5776896475744593e+01 6.5776754957872583e+01 6.5776609395422184e+01 
6.5776459668843415e+01 6.5776305654898778e+01 6.5776147226543586e+01 6.5775984252800910e+01 
6.5775816598634677e+01 6.5775644124817347e+01 6.5775466687791607e+01 6.5775284139530100e+01 
6.5775096327388241e+01 6.5774903093951622e+01 6.5774704276880300e+01 6.5774499708745154e+01 
6.5774289216860623e+01 6.5774072623110129e+01 6.5773849743765922e+01 6.5773620389302536e+01 
6.5773384364204546e+01 6.5773141466765381e+01 6.5772891488881399e+01 6.5772634215837414e+01 
6.5772369426084950e+01 6.5772096891012396e+01 6.5771816374707214e+01 6.5771527633709695e+01 
6.5771230416757732e+01 6.5770924464522778e+01 6.5770609509335870e+01 6.5770285274904097e+01 
6.5769951476016928e+01 6.5769607818242207e+01 6.5769253997610150e+01 6.5768889700286920e+01 
6.5768514602236337e+01 6.5768128368868744e+01 6.5767730654677337e+01 6.5767321102861303e+01 
6.5766899344935439e+01 6.5766465000324573e+01 6.5766017675944667e+01 6.5765556965767018e+01 
6.5765082450367444e+01 6.5764593696457965e+01 6.5764090256402383e+01 6.5763571667712739e+01 
6.5763037452528266e+01 6.5762487117074031e+01 6.5761920151099417e+01 6.5761336027297361e+01 
6.5760734200699375e+01 6.5760114108050416e+01 6.5759475167158442e+01 6.5758816776220812e+01 
6.5758138313124988e+01 6.5757439134722716e+01 6.5756718576077148e+01 6.5755975949681769e+01 
6.5755210544649429e+01 6.5754421625870464e+01 6.5753608433139561e+01 6.5752770180249286e+01 
6.5751906054048789e+01 6.5751015213466758e+01 6.5750096788497459e+01 6.5749149879147993e+01 
6.5748173554344476e+01 6.5747166850797797e+01 6.5746128771824345e+01 6.5745058286122472e+01 
6.5743954326501196e+01 6.5742815788561032e+01 6.5741641529321868e+01 6.5740430365800719e+01 
6.5739181073531412e+01 6.5737892385029610e+01 6.5736562988196255e+01 6.5735191524660650e+01 
6.5733776588057950e+01 6.5732316722240242e+01 6.5730810419417921e+01 6.5729256118228278e+01 
6.5727652201728915e+01 6.5725996995312684e+01 6.5724288764541029e+01 6.5722525712892633e+01 
6.5720705979423570e+01 6.5718827636335661e+01 6.5716888686449565e+01 6.5714887060578604e+01 
6.5712820614798844e+01 6.5710687127611607e+01 6.5708484296995721e+01 6.5706209737341112e+01 
6.5703860976263442e+01 6.5701435451291985e+01 6.5698930506427033e+01 6.5696343388561061e+01 
6.5693671243758658e+01 6.5690911113388836e+01 6.5688059930104856e+01 6.5685114513664274e+01 
6.5682071566584000e+01 6.5678927669623050e+01 6.5675679277085877e+01 6.5672322711940495e+01 
6.5668854160742271e+01 6.5665269668357169e+01 6.5661565132475246e+01 6.5657736297907178e+01 
6.5653778750654766e+01 6.5649687911746568e+01 6.5645459030828590e+01 6.5641087179502648e+01 
6.5636567244399870e+01 6.5631893919980783e+01 6.5627061701050565e+01 6.5622064874978463e+01 
6.5616897513610397e+01 6.5611553464861998e+01 6.5606026343980545e+01 6.5600309524462560e+01 
6.5594396128614605e+01 6.5588279017742337e+01 6.5581950781955427e+01 6.5575403729571974e+01 
6.5568629876109000e+01 6.5561620932842217e+01 6.5554368294919669e+01 6.5546863029012329e+01 
6.5539095860484807e+01 6.5531057160068073e+01 6.5522736930016777e+01 6.5514124789731142e+01 
6.5505209960825738e+01 6.5495981251623419e+01 6.5486427041055791e+01 6.5476535261948101e+01 
6.5466293383666539e+01 6.5455688394107497e+01 6.5444706781003887e+01 6.5433334512527352e+01 
6.5421557017160225e+01 6.5409359162815278e+01 6.5396725235176078e+01 6.5383638915233576e+01 
6.5370083255993180e+01 6.5356040658324559e+01 6.5341492845928883e+01 6.5326420839394075e+01 
6.5310804929312368e+01 6.5294624648430187e+01 6.5277858742802678e+01 6.5260485141924107e+01 
6.5242480927804863e+01 6.5223822302965218e+01 6.5204484557317940e+01 6.5184442033909320e+01 
6.5163668093489363e+01 6.5142135077882344e+01 6.5119814272129048e+01 6.5096675865371324e+01 
6.5072688910451774e+01 6.5047821282200744e+01 6.5022039634383901e+01 6.4995309355285031e+01 
6.4967594521899343e+01 6.4938857852713440e+01 6.4909060659051050e+01 6.4878162794963970e+01 
6.4846122605649825e+01 6.4812896874381707e+01 6.4778440767935265e+01 6.4742707780503451e+01 
6.4705649676091440e+01 6.4667216429387494e+01 6.4627356165110470e+01 6.4586015095837197e+01 
6.4543137458319990e+01 6.4498665448307150e+01 6.4452539153887500e+01 6.4404696487383703e+01 
6.4355073115828503e+01 6.4303602390062338e+01 6.4250215272501805e+01 6.4194840263634404e+01 
6.4137403327306416e+01 6.4077827814879086e+01 6.4016034388340387e+01 6.3951940942470586e+01 
6.3885462526172567e+01 6.3816511263091193e+01 6.3744996271660220e+01 6.3670823584731217e+01 
6.3593896068954052e+01 6.3514113344097261e+01 6.3431371702514433e+01 6.3345564028982139e+01 
6.3256579721156690e+01 6.3164304610918194e+01 6.3068620886893775e+01 6.2969407018477249e+01 
6.2866537681687248e+01 6.2759883687233589e+01 6.2649311911190466e+01 6.2534685228704078e+01 
6.2415862451194265e+01 6.2292698267541930e+01 6.2165043189787760e+01 6.2032743503902942e+01 
6.1895641226229053e+01 6.1753574066221404e+01 6.1606375396169277e+01 6.1453874228605649e+01 
6.1295895202159571e+01 6.1132258576646244e+01 6.0962780238230771e+01 6.0787271715544769e+01 
6.0605540207677883e+01 6.0417388625007504e+01 6.0222615643874292e+01 6.0021015776151785e+01 
5.9812379454799782e+01 5.9596493136531230e+01 5.9373139422760687e+01 5.9142097200037860e+01 
5.8903141801204939e+01 5.8656045188545228e+01 5.8400576160219309e+01 5.8136500581306372e+01 
5.7863581640787089e+01 5.7581580135816374e+01 5.7290254784639252e+01 5.6989362569503847e+01 
5.6678659110913259e+01 5.6357899074541997e+01 5.6026836612112497e+01 5.5685225837489206e+01 
5.5332821339195554e+01 5.4969378730494995e+01 5.4594655238099676e+01 5.4208410330475026e+01 
5.3810406386600889e+01 5.3400409405920172e+01 5.2978189760062286e+01 5.2543522986761047e+01 
5.2096190626203636e+01 5.1635981099836101e+01 5.1162690631424425e+01 5.0676124209915045e+01 
5.0176096593361507e+01 4.9662433352885053e+01 4.9134971955308110e+01 4.8593562882751279e+01 
4.8038070787107984e+01 4.7468375676912302e+01 4.6884374133692297e+01 4.6285980554455932e+01 
4.5673128416490350e+01 4.5045771560170245e+01 4.4403885484968136e+01 4.3747468653342949e+01 
4.3076543796656473e+01 4.2391159216731410e+01 4.1691390076128890e+01 4.0977339669685826e+01 
4.0249140669326685e+01 3.9506956333648326e+01 3.8750981673282041e+01 3.7981444562572037e+01 
3.7198606787674869e+01 3.6402765020797830e+01 3.5594251709955991e+01 3.4773435873352831e+01 
3.3940723787282586e+01 3.3096559556327271e+01 3.2241425554584069e+01 3.1375842726720496e+01 
3.0500370737825445e+01 2.9615607961310154e+01 2.8722191294525537e+01 2.7820795792306214e+01 
2.6912134109335831e+01 2.5996955743055320e+01 2.5076046069811319e+01 2.4150225168069205e+01 
2.3220346423787312e+01 2.2287294914477997e+01 2.1351985570042974e+01 2.0415361110177560e+01 
1.9478389759966177e+01 1.8542062747236777e+01 1.7607391587282471e+01 1.6675405162680558e+01 
1.5747146608117967e+01 1.4823670012344401e+01 1.3906036951593007e+01 1.2995312871003652e+01 
1.2092563332723209e+01 1.1198850151409845e+01 1.0315227439795972e+01 9.4427375887361329e+00 
8.5824072077438682e+00 7.7352430533736269e+00 6.9022279738940266e+00 6.0843168995062396e+00 
5.2824329078445942e+00 4.4974633946498095e+00 3.7302563792987020e+00 2.9816169743028826e+00 
2.2523040469450124e+00 1.5430270999069648e+00 8.5444339606953912e-01 1.8715535064343586e-01 
-4.5829178854751551e-01 -1.0814119544381677e+00 -1.6817799524321546e+00 -2.2590328182152697e+00 
-2.8128708326708458e+00 -3.3430581882293215e+00 -3.8494233043574484e+00 -4.3318587932468322e+00 
-4.7903210800393081e+00 -5.2248296850651883e+00 -5.6354661785241520e+00 -6.0223728207507223e+00 
-6.3857509036409308e+00 -6.7258588109382353e+00 -7.0430098168616961e+00 -7.3375696439945965e+00 
-7.6099538024341502e+00 -7.8606247329404253e+00 -8.0900887772343264e+00 -8.2988929987074300e+00 
-8.4876218766578191e+00 -8.6568938967977065e+00 -8.8073580602391264e+00 -8.9396903325018222e+00 
-9.0545900533534827e+00 -9.1527763275328944e+00 -9.2349844156643446e+00 -9.3019621439801909e+00 
-9.3544663508559598e+00 -9.3932593876416828e+00 -9.4191056908497401e+00 -9.4327684424247078e+00 
-9.4350063345552844e+00 -9.4265704552623042e+00 -9.4082013107714531e+00 -9.3806260004083875e+00 
-9.3445555593888976e+00 -9.3006824843653249e+00 -9.2496784558851850e+00 -9.1921922709744415e+00 
-9.1288479978415076e+00 -9.0602433631843926e+00 -8.9869483807618682e+00 -8.9095042277640744e+00 
-8.8284223731079621e+00 -8.7441839591248804e+00 -8.6572394352502613e+00 -8.5680084393338767e+00 
-8.4768799191366817e+00 -8.3842124835498755e+00 -8.2903349701491020e+00 -8.1955472129690605e+00 
-8.1001209919338315e+00 -8.0043011432819871e+00 -7.9083068086475432e+00 -7.8123327992492504e+00 
-7.7165510509355366e+00 -7.6211121456480635e+00 -7.5261468752009080e+00 -7.4317678241052461e+00 
-7.3380709494634928e+00 -7.2451371376602296e+00 -7.1530337196236706e+00 -7.0618159287478104e+00 
-6.9715282880688081e+00 -6.8822059158979778e+00 -6.7938757417446611e+00 -6.7065576269376175e+00 
-6.6202653868030179e+00 -6.5350077135198434e+00 -6.4507890008007358e+00 -6.3676100733017851e+00 
-6.2854688251255748e+00 -6.2043607729383519e+00 -6.1242795300764277e+00 -6.0452172085824341e+00 
-5.9671647564108543e+00 -5.8901122371037760e+00 -5.8140490590963037e+00 -5.7389641615036115e+00 
-5.6648461628057305e+00 -5.5916834783193092e+00 -5.5194644117608602e+00 -5.4481772255949936e+00 
-5.3778101942492773e+00 -5.3083516436858647e+00 -5.2397899802650851e+00 -5.1721137113291045e+00 
-5.1053114594812703e+00 -5.0393719721421402e+00 -4.9742841276261434e+00 -4.9100369387009284e+00 
-4.8466195543604407e+00 -4.7840212603570791e+00 -4.7222314788921507e+00 -4.6612397677510184e+00 
-4.6010358190840810e+00 -4.5416094579717061e+00 -4.4829506408654103e+00 -4.4250494539655758e+00 
-4.3678961115734740e+00 -4.3114809544405750e+00 -4.2557944481283538e+00 -4.2008271813856810e+00 
-4.1465698645471827e+00 -4.0930133279538419e+00 -4.0401485203960039e+00 -3.9879665075783355e+00 
-3.9364584706061656e+00 -3.8856157044925594e+00 -3.8354296166855071e+00 -3.7858917256147255e+00 
-3.7369936592576112e+00 -3.6887271537239674e+00 -3.6410840518591550e+00 -3.5940563018654101e+00 
-3.5476359559409634e+00 -3.5018151689368251e+00 -3.4565861970309140e+00 -3.4119413964193193e+00 
-3.3678732220244738e+00 -3.3243742262200158e+00 -3.2814370575721217e+00 -3.2390544595970954e+00 
-3.1972192695350041e+00 -3.1559244171391554e+00 -3.1151629234812095e+00 -3.0749278997717195e+00 
-3.0352125461959178e+00 -2.9960101507645227e+00 -2.9573140881794004e+00 -2.9191178187138740e+00 
-2.8814148871074883e+00 -2.8441989214750754e+00 -2.8074636322298594e+00 -2.7712028110205260e+00 
-2.7354103296819856e+00 -2.7000801391997027e+00 -2.6652062686873967e+00 -2.6307828243779472e+00 
-2.5968039886273351e+00 -2.5632640189314464e+00 -2.5301572469555733e+00 -2.4974780775764547e+00 
-2.4652209879366853e+00 -2.4333805265113422e+00 -2.4019513121866605e+00 -2.3709280333506149e+00 
-2.3403054469952433e+00 -2.3100783778305671e+00 -2.2802417174099512e+00 -2.2507904232667766e+00 
-2.2217195180622333e+00 -2.1930240887441497e+00 -2.1646992857166740e+00 -2.1367403220206778e+00 
-2.1091424725247516e+00 -2.0819010731266454e+00 -2.0550115199650234e+00 -2.0284692686414014e+00 
-2.0022698334521336e+00 -1.9764087866303148e+00 -1.9508817575974806e+00 -1.9256844322249678e+00 
-1.9008125521048160e+00 -1.8762619138300880e+00 -1.8520283682844816e+00 -1.8281078199411227e+00 
-1.8044962261704034e+00 -1.7811895965567861e+00 -1.7581839922243905e+00 -1.7354755251713287e+00 
-1.7130603576126207e+00 -1.6909347013315978e+00 -1.6690948170396891e+00 -1.6475370137444667e+00 
-1.6262576481258648e+00 -1.6052531239204468e+00 -1.5845198913136287e+00 -1.5640544463397534e+00 
-1.5438533302899105e+00 -1.5239131291274066e+00 -1.5042304729107863e+00 -1.4848020352243019e+00 
-1.4656245326157427e+00 -1.4466947240415238e+00 -1.4280094103189385e+00 -1.4095654335855008e+00 
-1.3913596767652407e+00 -1.3733890630419248e+00 -1.3556505553390614e+00 -1.3381411558066303e+00 
-1.3208579053144356e+00 -1.3037978829520087e+00 -1.2869582055349660e+00 -1.2703360271177433e+00 
-1.2539285385126264e+00 -1.2377329668149892e+00 -1.2217465749346681e+00 -1.2059666611333859e+00 
-1.1903905585681527e+00 -1.1750156348405620e+00 -1.1598392915519105e+00 -1.1448589638640609e+00 
-1.1300721200659771e+00 -1.1154762611458680e+00 -1.1010689203688335e+00 -1.0868476628599921e+00 
-1.0728100851929765e+00 -1.0589538149837503e+00 -1.0452765104896691e+00 -1.0317758602137195e+00 
-1.0184495825138724e+00 -1.0052954252174791e+00 -9.9231116524064755e-01 -9.7949460821253842e-01 
-9.6684358810450888e-01 -9.5435596686405055e-01 -9.4202963405345164e-01 -9.2986250649312951e-01 
-9.1785252790956739e-01 -9.0599766858779818e-01 -8.9429592502838395e-01 -8.8274531960881053e-01 
-8.7134390024927022e-01 -8.6008974008275452e-01 -8.4898093712940981e-01 -8.3801561397509694e-01 
-8.2719191745410370e-01 -8.1650801833595710e-01 -8.0596211101627746e-01 -7.9555241321162729e-01 
-7.8527716565830163e-01 -7.7513463181500786e-01 -7.6512309756938612e-01 -7.5524087094832082e-01 
-7.4548628183199184e-01 -7.3585768167162213e-01 -7.2635344321086737e-01 -7.1697196021080545e-01 
-7.0771164717848301e-01 -6.9857093909895585e-01 -6.8954829117080285e-01 -6.8064217854504949e-01 
-6.7185109606746429e-01 -6.6317355802418521e-01 -6.5460809789062946e-01 -6.4615326808364781e-01 
-6.3780763971687948e-01 -6.2956980235926729e-01 -6.2143836379669082e-01 -6.1341194979667946e-01 
-6.0548920387616345e-01 -5.9766878707222548e-01 -5.8994937771581213e-01 -5.8232967120836943e-01 
-5.7480837980136179e-01 -5.6738423237863922e-01 -5.6005597424161913e-01 -5.5282236689723308e-01 
-5.4568218784862332e-01 -5.3863423038853664e-01 -5.3167730339538699e-01 -5.2481023113195469e-01 
-5.1803185304668264e-01 -5.1134102357754152e-01 -5.0473661195842601e-01 -4.9821750202805365e-01 
-4.9178259204132974e-01 -4.8543079448315102e-01 -4.7916103588461212e-01 -4.7297225664158737e-01 
-4.6686341083565480e-01 -4.6083346605733350e-01 -4.5488140323160414e-01 -4.4900621644568189e-01 
-4.4320691277901797e-01 -4.3748251213548905e-01 -4.3183204707776168e-01 -4.2625456266379258e-01 
-4.2074911628544071e-01 -4.1531477750916468e-01 -4.0995062791877707e-01 -4.0465576096022982e-01 
-3.9942928178840476e-01 -3.9427030711588196e-01 -3.8917796506366414e-01 -3.8415139501382201e-01 
-3.7918974746405598e-01 -3.7429218388411839e-01 -3.6945787657411011e-01 -3.6468600852458705e-01 
-3.5997577327849389e-01 -3.5532637479486068e-01 -3.5073702731427903e-01 -3.4620695522610268e-01 
-3.4173539293736444e-01 -3.3732158474339713e-01 -3.3296478470010821e-01 -3.2866425649792319e-01 
-3.2441927333733794e-01 -3.2022911780609709e-01 -3.1609308175794054e-01 -3.1201046619293438e-01 
-3.0798058113932886e-01 -3.0400274553696044e-01 -3.0007628712214268e-01 -2.9620054231406023e-01 
-2.9237485610261371e-01 -2.8859858193773014e-01 -2.8487108162008545e-01 -2.8119172519325525e-01 
-2.7755989083724730e-01 -2.7397496476340927e-01 -2.7043634111070408e-01 -2.6694342184331038e-01 
-2.6349561664956023e-01 -2.6009234284216803e-01 -2.5673302525976199e-01 -2.5341709616967334e-01 
-2.5014399517199554e-01 -2.4691316910486780e-01 -2.4372407195099688e-01 -2.4057616474537169e-01 
-2.3746891548418386e-01 -2.3440179903491101e-01 -2.3137429704757484e-01 -2.2838589786713209e-01 
-2.2543609644701024e-01 -2.2252439426374690e-01 -2.1965029923274368e-01 -2.1681332562510050e-01 
-2.1401299398552398e-01 -2.1124883105130332e-01 -2.0852036967232226e-01 -2.0582714873211522e-01 
-2.0316871306993167e-01 -2.0054461340381888e-01 -1.9795440625468622e-01 -1.9539765387136190e-01 
-1.9287392415660648e-01 -1.9038279059409280e-01 -1.8792383217631833e-01 -1.8549663333345923e-01 
-1.8310078386313275e-01 -1.8073587886107736e-01 -1.7840151865271772e-01 -1.7609730872562326e-01 
-1.7382285966283273e-01 -1.7157778707703977e-01 -1.6936171154563520e-01 -1.6717425854657850e-01 
-1.6501505839510769e-01 -1.6288374618125681e-01 -1.6077996170819026e-01 -1.5870334943132369e-01 
-1.5665355839824088e-01 -1.5463024218937743e-01 -1.5263305885947950e-01 -1.5066167087980972e-01 
-1.4871574508110849e-01 -1.4679495259728331e-01 -1.4489896880983383e-01 -1.4302747329298618e-01 
-1.4118014975954482e-01 -1.3935668600743473e-01 -1.3755677386694229e-01 -1.3578010914863228e-01 
-1.3402639159193772e-01 -1.3229532481441844e-01 -1.3058661626166798e-01 -1.2889997715787499e-01 
-1.2723512245701568e-01 -1.2559177079468392e-01 -1.2396964444053658e-01 -1.2236846925135987e-01 
-1.2078797462473503e-01 -1.1922789345330924e-01 
</PP_LOCAL>


<PP_NONLOCAL>
  <PP_BETA>
  1  1      Beta    L
  1190  
 -6.4315520116649413e-10  -6.6009651922139984e-10  -6.7748408766457811e-10  -6.9532966115463087e-10 
 -7.1364530397902295e-10  -7.3244339820999817e-10  -7.5173665207533691e-10  -7.7153810854959749e-10 
 -7.9186115417166875e-10  -8.1271952809457771e-10  -8.3412733137368208e-10  -8.5609903649952016e-10 
 -8.7864949718177043e-10  -9.0179395839091648e-10  -9.2554806666444036e-10  -9.4992788068447222e-10 
 -9.7494988213406840e-10  -1.0006309868394650e-09  -1.0269885562058166e-09  -1.0540404089541720e-09 
 -1.0818048331676037e-09  -1.1103005986546567e-09  -1.1395469696384491e-09  -1.1695637177800254e-09 
 -1.2003711355447539e-09  -1.2319900499208037e-09  -1.2644418364989857e-09  -1.2977484339234703e-09 
 -1.3319323587231408e-09  -1.3670167205336326e-09  -1.4030252377203297e-09  -1.4399822534128739e-09 
 -1.4779127519620666e-09  -1.5168423758302265e-09  -1.5567974429264873e-09  -1.5978049643986954e-09 
 -1.6398926628939888e-09  -1.6830889913003574e-09  -1.7274231519818844e-09  -1.7729251165206589e-09 
 -1.8196256459787069e-09  -1.8675563116936515e-09  -1.9167495166221376e-09  -1.9672385172454645e-09 
 -2.0190574460522432e-09  -2.0722413346132638e-09  -2.1268261372641663e-09  -2.1828487554119588e-09 
 -2.2403470624817616e-09  -2.2993599295207102e-09  -2.3599272514762453e-09  -2.4220899741666452e-09 
 -2.4858901219619427e-09  -2.5513708261940264e-09  -2.6185763543150447e-09  -2.6875521398239267e-09 
 -2.7583448129811287e-09  -2.8310022323325112e-09  -2.9055735170635166e-09  -2.9821090802056332e-09 
 -3.0606606627175233e-09  -3.1412813684638961e-09  -3.2240257001157577e-09  -3.3089495959962842e-09 
 -3.3961104678972920e-09  -3.4855672398917821e-09  -3.5773803881688969e-09  -3.6716119819181094e-09 
 -3.7683257252903961e-09  -3.8675870004646730e-09  -3.9694629118486486e-09  -4.0740223314439825e-09 
 -4.1813359454063913e-09  -4.2914763018322016e-09  -4.4045178598036451e-09  -4.5205370397260388e-09 
 -4.6396122749909264e-09  -4.7618240650000635e-09  -4.8872550295860837e-09  -5.0159899648666576e-09 
 -5.1481159005699760e-09  -5.2837221588701277e-09  -5.4229004147723560e-09  -5.5657447580888782e-09 
 -5.7123517570471815e-09  -5.8628205235738955e-09  -6.0172527802982193e-09  -6.1757529293203681e-09 
 -6.3384281227913796e-09  -6.5053883353520962e-09  -6.6767464384802430e-09  -6.8526182767958915e-09 
 -7.0331227463768896e-09  -7.2183818751371724e-09  -7.4085209053223305e-09  -7.6036683781782028e-09 
 -7.8039562208496887e-09  -8.0095198355686053e-09  -8.2204981911907946e-09  -8.4370339171444024e-09 
 -8.6592733998529516e-09  -8.8873668816981276e-09  -9.1214685625894828e-09  -9.3617367042094677e-09 
 -9.6083337370045066e-09  -9.8614263699942152e-09  -1.0121185703473143e-08  -1.0387787344681190e-08 
 -1.0661411526520890e-08  -1.0942243229401820e-08  -1.1230472306294544e-08  -1.1526293611078515e-08 
 -1.1829907130270922e-08  -1.2141518118225268e-08  -1.2461337235891282e-08  -1.2789580693229875e-08 
 -1.3126470395379547e-08  -1.3472234092672748e-08  -1.3827105534604069e-08  -1.4191324627853896e-08 
 -1.4565137598474700e-08  -1.4948797158349453e-08  -1.5342562676034631e-08  -1.5746700352103489e-08 
 -1.6161483399108074e-08  -1.6587192226281474e-08  -1.7024114629105469e-08  -1.7472545983871541e-08 
 -1.7932789447366610e-08  -1.8405156161819155e-08  -1.8889965465243277e-08  -1.9387545107323894e-08 
 -1.9898231470988195e-08  -2.0422369799813826e-08  -2.0960314431427051e-08  -2.1512429037048843e-08 
 -2.2079086867351037e-08  -2.2660671004788331e-08  -2.3257574622577245e-08  -2.3870201250496626e-08 
 -2.4498965047689667e-08  -2.5144291082651860e-08  -2.5806615620594158e-08  -2.6486386418375457e-08 
 -2.7184063027203880e-08  -2.7900117103311734e-08  -2.8635032726813708e-08  -2.9389306728964364e-08 
 -3.0163449028035756e-08  -3.0957982974042473e-08  -3.1773445702547128e-08  -3.2610388497785285e-08 
 -3.3469377165355831e-08  -3.4350992414728016e-08  -3.5255830251824358e-08  -3.6184502381944609e-08 
 -3.7137636623302774e-08  -3.8115877331457961e-08  -3.9119885834924183e-08  -4.0150340882255477e-08 
 -4.1207939100906907e-08  -4.2293395468183304e-08  -4.3407443794592567e-08  -4.4550837219931407e-08 
 -4.5724348722438449e-08  -4.6928771641358954e-08  -4.8164920213274461e-08  -4.9433630122559916e-08 
 -5.0735759066340512e-08  -5.2072187334330060e-08  -5.3443818403942972e-08  -5.4851579551082059e-08 
 -5.6296422477015424e-08  -5.7779323951765479e-08  -5.9301286474446111e-08  -6.0863338950993591e-08 
 -6.2466537389749850e-08  -6.4111965615367667e-08  -6.5800736001521658e-08  -6.7533990222919489e-08 
 -6.9312900027121334e-08  -7.1138668026691093e-08  -7.3012528512212551e-08  -7.4935748286722243e-08 
 -7.6909627522121977e-08  -7.8935500638149751e-08  -8.1014737204505001e-08  -8.3148742866735492e-08 
 -8.5338960296514161e-08  -8.7586870166947210e-08  -8.9893992153572508e-08  -9.2261885961726041e-08 
 -9.4692152380970387e-08  -9.7186434367297871e-08  -9.9746418153840274e-08  -1.0237383439083637e-07 
 -1.0507045931562761e-07  -1.0783811595347224e-07  -1.1067867534999141e-07  -1.1359405783607861e-07 
 -1.1658623432612939e-07  -1.1965722765046662e-07  -1.2280911392286565e-07  -1.2604402394409995e-07 
 -1.2936414464245875e-07  -1.3277172055221062e-07  -1.3626905533100997e-07  -1.3985851331727569e-07 
 -1.4354252112859253e-07  -1.4732356930221707e-07  -1.5120421397879574e-07  -1.5518707863043571e-07 
 -1.5927485583429458e-07  -1.6347030909288987e-07  -1.6777627470235678e-07  -1.7219566366991956e-07 
 -1.7673146368187199e-07  -1.8138674112339642e-07  -1.8616464315158774e-07  -1.9106839982308584e-07 
 -1.9610132627775079e-07  -2.0126682497985970e-07  -2.0656838801834253e-07  -2.1200959946760544e-07 
 -2.1759413781054576e-07  -2.2332577842539076e-07  -2.2920839613804425e-07  -2.3524596784166668e-07 
 -2.4144257518525685e-07  -2.4780240733305879e-07  -2.5432976379665218e-07  -2.6102905734164743e-07 
 -2.6790481697094551e-07  -2.7496169098658307e-07  -2.8220445013223113e-07  -2.8963799081847211e-07 
 -2.9726733843303521e-07  -3.0509765073822992e-07  -3.1313422135787180e-07  -3.2138248335605892e-07 
 -3.2984801291022165e-07  -3.3853653308092048e-07  -3.4745391768094898e-07  -3.5660619524635411e-07 
 -3.6599955311205684e-07  -3.7564034159482758e-07  -3.8553507828644805e-07  -3.9569045245995601e-07 
 -4.0611332959195483e-07  -4.1681075600404165e-07  -4.2778996362649243e-07  -4.3905837488742048e-07 
 -4.5062360773071749e-07  -4.6249348076616039e-07  -4.7467601855516797e-07  -4.8717945703577951e-07 
 -5.0001224909051494e-07  -5.1318307026088468e-07  -5.2670082461239942e-07  -5.4057465075405891e-07 
 -5.5481392801636053e-07  -5.6942828279202769e-07  -5.8442759504372131e-07  -5.9982200498314315e-07 
 -6.1562191992603759e-07  -6.3183802132773006e-07  -6.4848127200395581e-07  -6.6556292354185714e-07 
 -6.8309452390617851e-07  -7.0108792524578416e-07  -7.1955529190580156e-07  -7.3850910865081269e-07 
 -7.5796218910465880e-07  -7.7792768441258980e-07  -7.9841909213162602e-07  -8.1945026535516860e-07 
 -8.4103542207804957e-07  -8.6318915480837690e-07  -8.8592644043270799e-07  -9.0926265034124804e-07 
 -9.3321356081994640e-07  -9.5779536371656020e-07  -9.8302467738791652e-07  -1.0089185579358324e-06 
 -1.0354945107392898e-06  -1.0627705022907383e-06  -1.0907649723445253e-06  -1.1194968463857374e-06 
 -1.1489855484278810e-06  -1.1792510141481192e-06  -1.2103137043689437e-06  -1.2421946188955054e-06 
 -1.2749153107174199e-06  -1.3084979005737651e-06  -1.3429650918974962e-06  -1.3783401861646466e-06 
 -1.4146470986484763e-06  -1.4519103745886044e-06  -1.4901552057861615e-06  -1.5294074476362068e-06 
 -1.5696936366089290e-06  -1.6110410081914682e-06  -1.6534775153025174e-06  -1.6970318471921685e-06 
 -1.7417334488398130e-06  -1.7876125408632320e-06  -1.8347001399523809e-06  -1.8830280798417129e-06 
 -1.9326290328352581e-06  -1.9835365318990706e-06  -2.0357849933360279e-06  -2.0894097400583665e-06 
 -2.1444470254737633e-06  -2.2009340580011948e-06  -2.2589090262332284e-06  -2.3184111247618543e-06 
 -2.3794805806854442e-06  -2.4421586808148839e-06  -2.5064877995974258e-06  -2.5725114277772738e-06 
 -2.6402742018125221e-06  -2.7098219340685182e-06  -2.7812016438083137e-06  -2.8544615890014394e-06 
 -2.9296512989728294e-06  -3.0068216079143156e-06  -3.0860246892817709e-06  -3.1673140911015708e-06 
 -3.2507447722107980e-06  -3.3363731394561683e-06  -3.4242570858775203e-06  -3.5144560299021816e-06 
 -3.6070309555774813e-06  -3.7020444538691482e-06  -3.7995607650540944e-06  -3.8996458222365961e-06 
 -4.0023672960174878e-06  -4.1077946403460823e-06  -4.2159991395848732e-06  -4.3270539568167006e-06 
 -4.4410341834235507e-06  -4.5580168899652254e-06  -4.6780811783846972e-06  -4.8013082355654559e-06 
 -4.9277813882648531e-06  -5.0575861594470877e-06  -5.1908103260408514e-06  -5.3275439781511178e-06 
 -5.4678795797624647e-06  -5.6119120309824195e-06  -5.7597387318860220e-06  -5.9114596480344906e-06 
 -6.0671773777476248e-06  -6.2269972212096015e-06  -6.3910272514807219e-06  -6.5593783874757851e-06 
 -6.7321644689568041e-06  -6.9095023335775515e-06  -7.0915118960121284e-06  -7.2783162291996081e-06 
 -7.4700416477404817e-06  -7.6668177934867404e-06  -7.8687777233737081e-06  -8.0760579995478104e-06 
 -8.2887987818492207e-06  -8.5071439227122862e-06  -8.7312410645494256e-06  -8.9612417396865123e-06 
 -9.1973014729198247e-06  -9.4395798867658816e-06  -9.6882408094777808e-06  -9.9434523859024231e-06 
 -1.0205387191255528e-05  -1.0474222347892471e-05  -1.0750139645154893e-05  -1.1033325662375494e-05 
 -1.1323971895124470e-05  -1.1622274884784114e-05  -1.1928436351539606e-05  -1.2242663330876549e-05 
 -1.2565168313678181e-05  -1.2896169390017478e-05  -1.3235890396741788e-05  -1.3584561068950508e-05 
 -1.3942417195468547e-05  -1.4309700778421386e-05  -1.4686660197020008e-05  -1.5073550375667219e-05 
 -1.5470632956499326e-05  -1.5878176476480737e-05  -1.6296456549171662e-05  -1.6725756051292556e-05 
 -1.7166365314212130e-05  -1.7618582320489175e-05  -1.8082712905601903e-05  -1.8559070965001843e-05 
 -1.9047978666633379e-05  -1.9549766669063445e-05  -2.0064774345369712e-05  -2.0593350012939873e-05 
 -2.1135851169338164e-05  -2.1692644734400205e-05  -2.2264107298720431e-05  -2.2850625378701647e-05 
 -2.3452595678340840e-05  -2.4070425357928775e-05  -2.4704532309847330e-05  -2.5355345441651992e-05 
 -2.6023304966632905e-05  -2.6708862702052257e-05  -2.7412482375261843e-05  -2.8134639937909178e-05 
 -2.8875823888446948e-05  -2.9636535603165608e-05  -3.0417289675975441e-05  -3.1218614267169829e-05 
 -3.2041051461407916e-05  -3.2885157635161361e-05  -3.3751503833876498e-05  -3.4640676159109050e-05 
 -3.5553276165896673e-05  -3.6489921270640764e-05  -3.7451245169776792e-05  -3.8437898269519278e-05 
 -3.9450548126976096e-05  -4.0489879902933431e-05  -4.1556596826622269e-05  -4.2651420672784065e-05 
 -4.3775092251363334e-05  -4.4928371910162200e-05  -4.6112040050802012e-05  -4.7326897658345829e-05 
 -4.8573766844945979e-05  -4.9853491407888074e-05  -5.1166937402417643e-05  -5.2514993729740225e-05 
 -5.3898572740600963e-05  -5.5318610854858078e-05  -5.6776069197476531e-05  -5.8271934251380114e-05 
 -5.9807218527610936e-05  -6.1382961253258323e-05  -6.3000229077632094e-05  -6.4660116797165941e-05 
 -6.6363748099552156e-05  -6.8112276327621403e-05  -6.9906885263494473e-05  -7.1748789933549255e-05 
 -7.3639237434759073e-05  -7.5579507782973563e-05  -7.7570914783730934e-05  -7.9614806926203780e-05 
 -8.1712568300899266e-05  -8.3865619541748996e-05  -8.6075418793244582e-05  -8.8343462703288774e-05 
 -9.0671287442454211e-05  -9.3060469750357692e-05  -9.5512628009879210e-05  -9.8029423349973939e-05 
 -1.0061256077784597e-04  -1.0326379034127537e-04  -1.0598490832190782e-04  -1.0877775846034408e-04 
 -1.1164423321388348e-04  -1.1458627504780429e-04  -1.1760587776108534e-04  -1.2070508784749867e-04 
 -1.2388600589302931e-04  -1.2715078801060406e-04  -1.3050164731313968e-04  -1.3394085542594637e-04 
 -1.3747074403955422e-04  -1.4109370650405799e-04  -1.4481219946610606e-04  -1.4862874454969394e-04 
 -1.5254593008194887e-04  -1.5656641286513102e-04  -1.6069291999611085e-04  -1.6492825073461165e-04 
 -1.6927527842154950e-04  -1.7373695244883824e-04  -1.7831630028206037e-04  -1.8301642953745490e-04 
 -1.8784053011470175e-04  -1.9279187638703761e-04  -1.9787382945026454e-04  -2.0308983943228062e-04 
 -2.0844344786477960e-04  -2.1393829011884201e-04  -2.1957809790616579e-04  -2.2536670184775093e-04 
 -2.3130803411189566e-04  -2.3740613112341867e-04  -2.4366513634607530e-04  -2.5008930314019296e-04 
 -2.5668299769761131e-04  -2.6345070205607081e-04  -2.7039701719525414e-04  -2.7752666621675516e-04 
 -2.8484449761030688e-04  -2.9235548860868189e-04  -3.0006474863372847e-04  -3.0797752283610467e-04 
 -3.1609919573132196e-04  -3.2443529493480415e-04  -3.3299149499874282e-04  -3.4177362135360721e-04 
 -3.5078765435726176e-04  -3.6003973345472061e-04  -3.6953616145167197e-04  -3.7928340890498394e-04 
 -3.8928811863351664e-04  -3.9955711035264622e-04  -4.1009738543603113e-04  -4.2091613180823693e-04 
 -4.3202072897195791e-04  -4.4341875317368846e-04  -4.5511798271180055e-04  -4.6712640339113229e-04 
 -4.7945221412827875e-04  -4.9210383271194912e-04  -5.0508990172285146e-04  -5.1841929461773461e-04 
 -5.3210112198233232e-04  -5.4614473795812932e-04  -5.6055974684800377e-04  -5.7535600990596815e-04 
 -5.9054365231639503e-04  -6.0613307036827514e-04  -6.2213493883024845e-04  -6.3856021853230926e-04 
 -6.5542016416029461e-04  -6.7272633226945144e-04  -6.9049058952357859e-04  -7.0872512116644971e-04 
 -7.2744243973245143e-04  -7.4665539400357633e-04  -7.6637717822016101e-04  -7.8662134155299004e-04 
 -8.0740179784464410e-04  -8.2873283562821592e-04  -8.5062912843181682e-04  -8.7310574537753508e-04 
 -8.9617816208383146e-04  -9.1986227188063738e-04  -9.4417439734673070e-04  -9.6913130217931556e-04 
 -9.9475020340602399e-04  -1.0210487839499326e-03  -1.0480452055585576e-03  -1.0757581221081281e-03 
 -1.1042066932948676e-03  -1.1334105987253935e-03  -1.1633900524187588e-03  -1.1941658177331308e-03 
 -1.2257592227305060e-03  -1.2581921759933648e-03  -1.2914871829076443e-03  -1.3256673624269185e-03 
 -1.3607564643332065e-03  -1.3967788870103606e-03  -1.4337596957465753e-03  -1.4717246415831486e-03 
 -1.5107001807272225e-03  -1.5507134945469034e-03  -1.5917925101677965e-03  -1.6339659216907027e-03 
 -1.6772632120509291e-03  -1.7217146755404600e-03  -1.7673514410149248e-03  -1.8142054958082189e-03 
 -1.8623097103784003e-03  -1.9116978637094006e-03  -1.9624046694939811e-03  -2.0144658031243539e-03 
 -2.0679179295178349e-03  -2.1227987318059660e-03  -2.1791469409165906e-03  -2.2370023660795223e-03 
 -2.2964059262875532e-03  -2.3573996827458412e-03  -2.4200268723439063e-03  -2.4843319421858487e-03 
 -2.5503605852156834e-03  -2.6181597769762634e-03  -2.6877778135415693e-03  -2.7592643506638569e-03 
 -2.8326704441786724e-03  -2.9080485917124294e-03  -2.9854527757391283e-03  -3.0649385080343729e-03 
 -3.1465628755770270e-03  -3.2303845879506285e-03  -3.3164640262988514e-03  -3.4048632938914218e-03 
 -3.4956462683591333e-03  -3.5888786556589913e-03  -3.6846280458328953e-03  -3.7829639706257957e-03 
 -3.8839579630320200e-03  -3.9876836188410458e-03  -4.0942166602569883e-03  -4.2036350016690467e-03 
 -4.3160188176531765e-03  -4.4314506132885857e-03  -4.5500152968760517e-03  -4.6718002551483307e-03 
 -4.7968954310669909e-03  -4.9253934043034285e-03  -5.0573894745058866e-03  -5.1929817474586559e-03 
 -5.3322712242435044e-03  -5.4753618935181629e-03  -5.6223608270312350e-03  -5.7733782784976252e-03 
 -5.9285277859637293e-03  -6.0879262777967071e-03  -6.2516941824376721e-03  -6.4199555420641164e-03 
 -6.5928381303128770e-03  -6.7704735742207820e-03  -6.9529974805466613e-03  -7.1405495666446326e-03 
 -7.3332737960654752e-03  -7.5313185190698448e-03  -7.7348366182444063e-03  -7.9439856594191692e-03 
 -8.1589280480925189e-03  -8.3798311915778186e-03  -8.6068676670944481e-03  -8.8402153960340391e-03 
 -9.0800578246418417e-03  -9.3265841113621059e-03  -9.5799893211058421e-03  -9.8404746267087718e-03 
 -1.0108247517857027e-02  -1.0383522017769037e-02  -1.0666518907931433e-02  -1.0957465961198178e-02 
 -1.1256598183572841e-02  -1.1564158065005018e-02  -1.1880395839543281e-02  -1.2205569755198516e-02 
 -1.2539946353883436e-02  -1.2883800761805798e-02  -1.3237416990704796e-02  -1.3601088250332263e-02 
 -1.3975117272592720e-02  -1.4359816647767849e-02  -1.4755509173263959e-02  -1.5162528215332130e-02 
 -1.5581218084223426e-02  -1.6011934423252532e-02  -1.6455044612254961e-02  -1.6910928185933836e-02 
 -1.7379977267602393e-02  -1.7862597018838335e-02  -1.8359206105575690e-02  -1.8870237181166902e-02 
 -1.9396137386956159e-02  -1.9937368870910289e-02  -2.0494409324857844e-02  -2.1067752540890532e-02 
 -2.1657908987481558e-02  -2.2265406405874346e-02  -2.2890790427291811e-02  -2.3534625211510101e-02 
 -2.4197494107330592e-02  -2.4880000335472174e-02  -2.5582767694387869e-02  -2.6306441289489793e-02 
 -2.7051688286239356e-02  -2.7819198687528975e-02  -2.8609686135743408e-02  -2.9423888739844712e-02 
 -3.0262569927773462e-02  -3.1126519324397788e-02  -3.2016553655174015e-02  -3.2933517675602063e-02 
 -3.3878285126469773e-02  -3.4851759714775790e-02  -3.5854876120106932e-02  -3.6888601026112647e-02 
 -3.7953934176573563e-02  -3.9051909455395759e-02  -4.0183595989676815e-02  -4.1350099274786015e-02 
 -4.2552562320169109e-02  -4.3792166814336113e-02  -4.5070134307205661e-02  -4.6387727407669242e-02 
 -4.7746250993890751e-02  -4.9147053433476549e-02  -5.0591527810232108e-02  -5.2081113153756020e-02 
 -5.3617295667617033e-02  -5.5201609951301314e-02  -5.6835640210505009e-02  -5.8521021449681146e-02 
 -6.0259440640017266e-02  -6.2052637855222678e-02  -6.3902407366635827e-02  -6.5810598688213359e-02 
 -6.7779117560933425e-02  -6.9809926865026850e-02  -7.1905047447235401e-02  -7.4066558848981071e-02 
 -7.6296599919907615e-02  -7.8597369299717210e-02  -8.0971125749564957e-02  -8.3420188312485613e-02 
 -8.5946936280403424e-02  -8.8553808943204929e-02  -9.1243305093140145e-02  -9.4017982255436922e-02 
 -9.6880455613479965e-02  -9.9833396594186830e-02  -1.0287953107633417e-01  -1.0602163718151301e-01 
 -1.0926254260414038e-01  -1.1260512143350869e-01  -1.1605229041722104e-01  -1.1960700461153161e-01 
 -1.2327225236009831e-01  -1.2705104953844942e-01  -1.3094643299708883e-01  -1.3496145313161365e-01 
 -1.3909916550351747e-01  -1.4336262143050615e-01  -1.4775485746020456e-01  -1.5227888363608721e-01 
 -1.5693767045937504e-01  -1.6173413444554222e-01  -1.6667112216900967e-01  -1.7175139268464837e-01 
 -1.7697759820991521e-01  -1.8235226294689624e-01  -1.8787775991933175e-01  -1.9355628569591413e-01 
 -1.9938983286796408e-01  -2.0538016014706012e-01  -2.1152875994654702e-01  -2.1783682331018278e-01 
 -2.2430520205175003e-01  -2.3093436797139200e-01  -2.3772436901804425e-01  -2.4467478227279252e-01 
 -2.5178466363561502e-01  -2.5905249410804254e-01  -2.6647612257708347e-01  -2.7405270502169371e-01 
 -2.8177864008242054e-01  -2.8964950095803599e-01  -2.9765996362036201e-01  -3.0580373137046957e-01 
 -3.1407345579643936e-01  -3.2246065423529247e-01  -3.3095562388994554e-01  -3.3954735280651271e-01 
 -3.4822342797835920e-01  -3.5696994091129730e-01  -3.6577139105959655e-01  -3.7461058762517380e-01 
 -3.8346855030276189e-01  -3.9232440965194099e-01  -4.0115530788276754e-01  -4.0993630095512479e-01 
 -4.1864026301252322e-01  -4.2723779429849934e-01  -4.3569713383721248e-01  -4.4398407829850811e-01 
 -4.5206190861039613e-01  -4.5989132602719768e-01  -4.6743039950777893e-01  -4.7463452640334680e-01 
 -4.8145640859577066e-01  -4.8784604636267576e-01  -4.9375075237145771e-01  -4.9911518831747115e-01 
 -5.0388142681815329e-01  -5.0798904125048294e-01  -5.1137522626947218e-01  -5.1397495176559338e-01 
 -5.1572115300379295e-01  -5.1654495963118330e-01  -5.1637596613863979e-01  -5.1514254620841260e-01 
 -5.1277221316966726e-01  -5.0919202851162604e-01  -5.0432906006462452e-01  -4.9811089104866019e-01 
 -4.9046618070312148e-01  -4.8132527664762842e-01  -4.7062087848066869e-01  -4.5828875139980912e-01 
 -4.4426848782625239e-01  -4.2850431414103418e-01  -4.1094593869608875e-01  -3.9154943625950006e-01 
 -3.7027816300203475e-01  -3.4710369504643740e-01  -3.2200678250002235e-01  -2.9497830979673351e-01 
 -2.6602025211107527e-01  -2.3514661660101188e-01  -2.0238435631820118e-01  -1.6777424382079070e-01 
 -1.3137169086304135e-01  -9.3247500039357806e-02  -5.3488533942448312e-02  -1.2198287259978072e-02 
 3.0502652728936076e-02  7.4476271612734707e-02  1.1956693333052903e-01  1.6560133941591235e-01 
 2.1238865542952995e-01  2.5972081779593653e-01  3.0737303420808221e-01  3.5510449091420221e-01 
 4.0265928056277428e-01  4.4976756480296204e-01  4.9614698640193966e-01  5.4150434604096098e-01 
 5.8553755888673664e-01  6.2793790509742520e-01  6.6839258611212893e-01  7.0658759432177920e-01 
 7.4221089695889819e-01  7.7495592531455204e-01  8.0452534750075244e-01  8.3063508718109869e-01 
 8.5301853284301210e-01  8.7143086375903256e-01  8.8565340172500873e-01  8.9549788400839925e-01 
 9.0081054434486940e-01  9.0147588614492702e-01  8.9742003523227643e-01  8.8861356759669352e-01 
 8.7507371963917979e-01  8.5686590314430955e-01  8.3410446398229399e-01  8.0695264184257420e-01 
 7.7562170769883498e-01  7.4036927558833998e-01  7.0149680479174426e-01  6.5934632664324933e-01 
 6.1429644616713219e-01  5.6675768213667654e-01  5.1716722014604255e-01  4.6598316249419902e-01 
 4.1367836691708099e-01  3.6073397416236719e-01  3.0763273240134864e-01  2.5485223435711640e-01 
 2.0285819021993567e-01  1.5209786516109397e-01  1.0299381287110476e-01  5.5938033888225054e-02 
 1.1286694362321947e-02  -3.0644488797133818e-02  -6.9584085625732539e-02  -1.0530792880249835e-01 
 -1.3764116299062995e-01  -1.6645932783906783e-01  -1.9168846104899073e-01  -2.1330423506608762e-01 
 -2.3133016773921175e-01  -2.4583497257168777e-01  -2.5692913695882191e-01  -2.6476083617349672e-01 
 -2.6951130613483476e-01  -2.7138980868772977e-01  -2.7062832897394390e-01  -2.6747614545554144e-01 
 -2.6219440944199918e-01  -2.5505086295162266e-01  -2.4631481194902102e-01  -2.3625245711537271e-01 
 -2.2512266708669484e-01  -2.1317326034322981e-01  -2.0063784246056002e-01  -1.8773322601686965e-01 
 -1.7465744180059259e-01  -1.6158833269424722e-01  -1.4868270622603180e-01  -1.3607600865739078e-01 
 -1.2388247285935733e-01  -1.1219568424242957e-01  -1.0108950364727652e-01  -9.0619283266338113e-02 
 -8.0823311162039960e-02  -7.1724421519964526e-02  -6.3331711100855920e-02  -5.5642307102520362e-02 
 -4.8643137464556049e-02  -4.2312661195355650e-02  -3.6622523249840416e-02  -3.1539105543425650e-02 
 -2.7024952587203912e-02  -2.3040056839754724e-02  -1.9542994731323666e-02  -1.6491909911666405e-02 
 -1.3845344741419992e-02  -1.1562924995820746e-02  -9.6059058406900242e-03  -7.9375894961311710e-03 
 -6.5236266581520982e-03  -5.3322147668210633e-03  -4.3342066680283065e-03  -3.5031431974002227e-03 
 -2.8152228040903560e-03  -2.2492206128535246e-03  -1.7863683740046434e-03  -1.4102056448040356e-03 
 -1.1064113467925318e-03  -8.6262360678057758e-04  -6.6825456053964526e-04  -5.1430561446543031e-04 
 -3.9318754969278210e-04  -2.9854883550167223e-04  -2.2511460743893905e-04  -1.6853796744957647e-04 
 -1.2526458037885065e-04  -9.2410971315982430e-05  -6.7656466016445733e-05  -4.9148354275998699e-05 
 -3.5419584257100329e-05  -2.5318103920702752e-05  -1.7946843034931151e-05  -1.2613264752557599e-05 
 -8.7873989342583955e-06  -6.0672902360051212e-06  -4.1508433731137199e-06  -2.8131177499459221e-06 
 -1.8882067060797545e-06  -1.2549269825345071e-06  -8.2563674042396483e-07  -5.3759170112103965e-07 
 -3.4633581213106593e-07  -2.2070324736005275e-07  -1.3908121760464025e-07  -8.6647362402591489e-08 
 -5.3351249006623800e-08  -3.2456973814781544e-08  -1.9503560561424369e-08  -1.1572490598010795e-08 
 -6.7780960476774989e-09  -3.9175417012051900e-09  -2.2335607183959580e-09  -1.2557677934534790e-09 
 -6.9597483939948143e-10  -3.8009434532958753e-10  -2.0447476943827110e-10  -1.0831061977107692e-10 
 -5.6469425206083297e-11  -2.8966120287541019e-11  -1.4612375662594476e-11  -7.2463542133994476e-12 
 -3.5309761331930537e-12  -1.6898722544144416e-12  -7.9395072116106940e-13  -3.6601992669966930e-13 
 -1.6549393286251066e-13  -7.3355392730167103e-14  -3.1857585706100014e-14  -1.3543538625030800e-14 
 -5.6337738965358587e-15  -2.2973885081761413e-15  -9.1439959130508429e-16  -3.5324551230896766e-16 
 -1.3579981270931886e-16  -5.0612605595850718e-17  -1.8705902892879002e-17  -7.1852309857185203e-18 
 -2.1434711358223707e-18  0.0000000000000000e+00  0.0000000000000000e+00  0.0000000000000000e+00 
 0.0000000000000000e+00  0.0000000000000000e+00  0.0000000000000000e+00  0.0000000000000000e+00 
 0.0000000000000000e+00  0.0000000000000000e+00  0.0000000000000000e+00  0.0000000000000000e+00 
 0.0000000000000000e+00  0.0000000000000000e+00  0.0000000000000000e+00  0.0000000000000000e+00 
 0.0000000000000000e+00  0.0000000000000000e+00  0.0000000000000000e+00  0.0000000000000000e+00 
 0.0000000000000000e+00  0.0000000000000000e+00  0.0000000000000000e+00  0.0000000000000000e+00 
 0.0000000000000000e+00  0.0000000000000000e+00  0.0000000000000000e+00  0.0000000000000000e+00 
 0.0000000000000000e+00  0.0000000000000000e+00  0.0000000000000000e+00  0.0000000000000000e+00 
 0.0000000000000000e+00  0.0000000000000000e+00  0.0000000000000000e+00  0.0000000000000000e+00 
 0.0000000000000000e+00  0.0000000000000000e+00  0.0000000000000000e+00  0.0000000000000000e+00 
 0.0000000000000000e+00  0.0000000000000000e+00  0.0000000000000000e+00  0.0000000000000000e+00 
 0.0000000000000000e+00  0.0000000000000000e+00  0.0000000000000000e+00  0.0000000000000000e+00 
 0.0000000000000000e+00  0.0000000000000000e+00  0.0000000000000000e+00  0.0000000000000000e+00 
 0.0000000000000000e+00  0.0000000000000000e+00  0.0000000000000000e+00  0.0000000000000000e+00 
 0.0000000000000000e+00  0.0000000000000000e+00  0.0000000000000000e+00  0.0000000000000000e+00 
 0.0000000000000000e+00  0.0000000000000000e+00  0.0000000000000000e+00  0.0000000000000000e+00 
 0.0000000000000000e+00  0.0000000000000000e+00  0.0000000000000000e+00  0.0000000000000000e+00 
 0.0000000000000000e+00  0.0000000000000000e+00  0.0000000000000000e+00  0.0000000000000000e+00 
 0.0000000000000000e+00  0.0000000000000000e+00  0.0000000000000000e+00  0.0000000000000000e+00 
 0.0000000000000000e+00  0.0000000000000000e+00  0.0000000000000000e+00  0.0000000000000000e+00 
 0.0000000000000000e+00  0.0000000000000000e+00  0.0000000000000000e+00  0.0000000000000000e+00 
 0.0000000000000000e+00  0.0000000000000000e+00  0.0000000000000000e+00  0.0000000000000000e+00 
 0.0000000000000000e+00  0.0000000000000000e+00  0.0000000000000000e+00  0.0000000000000000e+00 
 0.0000000000000000e+00  0.0000000000000000e+00  0.0000000000000000e+00  0.0000000000000000e+00 
 0.0000000000000000e+00  0.0000000000000000e+00  0.0000000000000000e+00  0.0000000000000000e+00 
 0.0000000000000000e+00  0.0000000000000000e+00  0.0000000000000000e+00  0.0000000000000000e+00 
 0.0000000000000000e+00  0.0000000000000000e+00  0.0000000000000000e+00  0.0000000000000000e+00 
 0.0000000000000000e+00  0.0000000000000000e+00  0.0000000000000000e+00  0.0000000000000000e+00 
 0.0000000000000000e+00  0.0000000000000000e+00  0.0000000000000000e+00  0.0000000000000000e+00 
 0.0000000000000000e+00  0.0000000000000000e+00  0.0000000000000000e+00  0.0000000000000000e+00 
 0.0000000000000000e+00  0.0000000000000000e+00  0.0000000000000000e+00  0.0000000000000000e+00 
 0.0000000000000000e+00  0.0000000000000000e+00  0.0000000000000000e+00  0.0000000000000000e+00 
 0.0000000000000000e+00  0.0000000000000000e+00  0.0000000000000000e+00  0.0000000000000000e+00 
 0.0000000000000000e+00  0.0000000000000000e+00  0.0000000000000000e+00  0.0000000000000000e+00 
 0.0000000000000000e+00  0.0000000000000000e+00  0.0000000000000000e+00  0.0000000000000000e+00 
 0.0000000000000000e+00  0.0000000000000000e+00  0.0000000000000000e+00  0.0000000000000000e+00 
 0.0000000000000000e+00  0.0000000000000000e+00  0.0000000000000000e+00  0.0000000000000000e+00 
 0.0000000000000000e+00  0.0000000000000000e+00  0.0000000000000000e+00  0.0000000000000000e+00 
 0.0000000000000000e+00  0.0000000000000000e+00  0.0000000000000000e+00  0.0000000000000000e+00 
 0.0000000000000000e+00  0.0000000000000000e+00  0.0000000000000000e+00  0.0000000000000000e+00 
 0.0000000000000000e+00  0.0000000000000000e+00  0.0000000000000000e+00  0.0000000000000000e+00 
 0.0000000000000000e+00  0.0000000000000000e+00  0.0000000000000000e+00  0.0000000000000000e+00 
 0.0000000000000000e+00  0.0000000000000000e+00  0.0000000000000000e+00  0.0000000000000000e+00 
 0.0000000000000000e+00  0.0000000000000000e+00  0.0000000000000000e+00  0.0000000000000000e+00 
 0.0000000000000000e+00  0.0000000000000000e+00  0.0000000000000000e+00  0.0000000000000000e+00 
 0.0000000000000000e+00  0.0000000000000000e+00  0.0000000000000000e+00  0.0000000000000000e+00 
 0.0000000000000000e+00  0.0000000000000000e+00  0.0000000000000000e+00  0.0000000000000000e+00 
 0.0000000000000000e+00  0.0000000000000000e+00  0.0000000000000000e+00  0.0000000000000000e+00 
 0.0000000000000000e+00  0.0000000000000000e+00  0.0000000000000000e+00  0.0000000000000000e+00 
 0.0000000000000000e+00  0.0000000000000000e+00  0.0000000000000000e+00  0.0000000000000000e+00 
 0.0000000000000000e+00  0.0000000000000000e+00  0.0000000000000000e+00  0.0000000000000000e+00 
 0.0000000000000000e+00  0.0000000000000000e+00  0.0000000000000000e+00  0.0000000000000000e+00 
 0.0000000000000000e+00  0.0000000000000000e+00  0.0000000000000000e+00  0.0000000000000000e+00 
 0.0000000000000000e+00  0.0000000000000000e+00 
  </PP_BETA>
  <PP_BETA>
  2  1      Beta    L
  1190  
 -3.2608562069661846e-10  -3.3467502526311668e-10  -3.4349068289459970e-10  -3.5253855331149170e-10 
 -3.6182475321891060e-10  -3.7135556044179372e-10  -3.8113741816894795e-10  -3.9117693930888993e-10 
 -4.0148091096042614e-10  -4.1205629900098816e-10  -4.2291025279583523e-10  -4.3405011003129368e-10 
 -4.4548340167531758e-10  -4.5721785706870484e-10  -4.6926140915043233e-10  -4.8162219982062373e-10 
 -4.9430858544478063e-10  -5.0732914250301063e-10  -5.2069267338805154e-10  -5.3440821235602670e-10 
 -5.4848503163394498e-10  -5.6293264768808298e-10  -5.7776082765747719e-10  -5.9297959595688544e-10 
 -6.0859924105367174e-10  -6.2463032242320505e-10  -6.4108367768746551e-10  -6.5797042994169546e-10 
 -6.7530199527402925e-10  -6.9309009048321319e-10  -7.1134674099960567e-10  -7.3008428901482449e-10 
 -7.4931540182554691e-10  -7.6905308039707876e-10  -7.8931066815251084e-10  -8.1010185999337742e-10 
 -8.3144071155793847e-10  -8.5334164872332281e-10  -8.7581947735797638e-10  -8.9888939333099621e-10 
 -9.2256699278511514e-10  -9.4686828268029602e-10  -9.7180969161504682e-10  -9.9740808093277942e-10 
 -1.0236807561207248e-09  -1.0506454785091066e-09  -1.0783204772784769e-09  -1.1067244617833436e-09 
 -1.1358766342004044e-09  -1.1657967025099640e-09  -1.1965048938192689e-09  -1.2280219680368235e-09 
 -1.2603692319068661e-09  -1.2935685534135627e-09  -1.3276423765645810e-09  -1.3626137365641252e-09 
 -1.3985062753855872e-09  -1.4353442577544585e-09  -1.4731525875521895e-09  -1.5119568246521828e-09 
 -1.5517832021992433e-09  -1.5926586443441903e-09  -1.6346107844456201e-09  -1.6776679837511102e-09 
 -1.7218593505705223e-09  -1.7672147599543227e-09  -1.8137648738902800e-09  -1.8615411620321302e-09 
 -1.9105759229742915e-09  -1.9609023060869368e-09  -2.0125543339262505e-09  -2.0655669252349881e-09 
 -2.1199759185488795e-09  -2.1758180964248694e-09  -2.2331312103075341e-09  -2.2919540060505046e-09 
 -2.3523262501101746e-09  -2.4142887564293432e-09  -2.4778834140290167e-09  -2.5431532153269905e-09 
 -2.6101422852023970e-09  -2.6788959108258171e-09  -2.7494605722751557e-09  -2.8218839739579681e-09 
 -2.8962150768614755e-09  -2.9725041316520983e-09  -3.0508027126468246e-09  -3.1311637526794640e-09 
 -3.2136415788852766e-09  -3.2982919494282201e-09  -3.3851720911956269e-09  -3.4743407384857932e-09 
 -3.5658581727146403e-09  -3.6597862631682826e-09  -3.7561885088290723e-09  -3.8551300813033745e-09 
 -3.9566778688800709e-09  -4.0609005217496882e-09  -4.1678684984145536e-09  -4.2776541133214866e-09 
 -4.3903315857491907e-09  -4.5059770899833648e-09  -4.6246688068134829e-09  -4.7464869763860413e-09 
 -4.8715139524500299e-09  -4.9998342580313019e-09  -5.1315346425733936e-09  -5.2667041405835605e-09 
 -5.4054341318235784e-09  -5.5478184030860068e-09  -5.6939532115977732e-09  -5.8439373500937874e-09 
 -5.9978722136047264e-09  -6.1558618680040191e-09  -6.3180131203604849e-09  -6.4844355911440565e-09 
 -6.6552417883336142e-09  -6.8305471834766939e-09  -7.0104702897528839e-09  -7.1951327420933273e-09 
 -7.3846593794107750e-09  -7.5791783289956254e-09  -7.7788210931349789e-09  -7.9837226380134174e-09 
 -8.1940214849554730e-09  -8.4098598040715191e-09  -8.6313835103704174e-09  -8.8587423624038743e-09 
 -9.0920900635090433e-09  -9.3315843657182757e-09  -9.5773871764056306e-09  -9.8296646677427851e-09 
 -1.0088587389038002e-08  -1.0354330382034286e-08  -1.0627073299244668e-08  -1.0907000525404381e-08 
 -1.1194301302122406e-08  -1.1489169855816360e-08  -1.1791805529017425e-08  -1.2102412915133849e-08 
 -1.2421201996764365e-08  -1.2748388287654881e-08  -1.3084192978394526e-08  -1.3428843085949453e-08 
 -1.3782571607135406e-08  -1.4145617676133179e-08  -1.4518226726152907e-08  -1.4900650655357019e-08 
 -1.5293147997153672e-08  -1.5695984094975844e-08  -1.6109431281664426e-08  -1.6533769063576301e-08 
 -1.6969284309542310e-08  -1.7416271444802215e-08  -1.7875032650048411e-08  -1.8345878065712613e-08 
 -1.8829126001633447e-08  -1.9325103152247431e-08  -1.9834144817447725e-08  -2.0356595129261038e-08 
 -2.0892807284495155e-08  -2.1443143783514851e-08  -2.2007976675307373e-08  -2.2587687809003146e-08 
 -2.3182669092021977e-08  -2.3793322755019136e-08  -2.4420061623810149e-08  -2.5063309398458814e-08 
 -2.5723500939716446e-08  -2.6401082563006335e-08  -2.7096512340152263e-08  -2.7810260409054537e-08 
 -2.8542809291523801e-08  -2.9294654219486437e-08  -3.0066303469783008e-08  -3.0858278707785548e-08 
 -3.1671115340066192e-08  -3.2505362876355390e-08  -3.3361585301034862e-08  -3.4240361454415892e-08 
 -3.5142285424060963e-08  -3.6067966946413687e-08  -3.7018031819007566e-08  -3.7993122323533420e-08 
 -3.8993897660050724e-08  -4.0021034392636480e-08  -4.1075226906773613e-08  -4.2157187878786963e-08 
 -4.3267648757645197e-08  -4.4407360259454077e-08  -4.5577092874975037e-08  -4.6777637390512997e-08 
 -4.8009805422524643e-08  -4.9274429966309271e-08  -5.0572365959152778e-08  -5.1904490858305821e-08 
 -5.3271705234186806e-08  -5.4674933379210324e-08  -5.6115123932653638e-08  -5.7593250521982292e-08 
 -5.9110312421070254e-08  -6.0667335225757211e-08  -6.2265371547202479e-08  -6.3905501723502013e-08 
 -6.5588834550050529e-08  -6.7316508029143328e-08  -6.9089690139322645e-08  -7.0909579624990684e-08 
 -7.2777406806822143e-08  -7.4694434413524363e-08  -7.6661958435506948e-08  -7.8681309001039228e-08 
 -8.0753851275486519e-08  -8.2880986384234369e-08  -8.5064152359923935e-08  -8.7304825114638909e-08 
 -8.9604519437702425e-08  -9.1964790019756788e-08  -9.4387232503819860e-08  -9.6873484564028154e-08 
 -9.9425227012795963e-08  -1.0204418493713871e-07  -1.0473212886493060e-07  -1.0749087596188147e-07 
 -1.1032229126004688e-07  -1.1322828891869752e-07  -1.1621083351840358e-07  -1.1927194138920789e-07 
 -1.2241368197378450e-07  -1.2563817922650782e-07  -1.2894761304937445e-07  -1.3234422076575073e-07 
 -1.3583029863294178e-07  -1.3940820339460538e-07  -1.4308035387405850e-07  -1.4684923260955650e-07 
 -1.5071738753264774e-07  -1.5468743369073943e-07  -1.5876205501504216e-07  -1.6294400613508143e-07 
 -1.6723611424101136e-07  -1.7164128099498287e-07  -1.7616248449286171e-07  -1.8080278127762289e-07 
 -1.8556530840578044e-07  -1.9045328556825126e-07  -1.9547001726708590e-07  -2.0061889504953713e-07 
 -2.0590339980097842e-07  -2.1132710409821890e-07  -2.1689367462480805e-07  -2.2260687464996133e-07 
 -2.2847056657278141e-07  -2.3448871453349539e-07  -2.4066538709347140e-07  -2.4700475998582579e-07 
 -2.5351111893847918e-07  -2.6018886257156958e-07  -2.6704250537117642e-07  -2.7407668074137200e-07 
 -2.8129614413665077e-07  -2.8870577627686487e-07  -2.9631058644683052e-07  -3.0411571588283520e-07 
 -3.1212644124833771e-07  -3.2034817820120906e-07  -3.2878648505492540e-07  -3.3744706653618662e-07 
 -3.4633577764151300e-07  -3.5545862759541528e-07  -3.6482178391282921e-07  -3.7443157656856732e-07 
 -3.8429450227660314e-07  -3.9441722888210033e-07  -4.0480659986916145e-07  -4.1546963898735291e-07 
 -4.2641355500015363e-07  -4.3764574655854303e-07  -4.4917380720304389e-07  -4.6100553049762133e-07 
 -4.7314891529891264e-07  -4.8561217116438512e-07  -4.9840372390307955e-07  -5.1153222127272861e-07 
 -5.2500653882709925e-07  -5.3883578591755599e-07  -5.5302931185289469e-07  -5.6759671222165646e-07 
 -5.8254783538119439e-07  -5.9789278911790542e-07  -6.1364194748314617e-07  -6.2980595780949329e-07 
 -6.4639574791183541e-07  -6.6342253347263779e-07  -6.8089782561960975e-07  -6.9883343870864475e-07 
 -7.1724149831211043e-07  -7.3613444941757894e-07  -7.5552506484260083e-07  -7.7542645387122733e-07 
 -7.9585207111810696e-07  -8.1681572562618905e-07  -8.3833159020416926e-07  -8.6041421101003452e-07 
 -8.8307851738716612e-07  -9.0633983195970588e-07  -9.3021388099399651e-07  -9.5471680503315077e-07 
 -9.7986516981193878e-07  -1.0056759774594200e-06  -1.0321666779969129e-06  -1.0593551811391122e-06 
 -1.0872598684063728e-06  -1.1158996055563890e-06  -1.1452937553437257e-06  -1.1754621906158854e-06 
 -1.2064253077548080e-06  -1.2382040404730007e-06  -1.2708198739736671e-06  -1.3042948594845067e-06 
 -1.3386516291751268e-06  -1.3739134114682700e-06  -1.4101040467553058e-06  -1.4472480035267974e-06 
 -1.4853703949292093e-06  -1.5244969957591115e-06  -1.5646542599066164e-06  -1.6058693382600449e-06 
 -1.6481700970842279e-06  -1.6915851368851061e-06  -1.7361438117737451e-06  -1.7818762493431243e-06 
 -1.8288133710715437e-06  -1.8769869132667038e-06  -1.9264294485649574e-06  -1.9771744080004161e-06 
 -2.0292561036589886e-06  -2.0827097519323947e-06  -2.1375714973874413e-06  -2.1938784372655896e-06 
 -2.2516686466276848e-06  -2.3109812041581063e-06  -2.3718562186420403e-06  -2.4343348561286473e-06 
 -2.4984593677923883e-06  -2.5642731185044795e-06  -2.6318206161272093e-06  -2.7011475415460820e-06 
 -2.7723007794587870e-06  -2.8453284499456054e-06  -2.9202799408522993e-06  -2.9972059410224986e-06 
 -3.0761584744200011e-06  -3.1571909351813471e-06  -3.2403581236356150e-06  -3.3257162833221148e-06 
 -3.4133231390303257e-06  -3.5032379358810547e-06  -3.5955214794652614e-06  -3.6902361770567513e-06 
 -3.7874460799170507e-06  -3.8872169267135800e-06  -3.9896161880757101e-06  -4.0947131123161509e-06 
 -4.2025787723476866e-06  -4.3132861138271647e-06  -4.4269100045602015e-06  -4.5435272852010801e-06 
 -4.6632168212835295e-06  -4.7860595566185874e-06  -4.9121385680970159e-06  -5.0415391219340078e-06 
 -5.1743487313953666e-06  -5.3106572160447933e-06  -5.4505567625528868e-06  -5.5941419871098791e-06 
 -5.7415099994844287e-06  -5.8927604687725566e-06  -6.0479956908814790e-06  -6.2073206577943540e-06 
 -6.3708431286633342e-06  -6.5386737027792003e-06  -6.7109258944674577e-06  -6.8877162099618457e-06 
 -7.0691642263077004e-06  -7.2553926723489493e-06  -7.4465275118538644e-06  -7.6426980288363779e-06 
 -7.8440369151309081e-06  -8.0506803602806946e-06  -8.2627681438006419e-06  -8.4804437298779199e-06 
 -8.7038543645745719e-06  -8.9331511755988530e-06  -9.1684892747131122e-06  -9.4100278628482215e-06 
 -9.6579303379964510e-06  -9.9123644059562846e-06  -1.0173502194005035e-05  -1.0441520367576866e-05 
 -1.0716600250025923e-05  -1.0998927945556738e-05  -1.1288694465405595e-05  -1.1586095857359516e-05 
 -1.1891333338701494e-05  -1.2204613432672855e-05  -1.2526148108546244e-05  -1.2856154925405301e-05 
 -1.3194857179729590e-05  -1.3542484056885737e-05  -1.3899270786628916e-05  -1.4265458802721270e-05 
 -1.4641295906776874e-05  -1.5027036436445521e-05  -1.5422941438051183e-05  -1.5829278843803588e-05 
 -1.6246323653704623e-05  -1.6674358122274707e-05  -1.7113671950228065e-05  -1.7564562481227824e-05 
 -1.8027334903857493e-05  -1.8502302458947089e-05  -1.8989786652397547e-05  -1.9490117473649391e-05 
 -2.0003633619947171e-05  -2.0530682726553753e-05  -2.1071621603073941e-05  -2.1626816476050438e-05 
 -2.2196643238000098e-05  -2.2781487703062428e-05  -2.3381745869437589e-05  -2.3997824188795317e-05 
 -2.4630139842842153e-05  -2.5279121027237379e-05  -2.5945207243056503e-05  -2.6628849596003009e-05 
 -2.7330511103577197e-05  -2.8050667010415539e-05  -2.8789805112019630e-05  -2.9548426087100646e-05 
 -3.0327043838770487e-05  -3.1126185844817522e-05  -3.1946393517312102e-05  -3.2788222571792084e-05 
 -3.3652243406286957e-05  -3.4539041490446084e-05  -3.5449217765042630e-05  -3.6383389052134313e-05 
 -3.7342188476168242e-05  -3.8326265896325329e-05  -3.9336288350408577e-05  -4.0372940510587744e-05 
 -4.1436925151320991e-05  -4.2528963629783488e-05  -4.3649796379142829e-05  -4.4800183415028768e-05 
 -4.5980904855556474e-05  -4.7192761455271325e-05  -4.8436575153393731e-05  -4.9713189636753773e-05 
 -5.1023470917814607e-05  -5.2368307928198149e-05  -5.3748613128134046e-05  -5.5165323132267930e-05 
 -5.6619399352275947e-05  -5.8111828656745205e-05  -5.9643624048793961e-05  -6.1215825361916307e-05 
 -6.2829499974553421e-05  -6.4485743543903765e-05  -6.6185680759503447e-05  -6.7930466117119018e-05 
 -6.9721284713513757e-05  -7.1559353062663046e-05  -7.3445919934010681e-05  -7.5382267213376783e-05 
 -7.7369710787143035e-05  -7.9409601450361234e-05  -8.1503325839449574e-05  -8.3652307390158362e-05 
 -8.5858007321509545e-05  -8.8121925646434169e-05  -9.0445602209849986e-05  -9.2830617754949372e-05 
 -9.5278595018483288e-05  -9.7791199855857096e-05  -1.0037014239687010e-04  -1.0301717823296621e-04 
 -1.0573410963687494e-04  -1.0852278681556316e-04  -1.1138510919743194e-04  -1.1432302675473033e-04 
 -1.1733854136218286e-04  -1.2043370819285765e-04  -1.2361063715233338e-04  -1.2687149435225664e-04 
 -1.3021850362441236e-04  -1.3365394807646460e-04  -1.3718017169056266e-04  -1.4079958096603805e-04 
 -1.4451464660746456e-04  -1.4832790525938453e-04  -1.5224196128904604e-04  -1.5625948861854567e-04 
 -1.6038323260780113e-04  -1.6461601198983374e-04  -1.6896072085988283e-04  -1.7342033071992102e-04 
 -1.7799789258018882e-04  -1.8269653911942227e-04  -1.8751948690549496e-04  -1.9247003867825117e-04 
 -1.9755158569637109e-04  -2.0276761015015413e-04  -2.0812168764218361e-04  -2.1361748973788359e-04 
 -2.1925878658805595e-04  -2.2504944962554825e-04  -2.3099345433826962e-04  -2.3709488312085737e-04 
 -2.4335792820735352e-04  -2.4978689468734856e-04  -2.5638620360811409e-04  -2.6316039516534545e-04 
 -2.7011413198520565e-04  -2.7725220250046905e-04  -2.8457952442364744e-04  -2.9210114832008111e-04 
 -2.9982226128407970e-04  -3.0774819072130051e-04  -3.1588440824066539e-04  -3.2423653365922617e-04 
 -3.3281033912350614e-04  -3.4161175335097629e-04  -3.5064686599543972e-04  -3.5992193214023352e-04 
 -3.6944337692330616e-04  -3.7921780029835135e-04  -3.8925198193634627e-04  -3.9955288627198154e-04 
 -4.1012766769964518e-04  -4.2098367592377181e-04  -4.3212846146856480e-04  -4.4356978135225850e-04 
 -4.5531560493128803e-04  -4.6737411991992848e-04  -4.7975373859115734e-04  -4.9246310416473506e-04 
 -5.0551109738868191e-04  -5.1890684332058445e-04  -5.3265971831540618e-04  -5.4677935722670541e-04 
 -5.6127566082844564e-04  -5.7615880346484555e-04  -5.9143924093598929e-04  -6.0712771862724024e-04 
 -6.2323527989076462e-04  -6.3977327468784295e-04  -6.5675336850093055e-04  -6.7418755152481836e-04 
 -6.9208814814658137e-04  -7.1046782672439109e-04  -7.2933960967566289e-04  -7.4871688388542293e-04 
 -7.6861341144620102e-04  -7.8904334074122030e-04  -8.1002121788310735e-04  -8.3156199852084400e-04 
 -8.5368106002818914e-04  -8.7639421408735230e-04  -8.9971771968220550e-04  -9.2366829651597019e-04 
 -9.4826313886887785e-04  -9.7351992991194340e-04  -9.9945685649366757e-04  -1.0260926244171724e-03 
 -1.0534464742259894e-03  -1.0815381975174886e-03  -1.1103881538037099e-03  -1.1400172879402271e-03 
 -1.1704471481444598e-03  -1.2016999046258498e-03  -1.2337983688511806e-03  -1.2667660134693512e-03 
 -1.3006269929209263e-03  -1.3354061647588833e-03  -1.3711291117080844e-03  -1.4078221644921922e-03 
 -1.4455124254579876e-03  -1.4842277930283061e-03  -1.5239969870162438e-03  -1.5648495748345546e-03 
 -1.6068159986357829e-03  -1.6499276034201338e-03  -1.6942166661497199e-03  -1.7397164259095133e-03 
 -1.7864611151571124e-03  -1.8344859921052426e-03  -1.8838273742829374e-03  -1.9345226733231949e-03 
 -1.9866104310272623e-03  -2.0401303567576744e-03  -2.0951233662146562e-03  -2.1516316216528696e-03 
 -2.2096985735979503e-03  -2.2693690041250747e-03  -2.3306890717644489e-03  -2.3937063581015044e-03 
 -2.4584699161427680e-03  -2.5250303205213444e-03  -2.5934397196193657e-03  -2.6637518896883076e-03 
 -2.7360222910514710e-03  -2.8103081264769709e-03  -2.8866684018133411e-03  -2.9651639889841084e-03 
 -3.0458576914419687e-03  -3.1288143121877073e-03  -3.2141007244637799e-03  -3.3017859452373205e-03 
 -3.3919412115925645e-03  -3.4846400601579652e-03  -3.5799584096990475e-03  -3.6779746470136563e-03 
 -3.7787697162726106e-03  -3.8824272119550008e-03  -3.9890334755340760e-03  -4.0986776960765274e-03 
 -4.2114520149253579e-03  -4.3274516346437997e-03  -4.4467749324058770e-03  -4.5695235780271286e-03 
 -4.6958026568376440e-03  -4.8257207976083209e-03  -4.9593903057505708e-03  -5.0969273020191374e-03 
 -5.2384518669574892e-03  -5.3840881913360637e-03  -5.5339647328436466e-03  -5.6882143793038145e-03 
 -5.8469746186995148e-03  -6.0103877163010556e-03  -6.1786008992047881e-03  -6.3517665486026841e-03 
 -6.5300424001161640e-03  -6.7135917525410465e-03  -6.9025836853644990e-03  -7.0971932854291967e-03 
 -7.2976018831349783e-03  -7.5039972985830733e-03  -7.7165740980840343e-03  -7.9355338614660667e-03 
 -8.1610854606371571e-03  -8.3934453498705971e-03  -8.6328378683009476e-03  -8.8794955551343129e-03 
 -9.1336594780943008e-03  -9.3955795756425799e-03  -9.6655150135310456e-03  -9.9437345562594544e-03 
 -1.0230516954031025e-02  -1.0526151345815464e-02  -1.0830937679146245e-02  -1.1145187147296256e-02 
 -1.1469222644492162e-02  -1.1803379239843582e-02  -1.2148004670678579e-02  -1.2503459855990898e-02 
 -1.2870119430717026e-02  -1.3248372301573072e-02  -1.3638622225190689e-02  -1.4041288409299531e-02 
 -1.4456806137708557e-02  -1.4885627419842009e-02  -1.5328221665584592e-02  -1.5785076386187293e-02 
 -1.6256697921976957e-02  -1.6743612197599858e-02  -1.7246365505512513e-02  -1.7765525318408252e-02 
 -1.8301681131239179e-02  -1.8855445333453461e-02  -1.9427454112023946e-02  -2.0018368385786967e-02 
 -2.0628874771545177e-02  -2.1259686582310786e-02  -2.1911544857974568e-02  -2.2585219428582617e-02 
 -2.3281510010280424e-02  -2.4001247333847661e-02  -2.4745294305587875e-02  -2.5514547200159589e-02 
 -2.6309936884731717e-02  -2.7132430073617968e-02  -2.7983030612288649e-02  -2.8862780789367964e-02 
 -2.9772762674903742e-02  -3.0714099482835877e-02  -3.1687956955186822e-02  -3.2695544765053000e-02 
 -3.3738117934979953e-02  -3.4816978266753985e-02  -3.5933475778039563e-02  -3.7089010140618675e-02 
 -3.8285032114253839e-02  -3.9523044969382491e-02  -4.0804605890960598e-02  -4.2131327354795092e-02 
 -4.3504878466634367e-02  -4.4926986253116030e-02  -4.6399436892393578e-02  -4.7924076870871003e-02 
 -4.9502814050960638e-02  -5.1137618633130898e-02  -5.2830523993728180e-02  -5.4583627378120558e-02 
 -5.6399090426624221e-02  -5.8279139508414013e-02  -6.0226065836193617e-02  -6.2242225331786007e-02 
 -6.4330038210004714e-02  -6.6491988245163211e-02  -6.8730621681377960e-02  -7.1048545744400032e-02 
 -7.3448426709082693e-02  -7.5932987472738953e-02  -7.8505004580573814e-02  -8.1167304645085064e-02 
 -8.3922760096822216e-02  -8.6774284199175433e-02  -8.9724825254955509e-02  -9.2777359927425598e-02 
 -9.5934885593183777e-02  -9.9200411638893912e-02  -1.0257694960835219e-01  -1.0606750210080260e-01 
 -1.0967505031581627e-01  -1.1340254013448835e-01  -1.1725286662126033e-01  -1.2122885682539347e-01 
 -1.2533325075614218e-01  -1.2956868040105277e-01  -1.3393764665272440e-01  -1.3844249400589764e-01 
 -1.4308538288409484e-01  -1.4786825945334253e-01  -1.5279282278001477e-01  -1.5786048919071977e-01 
 -1.6307235369467288e-01  -1.6842914833342409e-01  -1.7393119732940487e-01  -1.7957836891386317e-01 
 -1.8537002372667710e-01  -1.9130495969564748e-01  -1.9738135332154208e-01  -2.0359669731777555e-01 
 -2.0994773458059635e-01  -2.1643038849740606e-01  -2.2303968963779625e-01  -2.2976969891446034e-01 
 -2.3661342734975907e-01  -2.4356275263873320e-01  -2.5060833276118538e-01  -2.5773951696433106e-01 
 -2.6494425451380182e-01  -2.7220900169453044e-01  -2.7951862763445900e-01  -2.8685631962296004e-01 
 -2.9420348870223872e-01  -3.0153967642342888e-01  -3.0884246377909141e-01  -3.1608738344965559e-01 
 -3.2324783663202106e-01  -3.3029501585283927e-01  -3.3719783530538855e-01  -3.4392287038560854e-01 
 -3.5043430823759880e-01  -3.5669391124918720e-01  -3.6266099556113779e-01  -3.6829242676597829e-01 
 -3.7354263507061608e-01  -3.7836365227695978e-01  -3.8270517299230222e-01  -3.8651464251177409e-01 
 -3.8973737381369744e-01  -3.9231669607045822e-01  -3.9419413699706357e-01  -3.9530964123214002e-01 
 -3.9560182676646954e-01  -3.9500828119774550e-01  -3.9346589929262948e-01  -3.9091126297482404e-01 
 -3.8728106442780291e-01  -3.8251257250128634e-01  -3.7654414204090952e-01  -3.6931576512186287e-01 
 -3.6076966246228970e-01  -3.5085091252592121e-01  -3.3950811500299444e-01  -3.2669408449389137e-01 
 -3.1236656932399237e-01  -2.9648898950679170e-01  -2.7903118696437185e-01  -2.5997018023227364e-01 
 -2.3929091504409228e-01  -2.1698700143775665e-01  -1.9306142737862117e-01  -1.6752723838347228e-01 
 -1.4040817228152791e-01  -1.1173923808692333e-01  -8.1567227998948999e-02  -4.9951151798868859e-02 
 -1.6962583370370748e-02  1.7314090285203546e-02  5.2781526374014613e-02  8.9329397919823930e-02 
 1.2683448668246688e-01  1.6516090353270893e-01  2.0416044167966069e-01  2.4367306758902679e-01 
 2.8352755411731656e-01  3.2354226033676536e-01  3.6352606271044224e-01  4.0327944260816234e-01 
 4.4259573547090658e-01  4.8126254699023008e-01  5.1906334113973707e-01  5.5577920337295617e-01 
 5.9119077934111275e-01  6.2508038467319993e-01  6.5723427443283600e-01  6.8744505184331361e-01 
 7.1551418519841781e-01  7.4125459047895659e-01  7.6449322640468886e-01  7.8507363995434731e-01 
 8.0285839506059797e-01  8.1773131595705650e-01  8.2959947952664448e-01  8.3839489735705097e-01 
 8.4407583711508760e-01  8.4662774340780034e-01  8.4606372986351619e-01  8.4242462636749493e-01 
 8.3577857795658161e-01  8.2622020444706601e-01  8.1386934185670945e-01  7.9886939733425488e-01 
 7.8138535789560148e-01  7.6160149930660470e-01  7.3971884488716100e-01  7.1595242521591418e-01 
 6.9052838936935090e-01  6.6368101719989936e-01  6.3564968088448159e-01  6.0667580293315537e-01 
 5.7699985715191604e-01  5.4685845906093977e-01  5.1648159143468031e-01  4.8608999429859734e-01 
 4.5589279760638840e-01  4.2608539455966343e-01  3.9684760871964125e-01  3.6834217959362248e-01 
 3.4071358676028990e-01  3.1408722523233407e-01  2.8856893634854103e-01  2.6424488986757955e-01 
 2.4118180446232812e-01  2.1942748583471816e-01  1.9901165450093630e-01  1.7994702919952305e-01 
 1.6223062705253449e-01  1.4584523819603046e-01  1.3076103065391828e-01  1.1693724075351433e-01 
 1.0432390530418356e-01  9.2863593959987834e-02  8.2493103497271458e-02  7.3145079959349477e-02 
 6.4749539533429254e-02  5.7235264400581534e-02  5.0531055411103039e-02  4.4566829069531994e-02 
 3.9274551770284341e-02  3.4589009336795713e-02  3.0448414545059421e-02  2.6794859350522487e-02 
 2.3574621912889816e-02  2.0738341186862425e-02  1.8241073809351645e-02  1.6042249282184406e-02 
 1.4105540065837483e-02  1.2398663225039651e-02  1.0893129772392615e-02  9.5639569262849344e-03 
 8.3893572230425394e-03  7.3504168887683630e-03  6.4307741711862364e-03  5.6163065379062557e-03 
 4.8948338389358213e-03  4.2558427730407643e-03  3.6902363440599393e-03  3.1901104877281789e-03 
 2.7485587237090141e-03  2.3595045620287934e-03  2.0175604780765682e-03  1.7179115662983816e-03 
 1.4562214811192368e-03  1.2285579654103306e-03  1.0313351112313793e-03  8.6126951317509433e-04 
 7.1534758016270517e-04  5.9080148553004972e-04  4.8509150775736582e-04  3.9589282739331674e-04 
 3.2108517661824963e-04  2.5874406750088470e-04  2.0713263803128705e-04  1.6469343984232249e-04 
 1.3003974024576657e-04  1.0194611924595499e-04  7.9338308025631320e-05  6.1282339955660723e-05 
 4.6973171405078057e-05  3.5722981836033159e-05  2.6949386057485729e-05  2.0163791767273971e-05 
 1.4960118227475923e-05  1.1004062493042186e-05  8.0230628179404493e-06  5.7970688435625337e-06 
 4.1501882353149314e-06  2.9432421368659582e-06  2.0672289152776683e-06  1.4376682606791227e-06 
 9.8977624972089128e-07  6.7440649921733343e-07  4.5468261684311447e-07  3.0324219450256283e-07 
 2.0001178058219714e-07  1.3043474431432889e-07  8.4078879474915643e-08  5.3557160163447818e-08 
 3.3702578817376066e-08  2.0945872204364129e-08  1.2852717515243749e-08  7.7843217616934598e-09 
 4.6520090397037070e-09  2.7423028911081277e-09  1.5940535946083758e-09  9.1339134235809977e-10 
 5.1573595693546169e-10  2.8685380677305016e-10  1.5710820340897535e-10  8.4699400150209826e-11 
 4.4930281464014281e-11  2.3442530123274871e-11  1.2025503864995432e-11  6.0625154285911296e-12 
 3.0024461581021252e-12  1.4600728007895203e-12  6.9687882661210664e-13  3.2630979252279883e-13 
 1.4983154141064234e-13  6.7427449432211950e-14  2.9715967346510705e-14  1.2832513169613581e-14 
 5.4276370430758638e-15  2.2365959274987304e-15  9.0312675879404816e-16  3.5976902591370875e-16 
 1.3667553887009638e-16  4.9782150236679182e-17  1.6977157125244368e-17  5.1396468545949333e-18 
 4.6617013577587596e-18  0.0000000000000000e+00  0.0000000000000000e+00  0.0000000000000000e+00 
 0.0000000000000000e+00  0.0000000000000000e+00  0.0000000000000000e+00  0.0000000000000000e+00 
 0.0000000000000000e+00  0.0000000000000000e+00  0.0000000000000000e+00  0.0000000000000000e+00 
 0.0000000000000000e+00  0.0000000000000000e+00  0.0000000000000000e+00  0.0000000000000000e+00 
 0.0000000000000000e+00  0.0000000000000000e+00  0.0000000000000000e+00  0.0000000000000000e+00 
 0.0000000000000000e+00  0.0000000000000000e+00  0.0000000000000000e+00  0.0000000000000000e+00 
 0.0000000000000000e+00  0.0000000000000000e+00  0.0000000000000000e+00  0.0000000000000000e+00 
 0.0000000000000000e+00  0.0000000000000000e+00  0.0000000000000000e+00  0.0000000000000000e+00 
 0.0000000000000000e+00  0.0000000000000000e+00  0.0000000000000000e+00  0.0000000000000000e+00 
 0.0000000000000000e+00  0.0000000000000000e+00  0.0000000000000000e+00  0.0000000000000000e+00 
 0.0000000000000000e+00  0.0000000000000000e+00  0.0000000000000000e+00  0.0000000000000000e+00 
 0.0000000000000000e+00  0.0000000000000000e+00  0.0000000000000000e+00  0.0000000000000000e+00 
 0.0000000000000000e+00  0.0000000000000000e+00  0.0000000000000000e+00  0.0000000000000000e+00 
 0.0000000000000000e+00  0.0000000000000000e+00  0.0000000000000000e+00  0.0000000000000000e+00 
 0.0000000000000000e+00  0.0000000000000000e+00  0.0000000000000000e+00  0.0000000000000000e+00 
 0.0000000000000000e+00  0.0000000000000000e+00  0.0000000000000000e+00  0.0000000000000000e+00 
 0.0000000000000000e+00  0.0000000000000000e+00  0.0000000000000000e+00  0.0000000000000000e+00 
 0.0000000000000000e+00  0.0000000000000000e+00  0.0000000000000000e+00  0.0000000000000000e+00 
 0.0000000000000000e+00  0.0000000000000000e+00  0.0000000000000000e+00  0.0000000000000000e+00 
 0.0000000000000000e+00  0.0000000000000000e+00  0.0000000000000000e+00  0.0000000000000000e+00 
 0.0000000000000000e+00  0.0000000000000000e+00  0.0000000000000000e+00  0.0000000000000000e+00 
 0.0000000000000000e+00  0.0000000000000000e+00  0.0000000000000000e+00  0.0000000000000000e+00 
 0.0000000000000000e+00  0.0000000000000000e+00  0.0000000000000000e+00  0.0000000000000000e+00 
 0.0000000000000000e+00  0.0000000000000000e+00  0.0000000000000000e+00  0.0000000000000000e+00 
 0.0000000000000000e+00  0.0000000000000000e+00  0.0000000000000000e+00  0.0000000000000000e+00 
 0.0000000000000000e+00  0.0000000000000000e+00  0.0000000000000000e+00  0.0000000000000000e+00 
 0.0000000000000000e+00  0.0000000000000000e+00  0.0000000000000000e+00  0.0000000000000000e+00 
 0.0000000000000000e+00  0.0000000000000000e+00  0.0000000000000000e+00  0.0000000000000000e+00 
 0.0000000000000000e+00  0.0000000000000000e+00  0.0000000000000000e+00  0.0000000000000000e+00 
 0.0000000000000000e+00  0.0000000000000000e+00  0.0000000000000000e+00  0.0000000000000000e+00 
 0.0000000000000000e+00  0.0000000000000000e+00  0.0000000000000000e+00  0.0000000000000000e+00 
 0.0000000000000000e+00  0.0000000000000000e+00  0.0000000000000000e+00  0.0000000000000000e+00 
 0.0000000000000000e+00  0.0000000000000000e+00  0.0000000000000000e+00  0.0000000000000000e+00 
 0.0000000000000000e+00  0.0000000000000000e+00  0.0000000000000000e+00  0.0000000000000000e+00 
 0.0000000000000000e+00  0.0000000000000000e+00  0.0000000000000000e+00  0.0000000000000000e+00 
 0.0000000000000000e+00  0.0000000000000000e+00  0.0000000000000000e+00  0.0000000000000000e+00 
 0.0000000000000000e+00  0.0000000000000000e+00  0.0000000000000000e+00  0.0000000000000000e+00 
 0.0000000000000000e+00  0.0000000000000000e+00  0.0000000000000000e+00  0.0000000000000000e+00 
 0.0000000000000000e+00  0.0000000000000000e+00  0.0000000000000000e+00  0.0000000000000000e+00 
 0.0000000000000000e+00  0.0000000000000000e+00  0.0000000000000000e+00  0.0000000000000000e+00 
 0.0000000000000000e+00  0.0000000000000000e+00  0.0000000000000000e+00  0.0000000000000000e+00 
 0.0000000000000000e+00  0.0000000000000000e+00  0.0000000000000000e+00  0.0000000000000000e+00 
 0.0000000000000000e+00  0.0000000000000000e+00  0.0000000000000000e+00  0.0000000000000000e+00 
 0.0000000000000000e+00  0.0000000000000000e+00  0.0000000000000000e+00  0.0000000000000000e+00 
 0.0000000000000000e+00  0.0000000000000000e+00  0.0000000000000000e+00  0.0000000000000000e+00 
 0.0000000000000000e+00  0.0000000000000000e+00  0.0000000000000000e+00  0.0000000000000000e+00 
 0.0000000000000000e+00  0.0000000000000000e+00  0.0000000000000000e+00  0.0000000000000000e+00 
 0.0000000000000000e+00  0.0000000000000000e+00  0.0000000000000000e+00  0.0000000000000000e+00 
 0.0000000000000000e+00  0.0000000000000000e+00  0.0000000000000000e+00  0.0000000000000000e+00 
 0.0000000000000000e+00  0.0000000000000000e+00  0.0000000000000000e+00  0.0000000000000000e+00 
 0.0000000000000000e+00  0.0000000000000000e+00  0.0000000000000000e+00  0.0000000000000000e+00 
 0.0000000000000000e+00  0.0000000000000000e+00  0.0000000000000000e+00  0.0000000000000000e+00 
 0.0000000000000000e+00  0.0000000000000000e+00  0.0000000000000000e+00  0.0000000000000000e+00 
 0.0000000000000000e+00  0.0000000000000000e+00 
  </PP_BETA>
  <PP_DIJ>
 2   Number of nonzero Dij
 1 1 3.7912958426803861e+01 
 2 2 3.9405932599240288e+00 
  </PP_DIJ>
</PP_NONLOCAL>
<PP_PSWFC>
S    0   2.00          Wavefunction
 2.0057110668871637e-07  2.0319555304981121e-07  2.0585433994478076e-07  2.0854791671500935e-07 
 2.1127673858145590e-07  2.1404126672158738e-07  2.1684196834731913e-07  2.1967931678397481e-07 
 2.2255379155027959e-07  2.2546587843940014e-07  2.2841606960104490e-07  2.3140486362463905e-07 
 2.3443276562358697e-07  2.3750028732063785e-07  2.4060794713436865e-07  2.4375627026679746e-07 
 2.4694578879214505e-07  2.5017704174675589e-07  2.5345057522019744e-07  2.5676694244755046e-07 
 2.6012670390290736e-07  2.6353042739409377e-07  2.6697868815862982e-07  2.7047206896094665e-07 
 2.7401116019087541e-07  2.7759655996342455e-07  2.8122887421986347e-07  2.8490871683012742e-07 
 2.8863670969656426e-07  2.9241348285903693e-07  2.9623967460140223e-07  3.0011593155938297e-07 
 3.0404290882985075e-07  3.0802127008153934e-07  3.1205168766720703e-07  3.1613484273726574e-07 
 3.2027142535489762e-07  3.2446213461267751e-07  3.2870767875072237e-07  3.3300877527638515e-07 
 3.3736615108551605e-07  3.4178054258531018e-07  3.4625269581876248e-07  3.5078336659075106e-07 
 3.5537332059577101e-07  3.6002333354733891e-07  3.6473419130909044e-07  3.6950669002759447e-07 
 3.7434163626690364e-07  3.7923984714486670e-07  3.8420215047122410e-07  3.8922938488750983e-07 
 3.9432240000878529e-07  3.9948205656722670e-07  4.0470922655759128e-07  4.1000479338458775e-07 
 4.1536965201217451e-07  4.2080470911481155e-07  4.2631088323069105e-07  4.3188910491697422e-07 
 4.3754031690705790e-07  4.4326547426990029e-07  4.4906554457143047e-07  4.5494150803807073e-07 
 4.6089435772239837e-07  4.6692509967097458e-07  4.7303475309437062e-07  4.7922435053941740e-07 
 4.8549493806371023e-07  4.9184757541239609e-07  4.9828333619727478e-07  5.0480330807824282e-07 
 5.1140859294711267e-07  5.1810030711383627e-07  5.2487958149516592e-07  5.3174756180578358e-07 
 5.3870540875193121e-07  5.4575429822757472e-07  5.5289542151313472e-07  5.6012998547681769e-07 
 5.6745921277858234e-07  5.7488434207677268e-07  5.8240662823745842e-07  5.9002734254651121e-07 
 5.9774777292445820e-07  6.0556922414414588e-07  6.1349301805125218e-07  6.2152049378768528e-07 
 6.2965300801790361e-07  6.3789193515819900e-07  6.4623866760897829e-07  6.5469461599008740e-07 
 6.6326120937921111e-07  6.7193989555339475e-07  6.8073214123372574e-07  6.8963943233321633e-07 
 6.9866327420793034e-07  7.0780519191139634e-07  7.1706673045234905e-07  7.2644945505584433e-07 
 7.3595495142779016e-07  7.4558482602293990e-07  7.5534070631639132e-07  7.6522424107863965e-07 
 7.7523710065422783e-07  7.8538097724404582e-07  7.9565758519132107e-07  8.0606866127135286e-07 
 8.1661596498503827e-07  8.2730127885623827e-07  8.3812640873303475e-07  8.4909318409293042e-07 
 8.6020345835204255e-07  8.7145910917834188e-07  8.8286203880899057e-07  8.9441417437183383e-07 
 9.0611746821109717e-07  9.1797389821734517e-07  9.2998546816176106e-07  9.4215420803479619e-07 
 9.5448217438925426e-07  9.6697145068786466e-07  9.7962414765540121e-07  9.9244240363541298e-07 
 1.0054283849516205e-06  1.0185842862740410e-06  1.0319123309899063e-06  1.0454147715794331e-06 
 1.0590938899965111e-06  1.0729519980543743e-06  1.0869914378163148e-06  1.1012145819915143e-06 
 1.1156238343360531e-06  1.1302216300591673e-06  1.1450104362348215e-06  1.1599927522186684e-06 
 1.1751711100704651e-06  1.1905480749820152e-06  1.2061262457107134e-06  1.2219082550187625e-06 
 1.2378967701181376e-06  1.2540944931213748e-06  1.2705041614982564e-06  1.2871285485384770e-06 
 1.3039704638203578e-06  1.3210327536857020e-06  1.3383183017208587e-06  1.3558300292440840e-06 
 1.3735708957992826e-06  1.3915438996562060e-06  1.4097520783172020e-06  1.4281985090305905e-06 
 1.4468863093107623e-06  1.4658186374650806e-06  1.4849986931276828e-06  1.5044297178002635e-06 
 1.5241149953999349e-06  1.5440578528142621e-06  1.5642616604635575e-06  1.5847298328705348e-06 
 1.6054658292374186e-06  1.6264731540306076e-06  1.6477553575729903e-06  1.6693160366440082e-06 
 1.6911588350875784e-06  1.7132874444279669e-06  1.7357056044937278e-06  1.7584171040498032e-06 
 1.7814257814378983e-06  1.8047355252252388e-06  1.8283502748618162e-06  1.8522740213462399e-06 
 1.8765108079002968e-06  1.9010647306523488e-06  1.9259399393296654e-06  1.9511406379598253e-06 
 1.9766710855812964e-06  2.0025355969633130e-06  2.0287385433351776e-06  2.0552843531251109e-06 
 2.0821775127087653e-06  2.1094225671675481e-06  2.1370241210568552e-06  2.1649868391843701e-06 
 2.1933154473985519e-06  2.2220147333874372e-06  2.2510895474879022e-06  2.2805448035055161e-06 
 2.3103854795451270e-06  2.3406166188523214e-06  2.3712433306658972e-06  2.4022707910814955e-06 
 2.4337042439265371e-06  2.4655490016466162e-06  2.4978104462034900e-06  2.5304940299848333e-06 
 2.5636052767258962e-06  2.5971497824432240e-06  2.6311332163806158e-06  2.6655613219674490e-06 
 2.7004399177895604e-06  2.7357748985728318e-06  2.7715722361796649e-06  2.8078379806184863e-06 
 2.8445782610664761e-06  2.8817992869056928e-06  2.9195073487727530e-06  2.9577088196222617e-06 
 2.9964101558041675e-06  3.0356178981552143e-06  3.0753386731046958e-06  3.1155791937946822e-06 
 3.1563462612149195e-06  3.1976467653525785e-06  3.2394876863570757e-06  3.2818760957201335e-06 
 3.3248191574713013e-06  3.3683241293891280e-06  3.4123983642281972e-06  3.4570493109622307e-06 
 3.5022845160434736e-06  3.5481116246785668e-06  3.5945383821211356e-06  3.6415726349813085e-06 
 3.6892223325523695e-06  3.7374955281548115e-06  3.7864003804979711e-06  3.8359451550595113e-06 
 3.8861382254829613e-06  3.9369880749935734e-06  3.9885032978327058e-06  4.0406926007110168e-06 
 4.0935648042806693e-06  4.1471288446268286e-06  4.2013937747786975e-06  4.2563687662403329e-06 
 4.3120631105415192e-06  4.3684862208089378e-06  4.4256476333579374e-06  4.4835570093051173e-06 
 4.5422241362020383e-06  4.6016589296903360e-06  4.6618714351784623e-06  4.7228718295404116e-06 
 4.7846704228366523e-06  4.8472776600575754e-06  4.9107041228897528e-06  4.9749605315052864e-06 
 5.0400577463745445e-06  5.1060067701025855e-06  5.1728187492895675e-06  5.2405049764154403e-06 
 5.3090768917492403e-06  5.3785460852832652e-06  5.4489242986924743e-06  5.5202234273193920e-06 
 5.5924555221848646e-06  5.6656327920249578e-06  5.7397676053543399e-06  5.8148724925564750e-06 
 5.8909601480009460e-06  5.9680434321882779e-06  6.0461353739225899e-06  6.1252491725124341e-06 
 6.2053982000002153e-06  6.2865960034205731e-06  6.3688563070881043e-06  6.4521930149149066e-06 
 6.5366202127583023e-06  6.6221521707993033e-06  6.7088033459522147e-06  6.7965883843059700e-06 
 6.8855221235976498e-06  6.9756195957188123e-06  7.0668960292551745e-06  7.1593668520602520e-06 
 7.2530476938635534e-06  7.3479543889139840e-06  7.4441029786590577e-06  7.5415097144605801e-06 
 7.6401910603474371e-06  7.7401636958061172e-06  7.8414445186096197e-06  7.9440506476854005e-06 
 8.0479994260229378e-06  8.1533084236215876e-06  8.2599954404793250e-06  8.3680785096229549e-06 
 8.4775759001804343e-06  8.5885061204957906e-06  8.7008879212872125e-06  8.8147402988493021e-06 
 8.9300824982961440e-06  9.0469340167693866e-06  9.1653146066607534e-06  9.2852442789557788e-06 
 9.4067433066255358e-06  9.5298322280627239e-06  9.6545318505633097e-06  9.7808632538543617e-06 
 9.9088477936687460e-06  1.0038507105367385e-05  1.0169863107609698e-05  1.0302938006073031e-05 
 1.0437754297221731e-05  1.0574334772126618e-05  1.0712702520335692e-05  1.0852880933796762e-05 
 1.0994893710832895e-05  1.1138764860171462e-05  1.1284518705027715e-05  1.1432179887243717e-05 
 1.1581773371483647e-05  1.1733324449486379e-05  1.1886858744376364e-05  1.2042402215033910e-05 
 1.2199981160525910e-05  1.2359622224598231e-05  1.2521352400230973e-05  1.2685199034257879e-05 
 1.2851189832051247e-05  1.3019352862273890e-05  1.3189716561699556e-05  1.3362309740103529e-05 
 1.3537161585225153e-05  1.3714301667804146e-05  1.3893759946692625e-05  1.4075566774045045e-05 
 1.4259752900588202e-05  1.4446349480973603e-05  1.4635388079214665e-05  1.4826900674211045e-05 
 1.5020919665362499e-05  1.5217477878274314e-05  1.5416608570556033e-05  1.5618345437714405e-05 
 1.5822722619140356e-05  1.6029774704187992e-05  1.6239536738341159e-05  1.6452044229459479e-05 
 1.6667333154091213e-05  1.6885439963834352e-05  1.7106401591720787e-05  1.7330255458591450e-05 
 1.7557039479425034e-05  1.7786792069581363e-05  1.8019552150925633e-05  1.8255359157814519e-05 
 1.8494253042951118e-05  1.8736274283149444e-05  1.8981463885086326e-05  1.9229863391146963e-05 
 1.9481514885481665e-05  1.9736461000378413e-05  1.9994744923021368e-05  2.0256410402658432e-05 
 2.0521501758154779e-05  2.0790063885875186e-05  2.1062142267821716e-05  2.1337782979953980e-05 
 2.1617032700631394e-05  2.1899938719134541e-05  2.2186548944240328e-05  2.2476911912840030e-05 
 2.2771076798599868e-05  2.3069093420669989e-05  2.3371012252451204e-05  2.3676884430429828e-05 
 2.3986761763090948e-05  2.4300696739919582e-05  2.4618742540498263e-05  2.4940953043708257e-05 
 2.5267382837040793e-05  2.5598087226023762e-05  2.5933122243768484e-05  2.6272544660640860e-05 
 2.6616411994060318e-05  2.6964782518430104e-05  2.7317715275201755e-05  2.7675270083076751e-05 
 2.8037507548347903e-05  2.8404489075383248e-05  2.8776276877254793e-05  2.9152933986514615e-05 
 2.9534524266121054e-05  2.9921112420517022e-05  3.0312764006863264e-05  3.0709545446428909e-05 
 3.1111524036141799e-05  3.1518767960301246e-05  3.1931346302455722e-05  3.2349329057448171e-05 
 3.2772787143631448e-05  3.3201792415256990e-05  3.3636417675038993e-05  3.4076736686897313e-05 
 3.4522824188881761e-05  3.4974755906280801e-05  3.5432608564917666e-05  3.5896459904636858e-05 
 3.6366388692984222e-05  3.6842474739083715e-05  3.7324798907714232e-05  3.7813443133589622e-05 
 3.8308490435845370e-05  3.8810024932735383e-05  3.9318131856542393e-05  3.9832897568705566e-05 
 4.0354409575168967e-05  4.0882756541954618e-05  4.1418028310963961e-05  4.1960315916011746e-05 
 4.2509711599096098e-05  4.3066308826909111e-05  4.3630202307591849e-05  4.4201488007738304e-05 
 4.4780263169652338e-05  4.5366626328862322e-05  4.5960677331897981e-05  4.6562517354333797e-05 
 4.7172248919104297e-05  4.7789975915095480e-05  4.8415803616017823e-05  4.9049838699565727e-05 
 4.9692189266868791e-05  5.0342964862240086e-05  5.1002276493227203e-05  5.1670236650971333e-05 
 5.2346959330880485e-05  5.3032560053622642e-05  5.3727155886444895e-05  5.4430865464824710e-05 
 5.5143809014460049e-05  5.5866108373604473e-05  5.6597887015754352e-05  5.7339270072694895e-05 
 5.8090384357912191e-05  5.8851358390378453e-05  5.9622322418718337e-05  6.0403408445763550e-05 
 6.1194750253504149e-05  6.1996483428444310e-05  6.2808745387371454e-05  6.3631675403546704e-05 
 6.4465414633326317e-05  6.5310106143222693e-05  6.6165894937414378e-05  6.7032927985715402e-05 
 6.7911354252012877e-05  6.8801324723184154e-05  6.9702992438503412e-05  7.0616512519548790e-05 
 7.1542042200621633e-05  7.2479740859688574e-05  7.3429770049859277e-05  7.4392293531411351e-05 
 7.5367477304375723e-05  7.6355489641694903e-05  7.7356501122967947e-05  7.8370684668795830e-05 
 7.9398215575741450e-05  8.0439271551919074e-05  8.1494032753228206e-05  8.2562681820247939e-05 
 8.3645403915807190e-05  8.4742386763248445e-05  8.5853820685401235e-05  8.6979898644283711e-05 
 8.8120816281550250e-05  8.9276771959704348e-05  9.0447966804095776e-05  9.1634604745722748e-05 
 9.2836892564859252e-05  9.4055039935529432e-05  9.5289259470851287e-05  9.6539766769272050e-05 
 9.7806780461719549e-05  9.9090522259693501e-05  1.0039121700432248e-04  1.0170909271641224e-04 
 1.0304438064751275e-04  1.0439731533203174e-04  1.0576813464042348e-04  1.0715707983348313e-04 
 1.0856439561777710e-04  1.0999033020224141e-04  1.1143513535598148e-04  1.1289906646730711e-04 
 1.1438238260403865e-04  1.1588534657512012e-04  1.1740822499357822e-04  1.1895128834086561e-04 
 1.2051481103263003e-04  1.2209907148595040e-04  1.2370435218808426e-04  1.2533093976677115e-04 
 1.2697912506213943e-04  1.2864920320026401e-04  1.3034147366842622e-04  1.3205624039212715e-04 
 1.3379381181390836e-04  1.3555450097403672e-04  1.3733862559311006e-04  1.3914650815664452e-04 
 1.4097847600170535e-04  1.4283486140564649e-04  1.4471600167702441e-04  1.4662223924875753e-04 
 1.4855392177360113e-04  1.5051140222201401e-04  1.5249503898249391e-04  1.5450519596446139e-04 
 1.5654224270377601e-04  1.5860655447097211e-04  1.6069851238230190e-04  1.6281850351368153e-04 
 1.6496692101763440e-04  1.6714416424333417e-04  1.6935063885984973e-04  1.7158675698270253e-04 
 1.7385293730384579e-04  1.7614960522518468e-04  1.7847719299575739e-04  1.8083613985270299e-04 
 1.8322689216614655e-04  1.8564990358813755e-04  1.8810563520578255e-04  1.9059455569871763e-04 
 1.9311714150107461e-04  1.9567387696809690e-04  1.9826525454757105e-04  2.0089177495624335e-04 
 2.0355394736140014e-04  2.0625228956779542e-04  2.0898732821011764e-04  2.1175959895119526e-04 
 2.1456964668614776e-04  2.1741802575269827e-04  2.2030530014787120e-04  2.2323204375130799e-04 
 2.2619884055544384e-04  2.2920628490279621e-04  2.3225498173062907e-04  2.3534554682326343e-04 
 2.3847860707232007e-04  2.4165480074518733e-04  2.4487477776202391e-04  2.4813919998161317e-04 
 2.5144874149640468e-04  2.5480408893708629e-04  2.5820594178704962e-04  2.6165501270712270e-04 
 2.6515202787096010e-04  2.6869772731149920e-04  2.7229286527890206e-04  2.7593821061042942e-04 
 2.7963454711269978e-04  2.8338267395681700e-04  2.8718340608686118e-04  2.9103757464226396e-04 
 2.9494602739460669e-04  2.9890962919940740e-04  3.0292926246348097e-04  3.0700582762848539e-04 
 3.1114024367129241e-04  3.1533344862184475e-04  3.1958640009919489e-04  3.2390007586644579e-04 
 3.2827547440534758e-04  3.3271361551133412e-04  3.3721554090981892e-04  3.4178231489460448e-04 
 3.4641502498929295e-04  3.5111478263263245e-04  3.5588272388876129e-04  3.6072001018336763e-04 
 3.6562782906681508e-04  3.7060739500533818e-04  3.7565995020145639e-04  3.8078676544480567e-04 
 3.8598914099464065e-04  3.9126840749531511e-04  3.9662592692610662e-04  4.0206309358681091e-04 
 4.0758133512059508e-04  4.1318211357566678e-04  4.1886692650738367e-04  4.2463730812250213e-04 
 4.3049483046734058e-04  4.3644110466171092e-04  4.4247778218055778e-04  4.4860655618533373e-04 
 4.5482916290722755e-04  4.6114738308446223e-04  4.6756304345598159e-04  4.7407801831394840e-04 
 4.8069423111759055e-04  4.8741365617104845e-04  4.9423832036800115e-04  5.0117030500597490e-04 
 5.0821174767337932e-04  5.1536484421245302e-04  5.2263185076145300e-04  5.3001508587958177e-04 
 5.3751693275830737e-04  5.4513984152290836e-04  5.5288633162825767e-04  5.6075899435305222e-04 
 5.6876049539689372e-04  5.7689357758484907e-04  5.8516106368432404e-04  5.9356585933934166e-04 
 6.0211095612754649e-04  6.1079943474552504e-04  6.1963446832830743e-04  6.2861932590920074e-04 
 6.3775737602641451e-04  6.4705209048325138e-04  6.5650704826898448e-04  6.6612593964789307e-04 
 6.7591257042430206e-04  6.8587086639187100e-04  6.9600487797580161e-04  7.0631878507705506e-04 
 7.1681690212815506e-04  7.2750368337063363e-04  7.3838372836469615e-04  7.4946178774222539e-04 
 7.6074276921482813e-04  7.7223174384923325e-04  7.8393395262299200e-04  7.9585481327411930e-04 
 8.0799992745902180e-04  8.2037508823383271e-04  8.3298628787506241e-04  8.4583972605633672e-04 
 8.5894181839887937e-04  8.7229920541436108e-04  8.8591876185972979e-04  8.9980760652470326e-04 
 9.1397311247374971e-04  9.2842291776554133e-04  9.4316493667415938e-04  9.5820737143765362e-04 
 9.7355872456097721e-04  9.8922781170181998e-04  1.0052237751694592e-03  1.0215560980684261e-03 
 1.0382346191205837e-03  1.0552695482011032e-03  1.0726714826258372e-03  1.0904514242297276e-03 
 1.1086207972781504e-03  1.1271914672554909e-03  1.1461757605778140e-03  1.1655864852791889e-03 
 1.1854369527241064e-03  1.2057410004014738e-03  1.2265130158589513e-03  1.2477679618397774e-03 
 1.2695214026879631e-03  1.2917895320915746e-03  1.3145892022379921e-03  1.3379379544594173e-03 
 1.3618540514515852e-03  1.3863565111536052e-03  1.4114651423821534e-03  1.4372005823188594e-03 
 1.4635843359557218e-03  1.4906388176097599e-03  1.5183873946248811e-03  1.5468544333861721e-03 
 1.5760653477794940e-03  1.6060466502374443e-03  1.6368260055214540e-03  1.6684322873990582e-03 
 1.7008956383852696e-03  1.7342475327274598e-03  1.7685208428244068e-03  1.8037499092820517e-03 
 1.8399706148212527e-03  1.8772204622663320e-03  1.9155386568576705e-03  1.9549661931469431e-03 
 1.9955459467499888e-03  2.0373227712497306e-03  2.0803436005601811e-03  2.1246575570823454e-03 
 2.1703160660039656e-03  2.2173729761175058e-03  2.2658846875547698e-03  2.3159102868620255e-03 
 2.3675116898667151e-03  2.4207537928157921e-03  2.4757046322965619e-03  2.5324355544837189e-03 
 2.5910213942912904e-03  2.6515406650453803e-03  2.7140757593332606e-03  2.7787131617264954e-03 
 2.8455436741206624e-03  2.9146626544819471e-03  2.9861702698416068e-03  3.0601717644332450e-03 
 3.1367777439251297e-03  3.2161044767606639e-03  3.2982742136847339e-03  3.3834155266022434e-03 
 3.4716636679878910e-03  3.5631609521433439e-03  3.6580571596796850e-03  3.7565099666894727e-03 
 3.8586854001643350e-03  3.9647583213106583e-03  4.0749129385182293e-03  4.1893433518444614e-03 
 4.3082541309905345e-03  4.4318609288655029e-03  4.5603911329603264e-03  4.6940845568860367e-03 
 4.8331941745689963e-03  4.9779868997414456e-03  5.1287444135174410e-03  5.2857640430027325e-03 
 5.4493596940521378e-03  5.6198628414593508e-03  5.7976235800417516e-03  5.9830117402661989e-03 
 6.1764180722507622e-03  6.3782555021711573e-03  6.5889604652987948e-03  6.8089943200986451e-03 
 7.0388448480189604e-03  7.2790278438096450e-03  7.5300888014102098e-03  7.7926047006503622e-03 
 8.0671859002036678e-03  8.3544781424254224e-03  8.6551646758867493e-03  8.9699685015846315e-03 
 9.2996547489586200e-03  9.6450331879745013e-03  1.0006960883638864e-02  1.0386344999380183e-02 
 1.0784145755765881e-02  1.1201379551013383e-02  1.1639122249688848e-02  1.2098512645860917e-02 
 1.2580756106779157e-02  1.3087128402866235e-02  1.3618979729438482e-02  1.4177738925087245e-02 
 1.4764917891049780e-02  1.5382116215157565e-02  1.6031026003055279e-02  1.6713436918317264e-02 
 1.7431241431830728e-02  1.8186440279346246e-02  1.8981148124394279e-02  1.9817599421809166e-02 
 2.0698154474866188e-02  2.1625305676498424e-02  2.2601683922194280e-02  2.3630065178958951e-02 
 2.4713377191130741e-02  2.5854706299851100e-02  2.7057304348577092e-02  2.8324595642173579e-02 
 2.9660183921817910e-02  3.1067859312176566e-02  3.2551605191066681e-02  3.4115604925094141e-02 
 3.5764248407571572e-02  3.7502138327380787e-02  3.9334096089383166e-02  4.1265167298538158e-02 
 4.3300626711119436e-02  4.5445982547394133e-02  4.7706980050940213e-02  5.0089604170535963e-02 
 5.2600081231393786e-02  5.5244879453589864e-02  5.8030708167043997e-02  6.0964515564542750e-02 
 6.4053484827313475e-02  6.7305028451811202e-02  7.0726780601971059e-02  7.4326587308518641e-02 
 7.8112494336355906e-02  8.2092732542899741e-02  8.6275700554893975e-02  9.0669944598988444e-02 
 9.5284135332597941e-02  1.0012704153649581e-01  1.0520750054946576e-01  1.1053438534823785e-01 
 1.1611656820284137e-01  1.2196288086821412e-01  1.2808207130698954e-01  1.3448275697514869e-01 
 1.4117337474066691e-01  1.4816212754404989e-01  1.5545692794700966e-01  1.6306533874936038e-01 
 1.7099451088208251e-01  1.7925111880369965e-01  1.8784129363486154e-01  1.9677055425968598e-01 
 2.0604373659985048e-01  2.1566492122741374e-01  2.2563735942511845e-01  2.3596339773070935e-01 
 2.4664440091940118e-01  2.5768067329392941e-01  2.6907137807588066e-01  2.8081445463999427e-01 
 2.9290653332282068e-01  3.0534284758910951e-01  3.1811714347568404e-01  3.3122158647546879e-01 
 3.4464666639390301e-01  3.5838110122146477e-01  3.7241174172625974e-01  3.8672347927257972e-01 
 4.0129916028750601e-01  4.1611951177164785e-01  4.3116308318846908e-01  4.4640621083365151e-01 
 4.6182301120715441e-01  4.7738540979168692e-01  4.9306321080714571e-01  5.0882421186330840e-01 
 5.2463436501548366e-01  5.4045798276507806e-01  5.5625798443509167e-01  5.7199617557250260e-01 
 5.8763355101581249e-01  6.0313061125315348e-01  6.1844768165447084e-01  6.3354522483449438e-01 
 6.4838413744689682e-01  6.6292602385455479e-01  6.7713344027919842e-01  6.9097010430381078e-01 
 7.0440106617021792e-01  7.1739284031954431e-01  7.2991349803592420e-01  7.4193272464080506e-01 
 7.5342184706263193e-01  7.6435383936220247e-01  7.7470331462201381e-01  7.8444651140282851e-01 
 7.9356128184446739e-01  8.0202708671654677e-01  8.0982500065605989e-01  8.1693772879017212e-01 
 8.2334963423612650e-01  8.2904677558335826e-01  8.3401695311507740e-01  8.3824973658751201e-01 
 8.4173652879563543e-01  8.4447060202359692e-01  8.4644713274282879e-01  8.4766322876681954e-01 
 8.4811794655563877e-01  8.4781229765414134e-01  8.4674924376519922e-01  8.4493368040736139e-01 
 8.4237240947231462e-01  8.3907410127776205e-01  8.3504924690935645e-01  8.3031010176943787e-01 
 8.2487062131187716e-01  8.1874638995379634e-01  8.1195454412886636e-01  8.0451369039467668e-01 
 7.9644381943838061e-01  7.8776621674846514e-01  7.7850337064237296e-01  7.6867887826431081e-01 
 7.5831735009782886e-01  7.4744431347535889e-01  7.3608611551248793e-01  7.2426982584825128e-01 
 7.1202313953357443e-01  6.9937428037728699e-01  6.8635190503186616e-01  6.7298500807822581e-01 
 6.5930282834924103e-01  6.4533475671350016e-01  6.3111024469513888e-01  6.1665871831782393e-01 
 6.0200948897808504e-01  5.8719166988216054e-01  5.7223409406009174e-01  5.5716523494285919e-01 
 5.4201312966713211e-01  5.2680530527054747e-01  5.1156870794277853e-01  4.9632963550257070e-01 
 4.8111367327938109e-01  4.6594563358523022e-01  4.5084949896956950e-01  4.3584836946150018e-01 
 4.2096441400774265e-01  4.0621882631454898e-01  3.9163178529920822e-01  3.7722242034561165e-01 
 3.6300878154217342e-01  3.4900781505117462e-01  3.3523534372172892e-01  3.2170605302187583e-01 
 3.0843348231325490e-01  2.9543002143524394e-01  2.8270691251000396e-01  2.7027425682126410e-01 
 2.5814102656300469e-01  2.4631508120156928e-01  2.3480318814814624e-01  2.2361104739975049e-01 
 2.1274331977700617e-01  2.0220365836689233e-01  1.9199474276830880e-01  1.8211831573749440e-01 
 1.7257522183818261e-01  1.6336544771678671e-01  1.5448816364451179e-01  1.4594176599464764e-01 
 1.3772392035296674e-01  1.2983160499079299e-01  1.2226115446274716e-01  1.1500830312341349e-01 
 1.0806822838838034e-01  1.0143559359459016e-01  9.5104590342047643e-02  8.9068980223047059e-02 
 8.3322135865512362e-02  7.7857081233082603e-02  7.2666531135515633e-02  6.7742929908260779e-02 
 6.3078489219388731e-02  5.8665224955652330e-02  5.4494993128090564e-02  5.0559524722751562e-02 
 4.6850459405887772e-02  4.3359377977883036e-02  4.0077833458833388e-02  3.6997380683476661e-02 
 3.4109604285769091e-02  3.1406144964600612e-02  2.8878723941591380e-02  2.6519165548192950e-02 
 2.4319417910108283e-02  2.2271571729457724e-02  2.0367877196112903e-02  1.8600759086430881e-02 
 1.6962830128121290e-02  1.5446902722949725e-02  1.4045999124208307e-02  1.2753360164114788e-02 
 1.1562452619041944e-02  1.0466975289702621e-02  9.4608638612323267e-03  8.5382945964605304e-03 
 7.6936869060064209e-03  6.9217048322999519e-03  6.2172574815770954e-03  5.5754984380054226e-03 
 4.9918241972608133e-03  4.4618716622597211e-03  3.9815147503537108e-03  3.5468601685010692e-03 
 3.1542424199482852e-03  2.8002181122077827e-03  2.4815596411876611e-03  2.1952483299495498e-03 
 1.9384671026174782e-03  1.7085927744256422e-03  1.5031880378580740e-03  1.3199932224459716e-03 
 1.1569179022394547e-03  1.0120324204748671e-03  8.8355939574083259e-04  7.6986526822693079e-04 
 6.6945193862627170e-04  5.8094854614474832e-04  5.0310342600718393e-04  4.3477628097659269e-04 
 3.7493059581976065e-04  3.2262631843301293e-04  2.7701282653154631e-04  2.3732219442524328e-04 
 2.0286277045495190e-04  1.7301307213233444e-04  1.4721600288982562e-04  1.2497339157521809e-04 
 1.0584085338569120e-04  8.9422968796841590e-05  7.5368775173801370e-05  6.3367564127585172e-05 
 5.3144976277937932e-05  4.4459383885487006e-05  3.7098550805604262e-05  3.0876558381419905e-05 
 2.5630985223267441e-05  2.1220328307116302e-05  1.7521652456558217e-05  1.4428455043092194e-05 
 1.1848732639004561e-05  9.7032363768024667e-06  7.9239028990892011e-06  6.4524480125409402e-06 
 5.2391104783235798e-06  4.2415337675731010e-06  3.4237740729599421e-06  2.7554233843781058e-06 
 2.2108369971571228e-06  1.7684554139959223e-06  1.4102112167304917e-06  1.1210121114461557e-06 
 8.8829198152593288e-07  7.0162241008854794e-07  5.5237774897169519e-07  4.3344740999901107e-07 
 3.3898963075492799e-07  2.6422151745870139e-07  2.0524068866865420e-07  1.5887433320473423e-07 
 1.2255195237917608e-07  9.4198479602319065e-08  7.2144859534273661e-08  5.5053524568161701e-08 
 4.1856529391264815e-08  3.1704395877665471e-08  2.3923982109943911e-08  1.7983922615145253e-08 
 1.3466393789836162e-08  1.0044140931924957e-08  7.4618632864796307e-09  5.5211930413362680e-09 
 4.0686252309395910e-09  2.9858599124334736e-09  2.1821075665121972e-09  1.5879851414074706e-09 
 1.1506950791293607e-09  8.3023449246879621e-10  5.9642772651911004e-10  4.2661404079031306e-10 
 3.0385416592009702e-10  2.1554598409187718e-10  1.5236140676023637e-10  1.0743442938996491e-10 
 0.0000000000000000e+00  0.0000000000000000e+00  0.0000000000000000e+00  0.0000000000000000e+00 
 0.0000000000000000e+00  0.0000000000000000e+00  0.0000000000000000e+00  0.0000000000000000e+00 
 0.0000000000000000e+00  0.0000000000000000e+00  0.0000000000000000e+00  0.0000000000000000e+00 
 0.0000000000000000e+00  0.0000000000000000e+00  0.0000000000000000e+00  0.0000000000000000e+00 
 0.0000000000000000e+00  0.0000000000000000e+00  0.0000000000000000e+00  0.0000000000000000e+00 
 0.0000000000000000e+00  0.0000000000000000e+00  0.0000000000000000e+00  0.0000000000000000e+00 
 0.0000000000000000e+00  0.0000000000000000e+00  0.0000000000000000e+00  0.0000000000000000e+00 
 0.0000000000000000e+00  0.0000000000000000e+00  0.0000000000000000e+00  0.0000000000000000e+00 
 0.0000000000000000e+00  0.0000000000000000e+00  0.0000000000000000e+00  0.0000000000000000e+00 
 0.0000000000000000e+00  0.0000000000000000e+00  0.0000000000000000e+00  0.0000000000000000e+00 
 0.0000000000000000e+00  0.0000000000000000e+00  0.0000000000000000e+00  0.0000000000000000e+00 
 0.0000000000000000e+00  0.0000000000000000e+00  0.0000000000000000e+00  0.0000000000000000e+00 
 0.0000000000000000e+00  0.0000000000000000e+00  0.0000000000000000e+00  0.0000000000000000e+00 
 0.0000000000000000e+00  0.0000000000000000e+00  0.0000000000000000e+00  0.0000000000000000e+00 
 0.0000000000000000e+00  0.0000000000000000e+00  0.0000000000000000e+00  0.0000000000000000e+00 
 0.0000000000000000e+00  0.0000000000000000e+00  0.0000000000000000e+00  0.0000000000000000e+00 
 0.0000000000000000e+00  0.0000000000000000e+00  0.0000000000000000e+00  0.0000000000000000e+00 
 0.0000000000000000e+00  0.0000000000000000e+00  0.0000000000000000e+00  0.0000000000000000e+00 
 0.0000000000000000e+00  0.0000000000000000e+00  0.0000000000000000e+00  0.0000000000000000e+00 
 0.0000000000000000e+00  0.0000000000000000e+00  0.0000000000000000e+00  0.0000000000000000e+00 
 0.0000000000000000e+00  0.0000000000000000e+00  0.0000000000000000e+00  0.0000000000000000e+00 
 0.0000000000000000e+00  0.0000000000000000e+00  0.0000000000000000e+00  0.0000000000000000e+00 
 0.0000000000000000e+00  0.0000000000000000e+00  0.0000000000000000e+00  0.0000000000000000e+00 
 0.0000000000000000e+00  0.0000000000000000e+00  0.0000000000000000e+00  0.0000000000000000e+00 
 0.0000000000000000e+00  0.0000000000000000e+00  0.0000000000000000e+00  0.0000000000000000e+00 
 0.0000000000000000e+00  0.0000000000000000e+00  0.0000000000000000e+00  0.0000000000000000e+00 
 0.0000000000000000e+00  0.0000000000000000e+00  0.0000000000000000e+00  0.0000000000000000e+00 
 0.0000000000000000e+00  0.0000000000000000e+00  0.0000000000000000e+00  0.0000000000000000e+00 
 0.0000000000000000e+00  0.0000000000000000e+00  0.0000000000000000e+00  0.0000000000000000e+00 
 0.0000000000000000e+00  0.0000000000000000e+00  0.0000000000000000e+00  0.0000000000000000e+00 
 0.0000000000000000e+00  0.0000000000000000e+00  0.0000000000000000e+00  0.0000000000000000e+00 
 0.0000000000000000e+00  0.0000000000000000e+00  0.0000000000000000e+00  0.0000000000000000e+00 
 0.0000000000000000e+00  0.0000000000000000e+00  0.0000000000000000e+00  0.0000000000000000e+00 
 0.0000000000000000e+00  0.0000000000000000e+00  0.0000000000000000e+00  0.0000000000000000e+00 
 0.0000000000000000e+00  0.0000000000000000e+00 
P    1   1.17          Wavefunction
 2.0740413302164826e-11  2.1286735461484168e-11  2.1847448264721485e-11  2.2422930775090235e-11 
 2.3013572040688633e-11  2.3619771357510994e-11  2.4241938539387051e-11  2.4880494195031743e-11 
 2.5535870012392704e-11  2.6208509050487816e-11  2.6898866038929957e-11  2.7607407685341583e-11 
 2.8334612990866874e-11  2.9080973573994742e-11  2.9846994002911736e-11  3.0633192136609294e-11 
 3.1440099474976241e-11  3.2268261518112939e-11  3.3118238135110164e-11  3.3990603942541983e-11 
 3.4885948692928452e-11  3.5804877673430813e-11  3.6748012115048724e-11  3.7715989612596066e-11 
 3.8709464555739410e-11  3.9729108571390353e-11  4.0775610977750948e-11  4.1849679250319108e-11 
 4.2952039500169018e-11  4.4083436964829952e-11  4.5244636512095230e-11  4.6436423157102071e-11 
 4.7659602593031769e-11  4.8915001735789040e-11  5.0203469283028711e-11  5.1525876287907714e-11 
 5.2883116747950318e-11  5.4276108209424477e-11  5.5705792387638291e-11  5.7173135803575316e-11 
 5.8679130437299784e-11  6.0224794398572947e-11  6.1811172615134125e-11  6.3439337539111812e-11 
 6.5110389872042204e-11  6.6825459308985562e-11  6.8585705302243073e-11  7.0392317845191089e-11 
 7.2246518276761879e-11  7.4149560107115561e-11  7.6102729865060876e-11  7.8107347967797597e-11 
 8.0164769613569289e-11  8.2276385697828913e-11  8.4443623753537432e-11  8.6667948916230523e-11 
 8.8950864914506349e-11  9.1293915086603426e-11  9.3698683423756401e-11  9.6166795641034609e-11 
 9.8699920276387614e-11  1.0129976981864075e-10  1.0396810186520308e-10  1.0670672031027031e-10 
 1.0951747656432644e-10  1.1240227080576803e-10  1.1536305326549750e-10  1.1840182554535386e-10 
 1.2152064197127215e-10  1.2472161098208644e-10  1.2800689655491517e-10  1.3137871966809259e-10 
 1.3483935980263516e-10  1.3839115648325791e-10  1.4203651085998297e-10  1.4577788733140876e-10 
 1.4961781521073810e-10  1.5355889043569069e-10  1.5760377732345665e-10  1.6175521037187689e-10 
 1.6601599610806877e-10  1.7038901498574584e-10  1.7487722333251518e-10  1.7948365534846824e-10 
 1.8421142515741649e-10  1.8906372891215876e-10  1.9404384695520314e-10  1.9915514603640442e-10 
 2.0440108158901640e-10  2.0978520006569761e-10  2.1531114133604922e-10  2.2098264114730713e-10 
 2.2680353364985046e-10  2.3277775398923490e-10  2.3890934096650209e-10  2.4520243976856485e-10 
 2.5166130477051286e-10  2.5829030241173409e-10  2.6509391414779565e-10  2.7207673948008075e-10 
 2.7924349906522861e-10  2.8659903790648015e-10  2.9414832862908722e-10  3.0189647484199886e-10 
 3.0984871458809780e-10  3.1801042388531958e-10  3.2638712036104835e-10  3.3498446698224549e-10 
 3.4380827588383467e-10  3.5286451229792950e-10  3.6215929858656066e-10  3.7169891838062946e-10 
 3.8148982082788622e-10  3.9153862495280226e-10  4.0185212413128817e-10  4.1243729068327807e-10 
 4.2330128058628891e-10  4.3445143831313765e-10  4.4589530179709086e-10  4.5764060752779932e-10 
 4.6969529578146593e-10  4.8206751598878055e-10  4.9476563224425206e-10  5.0779822896066112e-10 
 5.2117411667245776e-10  5.3490233799202533e-10  5.4899217372283846e-10  5.6345314913364848e-10 
 5.7829504039793580e-10  5.9352788120298591e-10  6.0916196953305229e-10  6.2520787463119687e-10 
 6.4167644414451170e-10  6.5857881145755271e-10  6.7592640321894280e-10  6.9373094706623525e-10 
 7.1200447955425555e-10  7.3075935429228514e-10  7.5000825029558672e-10  7.6976418055691635e-10 
 7.9004050084381795e-10  8.1085091872764951e-10  8.3220950285043928e-10  8.5413069243584455e-10 
 8.7662930705063534e-10  8.9972055662330738e-10  9.2342005172659582e-10  9.4774381413083916e-10 
 9.7270828763533183e-10  9.9833034918498444e-10  1.0246273202798080e-09  1.0516169786849374e-09 
 1.0793175704491066e-09  1.1077478222397055e-09  1.1369269540027547e-09  1.1668746919563547e-09 
 1.1976112819263970e-09  1.2291575030335570e-09  1.2615346817408076e-09  1.2947647062709681e-09 
 1.3288700414040191e-09  1.3638737436641991e-09  1.3997994769071448e-09  1.4366715283176105e-09 
 1.4745148248285887e-09  1.5133549499729234e-09  1.5532181611788180e-09  1.5941314075209207e-09 
 1.6361223479389966e-09  1.6792193699364973e-09  1.7234516087716695e-09  1.7688489671541853e-09 
 1.8154421354605942e-09  1.8632626124822787e-09  1.9123427267199315e-09  1.9627156582389537e-09 
 2.0144154611005508e-09  2.0674770863836806e-09  2.1219364058134364e-09  2.1778302360118198e-09 
 2.2351963633873102e-09  2.2940735696800537e-09  2.3545016581799396e-09  2.4165214806352919e-09 
 2.4801749648703694e-09  2.5455051431303382e-09  2.6125561811728865e-09  2.6813734081261480e-09 
 2.7520033471331118e-09  2.8244937468032509e-09  2.8988936134926182e-09  2.9752532444342373e-09 
 3.0536242617411937e-09  3.1340596473054063e-09  3.2166137786156678e-09  3.3013424655191859e-09 
 3.3883029879514672e-09  3.4775541346600409e-09  3.5691562429482329e-09  3.6631712394658225e-09 
 3.7596626820741891e-09  3.8586958028142279e-09  3.9603375520061128e-09  4.0646566435106854e-09 
 4.1717236011830946e-09  4.2816108065500900e-09  4.3943925477431847e-09  4.5101450697208017e-09 
 4.6289466258133216e-09  4.7508775306259003e-09  4.8760202143348191e-09  5.0044592784140780e-09 
 5.1362815528298999e-09  5.2715761547418126e-09  5.4104345487500065e-09  5.5529506087296888e-09 
 5.6992206812942405e-09  5.8493436509300888e-09  6.0034210068473112e-09  6.1615569115911986e-09 
 6.3238582714611427e-09  6.4904348087844407e-09  6.6613991360939349e-09  6.8368668322595691e-09 
 7.0169565206253683e-09  7.2017899492046904e-09  7.3914920729879153e-09  7.5861911384182536e-09 
 7.7860187700927692e-09  7.9911100597472661e-09  8.2016036575851335e-09  8.4176418660119821e-09 
 8.6393707358393532e-09  8.8669401650225984e-09  9.1005039999996764e-09  9.3402201396993592e-09 
 9.5862506422891698e-09  9.8387618347352146e-09  1.0097924425248017e-08  1.0363913618690278e-08 
 1.0636909235024692e-08  1.0917095830881807e-08  1.1204662824330130e-08  1.1499804622932872e-08 
 1.1802720755177774e-08  1.2113616005369014e-08  1.2432700552072191e-08  1.2760190110206118e-08 
 1.3096306076877366e-08  1.3441275681056114e-08  1.3795332137194537e-08  1.4158714802891403e-08 
 1.4531669340709563e-08  1.4914447884255556e-08  1.5307309208633580e-08  1.5710518905388974e-08 
 1.6124349562059437e-08  1.6549080946455187e-08  1.6985000195792595e-08  1.7432402010809086e-08 
 1.7891588854990329e-08  1.8362871159044374e-08  1.8846567530760888e-08  1.9343004970397140e-08 
 1.9852519091736469e-08  2.0375454348968510e-08  2.0912164269544580e-08  2.1463011693165708e-08 
 2.2028369017064963e-08  2.2608618447750094e-08  2.3204152259376870e-08  2.3815373058928180e-08 
 2.4442694058378501e-08  2.5086539354028316e-08  2.5747344213197881e-08  2.6425555368474891e-08 
 2.7121631319715677e-08  2.7836042644005055e-08  2.8569272313785192e-08  2.9321816023369699e-08 
 3.0094182524064542e-08  3.0886893968123566e-08  3.1700486261772153e-08  3.2535509427538967e-08 
 3.3392527976141645e-08  3.4272121288179269e-08  3.5174884005890689e-08  3.6101426435244621e-08 
 3.7052374958634547e-08  3.8028372458458417e-08  3.9030078751870216e-08  4.0058171037000376e-08 
 4.1113344350929756e-08  4.2196312039375177e-08  4.3307806238610343e-08  4.4448578370440212e-08 
 4.5619399650233191e-08  4.6821061608335836e-08  4.8054376625225408e-08  4.9320178480762849e-08 
 5.0619322917917741e-08  5.1952688221347082e-08  5.3321175811219657e-08  5.4725710852688146e-08 
 5.6167242881422048e-08  5.7646746445624879e-08  5.9165221764971153e-08  6.0723695406909599e-08 
 6.2323220980791201e-08  6.3964879850292822e-08  6.5649781864619888e-08  6.7379066108984379e-08 
 6.9153901674867634e-08  7.0975488450591242e-08  7.2845057932733448e-08  7.4763874058942561e-08 
 7.6733234062714536e-08  7.8754469350716267e-08  8.0828946403252816e-08  8.2958067698492590e-08 
 8.5143272661081294e-08  8.7386038635793377e-08  8.9687881886886649e-08  9.2050358623844976e-08 
 9.4475066054212602e-08  9.6963643464243402e-08  9.9517773328108828e-08  1.0213918244642834e-07 
 1.0482964311490897e-07  1.0759097432390074e-07  1.1042504298969927e-07  1.1333376521844689e-07 
 1.1631910760350837e-07  1.1938308855721785e-07  1.2252777967791495e-07  1.2575530715320690e-07 
 1.2906785320040858e-07  1.3246765754512231e-07  1.3595701893892386e-07  1.3953829671711250e-07 
 1.4321391239746611e-07  1.4698635132091079e-07  1.5085816433497003e-07  1.5483196952080989e-07 
 1.5891045396465344e-07  1.6309637557432609e-07  1.6739256494174031e-07  1.7180192725226896e-07 
 1.7632744424221273e-07  1.8097217620592495e-07  1.8573926405456877e-07  1.9063193142885458e-07 
 1.9565348686832572e-07  2.0080732603976264e-07  2.0609693402704361e-07  2.1152588768441842e-07 
 2.1709785805473341e-07  2.2281661285381710e-07  2.2868601902206399e-07  2.3471004534424829e-07 
 2.4089276513872198e-07  2.4723835901734285e-07  2.5375111771768644e-07  2.6043544500928620e-07 
 2.6729586067580480e-07  2.7433700357516119e-07  2.8156363477973410e-07  2.8898064079883495e-07 
 2.9659303688570454e-07  3.0440597043134163e-07  3.1242472444752575e-07  3.2065472114144378e-07 
 3.2910152558438897e-07  3.3777084947705361e-07  3.4666855501399602e-07  3.5580065884992715e-07 
 3.6517333617052071e-07  3.7479292487052588e-07  3.8466592984202462e-07  3.9479902737575380e-07 
 4.0519906967848304e-07  4.1587308950952156e-07  4.2682830493950169e-07  4.3807212423467448e-07 
 4.4961215087003596e-07  4.6145618867468694e-07  4.7361224711292401e-07  4.8608854670464909e-07 
 4.9889352458877812e-07  5.1203584023343150e-07  5.2552438129678501e-07  5.3936826964256222e-07 
 5.5357686751425999e-07  5.6815978387230273e-07  5.8312688089843130e-07  5.9848828067175262e-07 
 6.1425437202098563e-07  6.3043581755756880e-07  6.4704356089440850e-07  6.6408883405518236e-07 
 6.8158316507923664e-07  6.9953838582725499e-07  7.1796663999301309e-07  7.3688039132666758e-07 
 7.5629243207518448e-07  7.7621589164565036e-07  7.9666424549737175e-07  8.1765132426881528e-07 
 8.3919132314561155e-07  8.6129881147600514e-07  8.8398874264030434e-07  9.0727646418106213e-07 
 9.3117772820089257e-07  9.5570870203501658e-07  9.8088597920581700e-07  1.0067265906668789e-06 
 1.0332480163441857e-06  1.0604681969823542e-06  1.0884055463039940e-06  1.1170789634904944e-06 
 1.1465078459927719e-06  1.1767121026807193e-06  1.2077121673403597e-06  1.2395290125279168e-06 
 1.2721841637902884e-06  1.3056997142616433e-06  1.3400983396461321e-06  1.3754033135969662e-06 
 1.4116385235023927e-06  1.4488284866893821e-06  1.4869983670561242e-06  1.5261739921447323e-06 
 1.5663818706658656e-06  1.6076492104872791e-06  1.6500039370986548e-06  1.6934747125653760e-06 
 1.7380909549842658e-06  1.7838828584546513e-06  1.8308814135784798e-06  1.8791184285035728e-06 
 1.9286265505245036e-06  1.9794392882559474e-06  2.0315910343937810e-06  2.0851170890795997e-06 
 2.1400536838847563e-06  2.1964380064304544e-06  2.2543082256608782e-06  2.3137035177868080e-06 
 2.3746640929176235e-06  2.4372312224001046e-06  2.5014472668829264e-06  2.5673557051262591e-06 
 2.6350011635764189e-06  2.7044294467260349e-06  2.7756875682807988e-06  2.8488237831543765e-06 
 2.9238876203137140e-06  3.0009299164975222e-06  3.0800028508313752e-06  3.1611599803634983e-06 
 3.2444562765459638e-06  3.3299481626867075e-06  3.4176935523984594e-06  3.5077518890714065e-06 
 3.6001841863971419e-06  3.6950530699722129e-06  3.7924228200103470e-06  3.8923594151932549e-06 
 3.9949305776907129e-06  4.1002058193815013e-06  4.2082564893076178e-06  4.3191558223951029e-06 
 4.4329789894757238e-06  4.5498031486447259e-06  4.6697074979908396e-06  4.7927733297357093e-06 
 4.9190840858209840e-06  5.0487254149823360e-06  5.1817852313508186e-06  5.3183537746230512e-06 
 5.4585236718429032e-06  5.6023900008385856e-06  5.7500503553601743e-06  5.9016049119640303e-06 
 6.0571564986917148e-06  6.2168106655924584e-06  6.3806757571395569e-06  6.5488629865925769e-06 
 6.7214865123586119e-06  6.8986635164074329e-06  7.0805142847969123e-06  7.2671622903666575e-06 
 7.4587342776595574e-06  7.6553603501325073e-06  7.8571740597194587e-06  8.0643124988116645e-06 
 8.2769163947219349e-06  8.4951302067015837e-06  8.7191022255807300e-06  8.9489846761047357e-06 
 9.1849338220415461e-06  9.4271100741370574e-06  9.6756781009976533e-06  9.9308069429815763e-06 
 1.0192670129183042e-05  1.0461445797595581e-05  1.0737316818543506e-05  1.1020470921473166e-05 
 1.1311100825198256e-05  1.1609404371696252e-05  1.1915584663556035e-05  1.2229850205179575e-05 
 1.2552415047843746e-05  1.2883498938731500e-05  1.3223327474044870e-05  1.3572132256315681e-05 
 1.3930151056033356e-05  1.4297627977712827e-05  1.4674813630529225e-05  1.5061965303650083e-05 
 1.5459347146399448e-05  1.5867230353392769e-05  1.6285893354785517e-05  1.6715622011782862e-05 
 1.7156709817562454e-05  1.7609458103766923e-05  1.8074176252727735e-05  1.8551181915586872e-05 
 1.9040801236488429e-05  1.9543369083017128e-05  2.0059229283066741e-05  2.0588734868327049e-05 
 2.1132248324584064e-05  2.1690141849034225e-05  2.2262797614820106e-05  2.2850608043001487e-05 
 2.3453976082182701e-05  2.4073315496024455e-05  2.4709051158875479e-05  2.5361619359767297e-05 
 2.6031468115023268e-05  2.6719057489741360e-05  2.7424859928418763e-05  2.8149360594995193e-05 
 2.8893057722601139e-05  2.9656462973306829e-05  3.0440101808177702e-05  3.1244513867952321e-05 
 3.2070253364669647e-05  3.2917889484583526e-05  3.3788006802713946e-05  3.4681205709396527e-05 
 3.5598102849204265e-05  3.6539331572628610e-05  3.7505542400920044e-05  3.8497403504503127e-05 
 3.9515601195394591e-05  4.0560840434069070e-05  4.1633845351232170e-05  4.2735359784977611e-05 
 4.3866147833821583e-05  4.5026994426125794e-05  4.6218705906438795e-05  4.7442110639304634e-05 
 4.8698059631107981e-05  4.9987427170545316e-05  5.1311111488334194e-05  5.2670035436794736e-05 
 5.4065147189961254e-05  5.5497420964906699e-05  5.6967857764987990e-05  5.8477486145747433e-05 
 6.0027363004232589e-05  6.1618574392527430e-05  6.3252236356316067e-05  6.4929495799333922e-05 
 6.6651531374592828e-05  6.8419554403302058e-05  7.0234809822442563e-05  7.2098577161989940e-05 
 7.4012171552820298e-05  7.5976944766374758e-05  7.7994286287201396e-05  8.0065624419537032e-05 
 8.2192427429139691e-05  8.4376204721630578e-05  8.6618508058655425e-05  8.8920932813229568e-05 
 9.1285119265685941e-05  9.3712753941704518e-05  9.6205570993962539e-05  9.8765353629009668e-05 
 1.0139393558103826e-04  1.0409320263428996e-04  1.0686509419591326e-04  1.0971160492116360e-04 
 1.1263478639291784e-04  1.1563674885756052e-04  1.1871966301938626e-04  1.2188576189575699e-04 
 1.2513734273534880e-04  1.2847676900192570e-04  1.3190647242618391e-04  1.3542895512832300e-04 
 1.3904679181411686e-04  1.4276263204738147e-04  1.4657920260186503e-04  1.5049930989572205e-04 
 1.5452584251187502e-04  1.5866177380771730e-04  1.6291016461776638e-04  1.6727416605304260e-04 
 1.7175702240112065e-04  1.7636207413098231e-04  1.8109276100699027e-04  1.8595262531650284e-04 
 1.9094531521585950e-04  1.9607458819968852e-04  2.0134431469872048e-04  2.0675848181153539e-04 
 2.1232119717592805e-04  2.1803669298584531e-04  2.2390933016013570e-04  2.2994360266964577e-04 
 2.3614414202951508e-04  2.4251572196385109e-04  2.4906326325031223e-04  2.5579183875249330e-04 
 2.6270667864839218e-04  2.6981317586364183e-04  2.7711689171861778e-04  2.8462356179898083e-04 
 2.9233910205968527e-04  3.0026961517298306e-04  3.0842139713147698e-04  3.1680094411782754e-04 
 3.2541495965330078e-04  3.3427036203795708e-04  3.4337429209592424e-04  3.5273412123988033e-04 
 3.6235745986959098e-04  3.7225216612009365e-04  3.8242635497592664e-04  3.9288840776863525e-04 
 4.0364698207567389e-04  4.1471102203975713e-04  4.2608976912869605e-04  4.3779277335679527e-04 
 4.4982990498998189e-04  4.6221136675799054e-04  4.7494770659815133e-04  4.8804983095660707e-04 
 5.0152901867415295e-04  5.1539693548531139e-04  5.2966564916077604e-04  5.4434764532494912e-04 
 5.5945584398198027e-04  5.7500361678548796e-04  5.9100480508903473e-04  6.0747373881638370e-04 
 6.2442525619267847e-04  6.4187472437988329e-04  6.5983806106215093e-04  6.7833175702925689e-04 
 6.9737289980882644e-04  7.1697919840083349e-04  7.3716900917075072e-04  7.5796136296078656e-04 
 7.7937599348188531e-04  8.0143336705257968e-04  8.2415471375439522e-04  8.4756206007731677e-04 
 8.7167826313285489e-04  8.9652704651650239e-04  9.2213303790586270e-04  9.4852180848547618e-04 
 9.7571991429439497e-04  1.0037549395978274e-03  1.0326555423897891e-03  1.0624515021395936e-03 
 1.0931737699012526e-03  1.1248545209114468e-03  1.1575272098086899e-03  1.1912266286136417e-03 
 1.2259889676183018e-03  1.2618518793399897e-03  1.2988545457046684e-03  1.3370377486333026e-03 
 1.3764439442145570e-03  1.4171173406573243e-03  1.4591039802272802e-03  1.5024518253829928e-03 
 1.5472108493390293e-03  1.5934331312960983e-03  1.6411729565915484e-03  1.6904869220374836e-03 
 1.7414340467285497e-03  1.7940758886169368e-03  1.8484766671685064e-03  1.9047033924311789e-03 
 1.9628260008648264e-03  2.0229174983010037e-03  2.0850541104208893e-03  2.1493154411609153e-03 
 2.2157846394777036e-03  2.2845485749272277e-03  2.3556980225375355e-03  2.4293278574800234e-03 
 2.5055372600711404e-03  2.5844299316645863e-03  2.6661143220235756e-03  2.7507038687936405e-03 
 2.8383172497287710e-03  2.9290786483574011e-03  3.0231180338100589e-03  3.1205714555672202e-03 
 3.2215813539242461e-03  3.3262968870101444e-03  3.4348742752383704e-03  3.5474771641109278e-03 
 3.6642770063416963e-03  3.7854534643111302e-03  3.9111948339122697e-03  4.0416984908973660e-03 
 4.1771713608852292e-03  4.3178304142416470e-03  4.4639031870988720e-03  4.6156283298349849e-03 
 4.7732561843899686e-03  4.9370493918522605e-03  5.1072835318074356e-03  5.2842477949989362e-03 
 5.4682456909096741e-03  5.6595957919321691e-03  5.8586325158535481e-03  6.0657069484399044e-03 
 6.2811877079616066e-03  6.5054618535569210e-03  6.7389358393851184e-03  6.9820365165714892e-03 
 7.2352121849949295e-03  7.4989336970129961e-03  7.7736956152591524e-03  8.0600174266810334e-03 
 8.3584448150165122e-03  8.6695509939246473e-03  8.9939381030005230e-03  9.3322386689049693e-03 
 9.6851171338313662e-03  1.0053271453510032e-02  1.0437434766915461e-02  1.0838377139790573e-02 
 1.1256907384033697e-02  1.1693874954906572e-02  1.2150171927912989e-02  1.2626735057065939e-02 
 1.3124547916104144e-02  1.3644643124034425e-02  1.4188104656162027e-02  1.4756070241524687e-02 
 1.5349733847365318e-02  1.5970348250960067e-02  1.6619227698761181e-02  1.7297750652414311e-02 
 1.8007362620766239e-02  1.8749579076487846e-02  1.9525988455397512e-02  2.0338255235978455e-02 
 2.1188123095939329e-02  2.2077418141967720e-02  2.3008052208070163e-02  2.3982026217079122e-02 
 2.5001433599035575e-02  2.6068463759226453e-02  2.7185405587668642e-02  2.8354651000787798e-02 
 2.9578698504941749e-02  3.0860156770289377e-02  3.2201748202308464e-02  3.3606312497027585e-02 
 3.5076810164761801e-02  3.6616326005839361e-02  3.8228072520484019e-02  3.9915393233686432e-02 
 4.1681765914569291e-02  4.3530805668435070e-02  4.5466267878397200e-02  4.7492050972243557e-02 
 4.9612198988976466e-02  5.1830903918320598e-02  5.4152507785386626e-02  5.6581504451614598e-02 
 5.9122541102066148e-02  6.1780419388043448e-02  6.4560096192802521e-02  6.7466683986684414e-02 
 7.0505450736134512e-02  7.3681819328584169e-02  7.7001366471705315e-02  8.0469821020702187e-02 
 8.4093061680533196e-02  8.7877114020598140e-02  9.1828146726676024e-02  9.5952466997816663e-02 
 1.0025651497343288e-01  1.0474685704688551e-01  1.0943017788530458e-01  1.1431327093027152e-01 
 1.1940302709963134e-01  1.2470642134695042e-01  1.3023049666260347e-01  1.3598234502084824e-01 
 1.4196908469358099e-01  1.4819783326846431e-01  1.5467567563334869e-01  1.6140962612891871e-01 
 1.6840658403778960e-01  1.7567328158312076e-01  1.8321622366684495e-01  1.9104161870123240e-01 
 1.9915530009198870e-01  2.0756263822920734e-01  2.1626844324361541e-01  2.2527685929260619e-01 
 2.3459125174596862e-01  2.4421408932152122e-01  2.5414682393070837e-01  2.6438977166173327e-01 
 2.7494199885408882e-01  2.8580121748565346e-01  2.9696369398564559e-01  3.0842417502202651e-01 
 3.2017583278236472e-01  3.3221023086832724e-01  3.4451731035652489e-01  3.5708539410733697e-01 
 3.6990120628003631e-01  3.8294990338968604e-01  3.9621511312197155e-01  4.0967897737370396e-01 
 4.2332219641584079e-01  4.3712407152677440e-01  4.5106254386993250e-01  4.6511422786480899e-01 
 4.7925443796527528e-01  4.9345720873422949e-01  5.0769530940864693e-01  5.2194025566302571e-01 
 5.3616232276194142e-01  5.5033056545588799e-01  5.6441285057388346e-01  5.7837590817267170e-01 
 5.9218540633146044e-01  6.0580605337287541e-01  6.1920172965652043e-01  6.3233564935437092e-01 
 6.4517055100946130e-01  6.5766891500207925e-01  6.6979320534798525e-01  6.8150611212528944e-01 
 6.9277083502025427e-01  7.0355135506883726e-01  7.1381271135312729e-01  7.2352127443666991e-01 
 7.3264501093821355e-01  7.4115373463700562e-01  7.4901933999949699e-01  7.5621601456907550e-01 
 7.6272042724608369e-01  7.6851189008764220e-01  7.7357249186196764e-01  7.7788720218879337e-01 
 7.8144394567704289e-01  7.8423364602510703e-01  7.8625024057087578e-01  7.8749066626133157e-01 
 7.8795481844890747e-01  7.8764548430807935e-01  7.8656825299572042e-01  7.8473140494838867e-01 
 7.8214578291583658e-01  7.7882464747097380e-01  7.7478351981210059e-01  7.7004001468496586e-01 
 7.6461366620318150e-01  7.5852574924041238e-01  7.5179909891257246e-01  7.4445793047019060e-01 
 7.3652766168791928e-01  7.2803473957732090e-01  7.1900647298365250e-01  7.0947087233204764e-01 
 6.9945649748967886e-01  6.8899231446653564e-01  6.7810756140860573e-01  6.6683162408236052e-01 
 6.5519392085101213e-01  6.4322379696041909e-01  6.3095042780475885e-01  6.1840273072892982e-01 
 6.0560928462602026e-01  5.9259825786721854e-01  5.7939734177437441e-01  5.6603369126396297e-01 
 5.5253387102712404e-01  5.3892380697307085e-01  5.2522874250713869e-01  5.1147319928093493e-01 
 4.9768094212263447e-01  4.8387494791578983e-01  4.7007737824828327e-01  4.5630955570654363e-01 
 4.4259194371952132e-01  4.2894412987359731e-01  4.1538481262927779e-01  4.0193179136531149e-01 
 3.8860195966156397e-01  3.7541130171078763e-01  3.6237489172408971e-01  3.4950689616823077e-01 
 3.3682057864749537e-01  3.2432830722098716e-01  3.1204156392954807e-01  2.9997095629620135e-01 
 2.8812623056066289e-01  2.7651628641208259e-01  2.6514919299437256e-01  2.5403220597454323e-01 
 2.4317178548550647e-01  2.3257361477983579e-01  2.2224261945907675e-01  2.1218298717347889e-01 
 2.0239818771865956e-01  1.9289099348789859e-01  1.8366350027054226e-01  1.7471714841720692e-01 
 1.6605274441959600e-01  1.5767048297489308e-01  1.4956996961968277e-01  1.4175024402391262e-01 
 1.3420980402955085e-01  1.2694663050001617e-01  1.1995821301505741e-01  1.1324157640294591e-01 
 1.0679330805072570e-01  1.0060958587849762e-01  9.4686206811053150e-02  8.9018615535736423e-02 
 8.3601933304827292e-02  7.8430986528213412e-02  7.3500334909788051e-02  6.8804298908491754e-02 
 6.4336986349302128e-02  6.0092318065713420e-02  5.6064052516807301e-02  5.2245809381839738e-02 
 4.8631092186725643e-02  4.5213310054614764e-02  4.1985798693643710e-02  3.8941840737990258e-02 
 3.6074685544910279e-02  3.3377568523758387e-02  3.0843730037585591e-02  2.8466433878772939e-02 
 2.6238985281835311e-02  2.4154748403396382e-02  2.2207163174021431e-02  2.0389761409795138e-02 
 1.8696182064807221e-02  1.7120185508086749e-02  1.5655666718063739e-02  1.4296667303352330e-02 
 1.3037386278476112e-02  1.1872189545365489e-02  1.0795618054492612e-02  9.8023946420637015e-03 
 8.8874295607367596e-03  8.0458247401248989e-03  7.2728768293840841e-03  6.5640790871937041e-03 
 5.9151221943310158e-03  5.3218940708854214e-03  4.7804787841508323e-03  4.2871546346673903e-03 
 3.8383915071223173e-03  3.4308475702710963e-03  3.0613654061303220e-03  2.7269676438405007e-03 
 2.4248521681891548e-03  2.1523869671629769e-03  1.9071046773429241e-03  1.6866968806813272e-03 
 1.4890082013503409e-03  1.3120302470067118e-03  1.1538954350034374e-03  1.0128707407734818e-03 
 8.8735140276020245e-04  7.7585461579838589e-04  6.7701324267347676e-04  5.8956957161868464e-04 
 5.1236914567038552e-04  4.4435468802310907e-04  3.8456014575223411e-04  3.3210487246629295e-04 
 2.8618796858774281e-04  2.4608279603119772e-04  2.1113168205330403e-04  1.8074082500019013e-04 
 1.5437541259538575e-04  1.3155496131680373e-04  1.1184888333202758e-04  9.4872285423828001e-05 
 8.0282002368919610e-05  6.7772865356958048e-05  5.7074204275351174e-05  4.7946581056898599e-05 
 4.0178749806109468e-05  3.3584838096894702e-05  2.8001742675954228e-05  2.3286731815646301e-05 
 1.9315245737107980e-05  1.5978885865497364e-05  1.3183583178413794e-05  1.0847935557551410e-05 
 8.9017038423942473e-06  7.2844562018322710e-06  5.9443504725661256e-06  4.8370442490749441e-06 
 3.9247227354919795e-06  3.1752346717539794e-06  2.5613270119502941e-06  2.0599694495009656e-06 
 1.6517603399368411e-06  1.3204060567641324e-06  1.0522663192239358e-06  8.3595854375001060e-07 
 6.6201478565933789e-07  5.2258534718984198e-07  4.1118362655901573e-07  3.2246726537419590e-07 
 2.5205111453467790e-07  1.9634797865743138e-07  1.5243351376510827e-07  1.1793204095693494e-07 
 9.0920399145412662e-08  6.9847292354138378e-08  5.3465891687656477e-08  4.0777729461657301e-08 
 3.0986174010986890e-08  2.3457999526000439e-08  1.7691767255826309e-08  1.3291914052942954e-08 
 9.9476031011369647e-09  7.4155313996458968e-09  5.5060108110284649e-09  4.0717458384132734e-09 
 2.9988233516642514e-09  2.1995087371929760e-09  1.6065108263116710e-09  1.1684357934246041e-09 
 8.4619924022970522e-10  6.1020702537052210e-10  4.3815008787107297e-10  3.1328747378281782e-10 
 2.2311583880286209e-10  1.5834360454039237e-10  1.1210434880512128e-10  0.0000000000000000e+00 
 0.0000000000000000e+00  0.0000000000000000e+00  0.0000000000000000e+00  0.0000000000000000e+00 
 0.0000000000000000e+00  0.0000000000000000e+00  0.0000000000000000e+00  0.0000000000000000e+00 
 0.0000000000000000e+00  0.0000000000000000e+00  0.0000000000000000e+00  0.0000000000000000e+00 
 0.0000000000000000e+00  0.0000000000000000e+00  0.0000000000000000e+00  0.0000000000000000e+00 
 0.0000000000000000e+00  0.0000000000000000e+00  0.0000000000000000e+00  0.0000000000000000e+00 
 0.0000000000000000e+00  0.0000000000000000e+00  0.0000000000000000e+00  0.0000000000000000e+00 
 0.0000000000000000e+00  0.0000000000000000e+00  0.0000000000000000e+00  0.0000000000000000e+00 
 0.0000000000000000e+00  0.0000000000000000e+00  0.0000000000000000e+00  0.0000000000000000e+00 
 0.0000000000000000e+00  0.0000000000000000e+00  0.0000000000000000e+00  0.0000000000000000e+00 
 0.0000000000000000e+00  0.0000000000000000e+00  0.0000000000000000e+00  0.0000000000000000e+00 
 0.0000000000000000e+00  0.0000000000000000e+00  0.0000000000000000e+00  0.0000000000000000e+00 
 0.0000000000000000e+00  0.0000000000000000e+00  0.0000000000000000e+00  0.0000000000000000e+00 
 0.0000000000000000e+00  0.0000000000000000e+00  0.0000000000000000e+00  0.0000000000000000e+00 
 0.0000000000000000e+00  0.0000000000000000e+00  0.0000000000000000e+00  0.0000000000000000e+00 
 0.0000000000000000e+00  0.0000000000000000e+00  0.0000000000000000e+00  0.0000000000000000e+00 
 0.0000000000000000e+00  0.0000000000000000e+00  0.0000000000000000e+00  0.0000000000000000e+00 
 0.0000000000000000e+00  0.0000000000000000e+00  0.0000000000000000e+00  0.0000000000000000e+00 
 0.0000000000000000e+00  0.0000000000000000e+00  0.0000000000000000e+00  0.0000000000000000e+00 
 0.0000000000000000e+00  0.0000000000000000e+00  0.0000000000000000e+00  0.0000000000000000e+00 
 0.0000000000000000e+00  0.0000000000000000e+00  0.0000000000000000e+00  0.0000000000000000e+00 
 0.0000000000000000e+00  0.0000000000000000e+00  0.0000000000000000e+00  0.0000000000000000e+00 
 0.0000000000000000e+00  0.0000000000000000e+00  0.0000000000000000e+00  0.0000000000000000e+00 
 0.0000000000000000e+00  0.0000000000000000e+00  0.0000000000000000e+00  0.0000000000000000e+00 
 0.0000000000000000e+00  0.0000000000000000e+00  0.0000000000000000e+00  0.0000000000000000e+00 
 0.0000000000000000e+00  0.0000000000000000e+00  0.0000000000000000e+00  0.0000000000000000e+00 
 0.0000000000000000e+00  0.0000000000000000e+00  0.0000000000000000e+00  0.0000000000000000e+00 
 0.0000000000000000e+00  0.0000000000000000e+00  0.0000000000000000e+00  0.0000000000000000e+00 
 0.0000000000000000e+00  0.0000000000000000e+00  0.0000000000000000e+00  0.0000000000000000e+00 
 0.0000000000000000e+00  0.0000000000000000e+00  0.0000000000000000e+00  0.0000000000000000e+00 
 0.0000000000000000e+00  0.0000000000000000e+00  0.0000000000000000e+00  0.0000000000000000e+00 
 0.0000000000000000e+00  0.0000000000000000e+00 
P    1   2.33          Wavefunction
 1.5428967230436896e-11  1.5835380862358910e-11  1.6252499814881009e-11  1.6680606076304709e-11 
 1.7119989062771026e-11  1.7570945813916800e-11  1.8033781193684841e-11  1.8508808096423561e-11 
 1.8996347658415495e-11  1.9496729474977663e-11  2.0010291823280586e-11  2.0537381891036537e-11 
 2.1078356011211704e-11  2.1633579902920822e-11  2.2203428918667305e-11  2.2788288298095779e-11 
 2.3388553428428848e-11  2.4004630111763887e-11  2.4636934839410774e-11  2.5285895073455867e-11 
 2.5951949535742732e-11  2.6635548504464805e-11  2.7337154118570652e-11  2.8057240690187523e-11 
 2.8796295025274436e-11  2.9554816752721632e-11  3.0333318662118708e-11  3.1132327050419992e-11 
 3.1952382077741344e-11  3.2794038132529038e-11  3.3657864206347504e-11  3.4544444278539311e-11 
 3.5454377711017562e-11  3.6388279653457366e-11  3.7346781459160561e-11  3.8330531111874589e-11 
 3.9340193663854329e-11  4.0376451685462731e-11  4.1440005726614537e-11  4.2531574790374705e-11 
 4.3651896819032013e-11  4.4801729192976170e-11  4.5981849242715937e-11  4.7193054774384245e-11 
 4.8436164609085602e-11  4.9712019136450477e-11  5.1021480882770778e-11  5.2365435094100613e-11 
 5.3744790334716443e-11  5.5160479101341295e-11  5.6613458453548162e-11  5.8104710660768840e-11 
 5.9635243866345741e-11  6.1206092769075201e-11  6.2818319322703554e-11  6.4473013453848423e-11 
 6.6171293798830825e-11  6.7914308459916137e-11  6.9703235781475099e-11  7.1539285146589808e-11 
 7.3423697794642880e-11  7.5357747660442828e-11  7.7342742235452781e-11  7.9380023451704729e-11 
 8.1470968588997000e-11  8.3616991205988141e-11  8.5819542095816726e-11  8.8080110266893088e-11 
 9.0400223949526104e-11  9.2781451629065394e-11  9.5225403106257598e-11  9.7733730585533383e-11 
 1.0030812979196092e-10  1.0295034111762114e-10  1.0566215079817956e-10  1.0844539212045002e-10 
 1.1130194666176705e-10  1.1423374556200429e-10  1.1724277082909919e-10  1.2033105667896644e-10 
 1.2350069091070612e-10  1.2675381631803609e-10  1.3009263213790285e-10  1.3351939553725020e-10 
 1.3703642313895087e-10  1.4064609258793278e-10  1.4435084415855829e-10  1.4815318240434366e-10 
 1.5205567785113351e-10  1.5606096873487539e-10  1.6017176278516857e-10  1.6439083905579384e-10 
 1.6872104980346081e-10  1.7316532241604324e-10  1.7772666139160632e-10  1.8240815036956302e-10 
 1.8721295421533321e-10  1.9214432115991521e-10  1.9720558499581476e-10  2.0240016733081801e-10 
 2.0773157990113010e-10  2.1320342694544477e-10  2.1881940764154906e-10  2.2458331860711046e-10 
 2.3049905646633724e-10  2.3657062048424747e-10  2.4280211527032670e-10  2.4919775355340323e-10 
 2.5576185902961593e-10  2.6249886928540054e-10  2.6941333879747005e-10  2.7650994201181771e-10 
 2.8379347650382447e-10  2.9126886622160538e-10  2.9894116481479082e-10  3.0681555905098949e-10 
 3.1489737232224571e-10  3.2319206824385897e-10  3.3170525434800140e-10  3.4044268587462757e-10 
 3.4941026966224111e-10  3.5861406814114866e-10  3.6806030343189855e-10  3.7775536155167798e-10 
 3.8770579673151012e-10  3.9791833584717091e-10  4.0839988296682015e-10  4.1915752401842232e-10 
 4.3019853158011152e-10  4.4153036979673987e-10  4.5316069942593209e-10  4.6509738301705918e-10 
 4.7734849022663116e-10  4.8992230327370170e-10  5.0282732253897543e-10  5.1607227231139982e-10 
 5.2966610668612952e-10  5.4361801561784734e-10  5.5793743113353819e-10  5.7263403370891210e-10 
 5.8771775881278919e-10  6.0319880362387100e-10  6.1908763392443741e-10  6.3539499117563263e-10 
 6.5213189977911898e-10  6.6930967453001297e-10  6.8693992826613659e-10  7.0503457971876017e-10 
 7.2360586157014132e-10  7.4266632872330718e-10  7.6222886678967223e-10  7.8230670080022904e-10 
 8.0291340414619983e-10  8.2406290775519589e-10  8.4576950950908594e-10  8.6804788390994088e-10 
 8.9091309200058945e-10  9.1438059154649516e-10  9.3846624748582941e-10  9.6318634265481683e-10 
 9.8855758879559252e-10  1.0145971378540202e-09  1.0413225935751100e-09  1.0687520234038674e-09 
 1.0969039706996272e-09  1.1257974672721247e-09  1.1554520462477807e-09  1.1858877552749016e-09 
 1.2171251700767143e-09  1.2491854083614081e-09  1.2820901440985781e-09  1.3158616221717313e-09 
 1.3505226734167521e-09  1.3860967300564994e-09  1.4226078415419693e-09  1.4600806908107315e-09 
 1.4985406109736320e-09  1.5380136024410427e-09  1.5785263505002360e-09  1.6201062433557689e-09 
 1.6627813906450701e-09  1.7065806424417535e-09  1.7515336087594961e-09  1.7976706795696737e-09 
 1.8450230453462898e-09  1.8936227181520728e-09  1.9435025532800165e-09  1.9946962714649789e-09 
 2.0472384816803640e-09  2.1011647045352949e-09  2.1565113962881015e-09  2.2133159734923479e-09 
 2.2716168382920690e-09  2.3314534043833220e-09  2.3928661236595851e-09  2.4558965135590436e-09 
 2.5205871851322303e-09  2.5869818718490046e-09  2.6551254591643534e-09  2.7250640148629828e-09 
 2.7968448202032337e-09  2.8705164018813646e-09  2.9461285648378260e-09  3.0237324259276886e-09 
 3.1033804484779962e-09  3.1851264777554125e-09  3.2690257773681272e-09  3.3551350666266510e-09 
 3.4435125588887392e-09  3.5342180009143700e-09  3.6273127132573999e-09  3.7228596317211928e-09 
 3.8209233499062427e-09  3.9215701628785708e-09  4.0248681119884144e-09  4.1308870308694990e-09 
 4.2396985926500123e-09  4.3513763584071780e-09  4.4659958268982041e-09  4.5836344856012183e-09 
 4.7043718631007051e-09  4.8282895828528544e-09  4.9554714183671791e-09  5.0860033498417101e-09 
 5.2199736222900364e-09  5.3574728051995322e-09  5.4985938537610626e-09  5.6434321717115895e-09 
 5.7920856758321514e-09  5.9446548621448383e-09  6.1012428738534950e-09  6.2619555710741177e-09 
 6.4269016024020426e-09  6.5961924783643517e-09  6.7699426468071518e-09  6.9482695702686558e-09 
 7.1312938053904305e-09  7.3191390844204351e-09  7.5119323988630349e-09  7.7098040853324429e-09 
 7.9128879136677039e-09  8.1213211773687671e-09  8.3352447864147497e-09  8.5548033625272125e-09 
 8.7801453369427430e-09  9.0114230507610331e-09  9.2487928579362024e-09  9.4924152309810323e-09 
 9.7424548694555220e-09  9.9990808113130928e-09  1.0262466547179711e-08  1.0532790137643122e-08 
 1.0810234333631456e-08  1.1094986699962592e-08  1.1387239742147684e-08  1.1687191036534536e-08 
 1.1995043363878824e-08  1.2311004846433266e-08  1.2635289088647450e-08  1.2968115321573326e-08 
 1.3309708551073896e-08  1.3660299709935239e-08  1.4020125813984676e-08  1.4389430122320435e-08 
 1.4768462301761228e-08  1.5157478595626847e-08  1.5556741996963803e-08  1.5966522426333315e-08 
 1.6387096914281732e-08  1.6818749788617058e-08  1.7261772866618244e-08  1.7716465652307495e-08 
 1.8183135538919301e-08  1.8662098016703344e-08  1.9153676886202384e-08  1.9658204477149679e-08 
 2.0176021873134600e-08  2.0707479142188991e-08  2.1252935573450716e-08  2.1812759920065366e-08 
 2.2387330648490906e-08  2.2977036194374741e-08  2.3582275225176947e-08  2.4203456909718191e-08 
 2.4841001194835267e-08  2.5495339089332316e-08  2.6166912955420438e-08  2.6856176807843690e-08 
 2.7563596620894438e-08  2.8289650643526451e-08  2.9034829722779282e-08  2.9799637635734939e-08 
 3.0584591430218639e-08  3.1390221774212360e-08  3.2217073314371067e-08  3.3065705044250029e-08 
 3.3936690682246587e-08  3.4830619059497980e-08  3.5748094517999571e-08  3.6689737319213212e-08 
 3.7656184063442161e-08  3.8648088120256839e-08  3.9666120070262572e-08  4.0710968158508885e-08 
 4.1783338759847455e-08  4.2883956856553791e-08  4.4013566528536913e-08  4.5172931456468859e-08 
 4.6362835438175431e-08  4.7584082918638543e-08  4.8837499533969596e-08  5.0123932669723373e-08 
 5.1444252033931453e-08  5.2799350245244540e-08  5.4190143436583433e-08  5.5617571874709220e-08 
 5.7082600596134483e-08  5.8586220059808364e-08  6.0129446817020570e-08  6.1713324198981197e-08 
 6.3338923022545669e-08  6.5007342314567752e-08  6.6719710055375611e-08  6.8477183941880812e-08 
 7.0280952170843823e-08  7.2132234242833919e-08  7.4032281787437123e-08  7.5982379410280773e-08 
 7.7983845562459575e-08  8.0038033432963861e-08  8.2146331864728520e-08  8.4310166294935918e-08 
 8.6530999720225318e-08  8.8810333687475223e-08  9.1149709310842386e-08  9.3550708315754455e-08 
 9.6014954110564370e-08  9.8544112886582922e-08  1.0113989474720791e-07  1.0380405486686330e-07 
 1.0653839468044893e-07  1.0934476310397658e-07  1.1222505778703768e-07  1.1518122639770909e-07 
 1.1821526794047368e-07  1.2132923410772180e-07  1.2452523066543602e-07  1.2780541887376558e-07 
 1.3117201694338806e-07  1.3462730152882084e-07  1.3817360926015343e-07  1.4181333831494653e-07 
 1.4554895003220992e-07  1.4938297057037050e-07  1.5331799261097209e-07  1.5735667710956137e-07 
 1.6150175509490623e-07  1.6575602951744675e-07  1.7012237714775083e-07  1.7460375052574336e-07 
 1.7920317996156872e-07  1.8392377558908799e-07  1.8876872947316850e-07  1.9374131777206386e-07 
 1.9884490295630138e-07  2.0408293608558404e-07  2.0945895914528617e-07  2.1497660744417472e-07 
 2.2063961207503573e-07  2.2645180243992318e-07  2.3241710884178945e-07  2.3853956514429241e-07 
 2.4482331150161538e-07  2.5127259716017938e-07  2.5789178333416725e-07  2.6468534615683114e-07 
 2.7165787970959589e-07  2.7881409913102788e-07  2.8615884380778637e-07  2.9369708064973138e-07 
 3.0143390745141605e-07  3.0937455634225206e-07  3.1752439732769324e-07  3.2588894192384564e-07 
 3.3447384688797717e-07  3.4328491804746147e-07  3.5232811422976062e-07  3.6160955129611889e-07 
 3.7113550628171112e-07  3.8091242164506099e-07  3.9094690962962066e-07  4.0124575674047793e-07 
 4.1181592833923721e-07  4.2266457336020359e-07  4.3379902915107537e-07  4.4522682644144509e-07 
 4.5695569444248851e-07  4.6899356608131711e-07  4.8134858337355731e-07  4.9402910293781789e-07 
 5.0704370165580170e-07  5.2040118248192053e-07  5.3411058040637342e-07  5.4818116857575337e-07 
 5.6262246457535442e-07  5.7744423687747005e-07  5.9265651146007533e-07  6.0826957860041394e-07 
 6.2429399984812587e-07  6.4074061518267696e-07  6.5762055035997414e-07  6.7494522445319241e-07 
 6.9272635759295753e-07  7.1097597891217852e-07  7.2970643470095790e-07  7.4893039677716107e-07 
 7.6866087107836186e-07  7.8891120648104883e-07  8.0969510385312563e-07  8.3102662534589891e-07 
 8.5292020393192443e-07  8.7539065319523378e-07  8.9845317738066077e-07  9.2212338170914375e-07 
 9.4641728296608964e-07  9.7135132037004916e-07  9.9694236672917200e-07  1.0232077398930891e-06 
 1.0501652145080933e-06  1.0778330340836914e-06  1.1062299233788187e-06  1.1353751011162271e-06 
 1.1652882930338056e-06  1.1959897452817933e-06  1.2275002381751274e-06  1.2598411003103846e-06 
 1.2930342230570482e-06  1.3271020754330896e-06  1.3620677193751307e-06  1.3979548254137137e-06 
 1.4347876887645140e-06  1.4725912458466033e-06  1.5113910912391894e-06  1.5512134950885554e-06 
 1.5920854209772456e-06  1.6340345442678783e-06  1.6770892709342859e-06  1.7212787568930541e-06 
 1.7666329278488575e-06  1.8131824996673826e-06  1.8609589992899856e-06  1.9099947862046320e-06 
 1.9603230744880572e-06  2.0119779554344899e-06  2.0649944207867160e-06  2.1194083865856781e-06 
 2.1752567176552644e-06  2.2325772527393807e-06  2.2914088303088852e-06  2.3517913150564501e-06 
 2.4137656250978931e-06  2.4773737598990568e-06  2.5426588289478319e-06  2.6096650811914519e-06 
 2.6784379352597623e-06  2.7490240104957374e-06  2.8214711588150848e-06  2.8958284974174299e-06 
 2.9721464423721511e-06  3.0504767431026137e-06  3.1308725177931986e-06  3.2133882897442059e-06 
 3.2980800247004075e-06  3.3850051691797664e-06  3.4742226898295711e-06  3.5657931138379838e-06 
 3.6597785704298227e-06  3.7562428334761905e-06  3.8552513652483956e-06  3.9568713613474867e-06 
 4.0611717968416017e-06  4.1682234736442500e-06  4.2780990691675623e-06  4.3908731862855845e-06 
 4.5066224046435923e-06  4.6254253333505150e-06  4.7473626650925850e-06  4.8725172317074130e-06 
 5.0009740612588557e-06  5.1328204366541553e-06  5.2681459558460796e-06  5.4070425936639755e-06 
 5.5496047653189846e-06  5.6959293916299244e-06  5.8461159660177237e-06  6.0002666233177057e-06 
 6.1584862104604405e-06  6.3208823590733717e-06  6.4875655600569926e-06  6.6586492401908721e-06 
 6.8342498408265188e-06  7.0144868987257633e-06  7.1994831291050079e-06  7.3893645109475903e-06 
 7.5842603746482961e-06  7.7843034920560021e-06  7.9896301689824065e-06  8.2003803402468624e-06 
 8.4166976673293920e-06  8.6387296387062410e-06  8.8666276729445031e-06  9.1005472246346917e-06 
 9.3406478932425944e-06  9.5870935349641892e-06  9.8400523776699967e-06  1.0099697139027915e-05 
 1.0366205147896335e-05  1.0639758469082153e-05  1.0920544031561302e-05  1.1208753760262480e-05 
 1.1504584711517768e-05  1.1808239212287356e-05  1.2119925003268708e-05  1.2439855386004188e-05 
 1.2768249374104735e-05  1.3105331848710853e-05  1.3451333718316257e-05  1.3806492083083292e-05 
 1.4171050403783725e-05  1.4545258675502509e-05  1.4929373606246857e-05  1.5323658800607487e-05 
 1.5728384948623761e-05  1.6143830020009403e-05  1.6570279463900733e-05  1.7008026414294628e-05 
 1.7457371901349064e-05  1.7918625068724990e-05  1.8392103397153974e-05  1.8878132934422677e-05 
 1.9377048531971425e-05  1.9889194088310970e-05  2.0414922799468517e-05  2.0954597416681330e-05 
 2.1508590511563758e-05  2.2077284748981351e-05  2.2661073167873977e-05  2.3260359470278062e-05 
 2.3875558318807234e-05  2.4507095642859437e-05  2.5155408953828401e-05  2.5820947669606983e-05 
 2.6504173448680449e-05  2.7205560534118383e-05  2.7925596107784805e-05  2.8664780655098374e-05 
 2.9423628340685793e-05  3.0202667395284843e-05  3.1002440514266150e-05  3.1823505268156738e-05 
 3.2666434525562398e-05  3.3531816888901081e-05  3.4420257143374714e-05  3.5332376719622992e-05 
 3.6268814170519929e-05  3.7230225662590760e-05  3.8217285482545952e-05  3.9230686559447446e-05 
 4.0271141003042665e-05  4.1339380658822495e-05  4.2436157680380991e-05  4.3562245119677669e-05 
 4.4718437535826317e-05  4.5905551623059861e-05  4.7124426858545552e-05  4.8375926170752975e-05 
 4.9660936629104647e-05  5.0980370155668910e-05  5.2335164259685829e-05  5.3726282795748523e-05 
 5.5154716746496797e-05  5.6621485030714538e-05  5.8127635337759942e-05  5.9674244989295667e-05 
 6.1262421829326905e-05  6.2893305143597302e-05  6.4568066609437566e-05  6.6287911277207161e-05 
 6.8054078584519001e-05  6.9867843404487201e-05  7.1730517129291611e-05  7.3643448790409186e-05 
 7.5608026216919679e-05  7.7625677233355634e-05  7.9697870898630670e-05  8.1826118787647117e-05 
 8.4011976317255481e-05  8.6257044118311934e-05  8.8562969455658231e-05  9.0931447697929741e-05 
 9.3364223839183702e-05  9.5863094074428884e-05  9.8429907431232968e-05  1.0106656745968289e-04 
 1.0377503398307735e-04  1.0655732491184022e-04  1.0941551812325853e-04  1.1235175340976872e-04 
 1.1536823449864236e-04  1.1846723114605549e-04  1.2165108130866524e-04  1.2492219339596482e-04 
 1.2828304860684327e-04  1.3173620335393767e-04  1.3528429177953749e-04  1.3893002836698021e-04 
 1.4267621065166733e-04  1.4652572203602672e-04  1.5048153471295927e-04  1.5454671270252724e-04 
 1.5872441500687192e-04  1.6301789888859499e-04  1.6743052327809388e-04  1.7196575231561068e-04 
 1.7662715903404066e-04  1.8141842918884687e-04  1.8634336524174134e-04  1.9140589050512836e-04 
 1.9661005345465461e-04  2.0196003221758184e-04  2.0746013924508619e-04  2.1311482617699954e-04 
 2.1892868890794018e-04  2.2490647286423795e-04  2.3105307850153803e-04  2.3737356703347628e-04 
 2.4387316640235305e-04  2.5055727750329817e-04  2.5743148067401228e-04  2.6450154246280031e-04 
 2.7177342268827560e-04  2.7925328180480890e-04  2.8694748858853759e-04  2.9486262815952934e-04 
 3.0300551035651461e-04  3.1138317848147112e-04  3.2000291843226037e-04  3.2887226824248266e-04 
 3.3799902804874092e-04  3.4739127050657998e-04  3.5705735167750958e-04  3.6700592241072414e-04 
 3.7724594024440226e-04  3.8778668185281373e-04  3.9863775606688420e-04  4.0980911749736212e-04 
 4.2131108079132828e-04  4.3315433555444962e-04  4.4534996197317180e-04  4.5790944717289132e-04 
 4.7084470235015259e-04  4.8416808071898980e-04  4.9789239631375774e-04  5.1203094369312680e-04 
 5.2659751859239978e-04  5.4160643957391343e-04  5.5707257072806500e-04  5.7301134548041999e-04 
 5.8943879156345765e-04  6.0637155721477993e-04  6.2382693866706808e-04  6.4182290899873783e-04 
 6.6037814841810635e-04  6.7951207605798842e-04  6.9924488336195998e-04  7.1959756914811404e-04 
 7.4059197644098273e-04  7.6225083116740629e-04  7.8459778281756982e-04  8.0765744717814405e-04 
 8.3145545125053557e-04  8.5601848047365549e-04  8.8137432837739687e-04  9.0755194880016998e-04 
 9.3458151081142915e-04  9.6249445648812144e-04  9.9132356170245723e-04  1.0211030000873518e-03 
 1.0518684103553279e-03  1.0836569671566663e-03  1.1165074556731395e-03  1.1504603501547991e-03 
 1.1855578966190605e-03  1.2218441999437438e-03  1.2593653155988512e-03  1.2981693462756725e-03 
 1.3383065436864225e-03  1.3798294158229999e-03  1.4227928399796652e-03  1.4672541818615457e-03 
 1.5132734211188790e-03  1.5609132836658674e-03  1.6102393811629710e-03  1.6613203580624694e-03 
 1.7142280466391890e-03  1.7690376304514968e-03  1.8258278167020221e-03  1.8846810179931331e-03 
 1.9456835439990137e-03  2.0089258036043037e-03  2.0745025180886724e-03  2.1425129459675079e-03 
 2.2130611201310979e-03  2.2862560979582582e-03  2.3622122251154708e-03  2.4410494137890840e-03 
 2.5228934361361788e-03  2.6078762337791682e-03  2.6961362442102289e-03  2.7878187450140791e-03 
 2.8830762168615674e-03  2.9820687262718322e-03  3.0849643291874815e-03  3.1919394964552068e-03 
 3.3031795623534046e-03  3.4188791973586343e-03  3.5392429063939371e-03  3.6644855538540042e-03 
 3.7948329167547877e-03  3.9305222674080164e-03  4.0718029870741718e-03  4.2189372121001715e-03 
 4.3722005141003046e-03  4.5318826157901308e-03  4.6982881441328559e-03  4.8717374225054769e-03 
 5.0525673036371961e-03  5.2411320451146133e-03  5.4378042292862064e-03  5.6429757294318211e-03 
 5.8570587240904083e-03  6.0804867614599797e-03  6.3137158757967668e-03  6.5572257577443827e-03 
 6.8115209805173667e-03  7.0771322838451270e-03  7.3546179175506205e-03  7.6445650465912238e-03 
 7.9475912193256899e-03  8.2643459006882108e-03  8.5955120718472899e-03  8.9418078978002486e-03 
 9.3039884642018896e-03  9.6828475845456494e-03  1.0079219678604704e-02  1.0493981722796362e-02 
 1.0928055272853055e-02  1.1382408558864290e-02  1.1858058652393293e-02  1.2356073704966847e-02 
 1.2877575256784207e-02  1.3423740613988091e-02  1.3995805292284924e-02  1.4595065524090310e-02 
 1.5222880825706931e-02  1.5880676620313314e-02  1.6569946911752710e-02  1.7292257003258628e-02 
 1.8049246254339693e-02  1.8842630868068699e-02  1.9674206699982481e-02  2.0545852078701195e-02 
 2.1459530627221484e-02  2.2417294072632286e-02  2.3421285030750458e-02  2.4473739750884019e-02 
 2.5576990804612246e-02  2.6733469701136704e-02  2.7945709410417900e-02  2.9216346773986279e-02 
 3.0548124782020333e-02  3.1943894694042033e-02  3.3406617979412599e-02  3.4939368052747631e-02 
 3.6545331778438696e-02  3.8227810717697833e-02  3.9990222090968482e-02  4.1836099428199124e-02 
 4.3769092879391104e-02  4.5792969158035088e-02  4.7911611090567401e-02  5.0129016745819821e-02 
 5.2449298119604887e-02  5.4876679351050853e-02  5.7415494449025654e-02  6.0070184508878140e-02 
 6.2845294401636331e-02  6.5745468919531105e-02  6.8775448362974140e-02  7.1940063554527381e-02 
 7.5244230264464654e-02  7.8692943029621348e-02  8.2291268341607243e-02  8.6044337171232707e-02 
 8.9957336782188979e-02  9.4035501767565213e-02  9.8284104216635304e-02  1.0270844288557379e-01 
 1.0731383120370223e-01  1.1210558389633284e-01  1.1708900194677607e-01  1.2226935555508860e-01 
 1.2765186468236911e-01  1.3324167670104939e-01  1.3904384060951391e-01  1.4506327722109830e-01 
 1.5130474471231631e-01  1.5777279892378368e-01  1.6447174786155472e-01  1.7140559995876706e-01 
 1.7857800583955724e-01  1.8599219358952307e-01  1.9365089788661319e-01  2.0155628378427592e-01 
 2.0970986645651152e-01  2.1811242878942791e-01  2.2676393929401129e-01  2.3566347335495136e-01 
 2.4480914123228667e-01  2.5419802639275885e-01  2.6382613756566753e-01  2.7368837732588402e-01 
 2.8377852900358996e-01  2.9408926239791316e-01  3.0461215731394958e-01  3.1533774258836933e-01 
 3.2625554724151973e-01  3.3735415982679012e-01  3.4862129194009639e-01  3.6004384208268697e-01 
 3.7160795646577005e-01  3.8329908376719768e-01  3.9510202125744404e-01  4.0700095016857302e-01 
 4.1897945880851878e-01  4.3102055282806856e-01  4.4310665324484155e-01  4.5521958421128289e-01 
 4.6734055387429213e-01  4.7945013276536486e-01  4.9152823477419499e-01  5.0355410578907944e-01 
 5.1550632455197110e-01  5.2736281929746287e-01  5.3910090250487142e-01  5.5069732477936406e-01 
 5.6212834768579489e-01  5.7336983497627392e-01  5.8439736124016517e-01  5.9518631875849481e-01 
 6.0571205945905116e-01  6.1595002754057382e-01  6.2587589915456732e-01  6.3546572378575394e-01 
 6.4469606423261905e-01  6.5354413288926438e-01  6.6198792235110759e-01  6.7000632869368482e-01 
 6.7757926609149177e-01  6.8468777174262840e-01  6.9131410033920637e-01  6.9744180757038876e-01 
 7.0305582236419439e-01  7.0814250776690080e-01  7.1268971052691998e-01  7.1668679959541326e-01 
 7.2012469388077449e-01  7.2299587969998769e-01  7.2529441845811338e-01  7.2701594515866530e-01 
 7.2815765840301516e-01  7.2871830257666625e-01  7.2869814294464097e-01  7.2809893438778639e-01 
 7.2692388450709766e-01  7.2517761180501039e-01  7.2286609962209092e-01  7.1999664646602790e-01 
 7.1657781331861825e-01  7.1261936844632434e-01  7.0813223018679450e-01  7.0312840810669774e-01 
 6.9762094284439846e-01  6.9162384491679685e-01  6.8515203270047320e-01  6.7822126972649976e-01 
 6.7084810139550644e-01  6.6304979118264684e-01  6.5484425637859855e-01  6.4625000340210270e-01 
 6.3728606272386323e-01  6.2797192345501973e-01  6.1832746767794011e-01  6.0837290463820060e-01 
 5.9812870495837267e-01  5.8761553507939124e-01  5.7685419218525247e-01  5.6586553991125754e-01 
 5.5467044491660666e-01  5.4328971599290954e-01  5.3174404348920390e-01  5.2005394204092259e-01 
 5.0823969568605831e-01  4.9632130597247370e-01  4.8431844336344798e-01  4.7225040219369929e-01 
 4.6013605936404378e-01  4.4799383689241790e-01  4.3584166836560106e-01  4.2369696926322747e-01 
 4.1157661105690330e-01  3.9949689892540824e-01  3.8747355287442886e-01  3.7552169200772778e-01 
 3.6365582166707966e-01  3.5188982314100614e-01  3.4023694563701062e-01  3.2870980021789575e-01 
 3.1732035541878106e-01  3.0607993428635705e-01  2.9499921261450035e-01  2.8408821818933777e-01 
 2.7335633090101774e-01  2.6281228362758186e-01  2.5246416384697473e-01  2.4231941598461954e-01 
 2.3238484455373423e-01  2.2266661819069788e-01  2.1317027472466474e-01  2.0390072744531632e-01 
 1.9486227274126564e-01  1.8605859927108026e-01  1.7749279879757179e-01  1.6916737876447427e-01 
 1.6108427662608782e-01  1.5324487586073529e-01  1.4565002351602591e-01  1.3830004905729162e-01 
 1.3119478422959238e-01  1.2433358360643736e-01  1.1771534549031742e-01  1.1133853285321979e-01 
 1.0520119405746424e-01  9.9300983172674898e-02  9.3635179794654466e-02  8.8200708365746200e-02 
 8.2994157082993972e-02  7.8011796550298232e-02  7.3249598376556618e-02  6.8703253939595046e-02 
 6.4368193525342940e-02  6.0239606016387691e-02  5.6312459249596082e-02  5.2581521096312617e-02 
 4.9041381248100119e-02  4.5686473623965648e-02  4.2511099256950638e-02  3.9509449471201073e-02 
 3.6675629129444366e-02  3.4003679714939221e-02  3.1487602009223528e-02  2.9121378136805064e-02 
 2.6898992767457580e-02  2.4814453293481694e-02  2.2861808830678763e-02  2.1035167925590164e-02 
 1.9328714885809051e-02  1.7736724683256749e-02  1.6253576410954755e-02  1.4873765301071021e-02 
 1.3591913335232622e-02  1.2402778496912152e-02  1.1301262730000802e-02  1.0282418677587623e-02 
 9.3414552807803107e-03  8.4737423195902998e-03  7.6748139770470639e-03  6.9403715044575051e-03 
 6.2662850607664491e-03  5.6485947929657511e-03  5.0835112180465762e-03  4.5674149606086565e-03 
 4.0968558943400395e-03  3.6685517304527928e-03  3.2793860919799809e-03  2.9264061096773257e-03 
 2.6068195731092899e-03  2.3179916692440856e-03  2.0574413403953015e-03  1.8228372934604622e-03 
 1.6119936929374430e-03  1.4228655709695752e-03  1.2535439885148849e-03  1.1022509825104850e-03 
 9.6733433449240624e-04  8.4726219644443905e-04  7.4061760962482702e-04  6.4609295172084939e-04 
 5.6248434689538148e-04  4.8868607212307390e-04  4.2368499168953997e-04  3.6655504987991391e-04 
 3.1645184975733799e-04  2.7260734357710862e-04  2.3432465785116569e-04  2.0097307342385016e-04 
 1.7198317819565944e-04  1.4684220738666432e-04  1.2508958351100093e-04  1.0631266557939155e-04 
 9.0142714493785417e-05  7.6251079177201293e-05  6.4345605717430052e-05  5.4167269714652269e-05 
 4.5487030124238661e-05  3.8102901186107498e-05  3.1837237535577552e-05  2.6534226298182576e-05 
 2.2057578879337656e-05  1.8288414262930690e-05  1.5123324922138707e-05  1.2472615910240827e-05 
 1.0258707326493521e-05  8.4146901286432257e-06  6.8830251749848902e-06  5.6143754102243430e-06 
 4.5665612458622079e-06  3.7036294126726229e-06  2.9950258658124624e-06  2.4148636885082951e-06 
 1.9412773552596318e-06  1.5558551681125707e-06  1.2431421588449150e-06  9.9020624596899739e-07 
 7.8626093949835212e-07  6.2233839072845753e-07  4.9100708221559318e-07  3.8612893910678560e-07 
 3.0265111237278829e-07  2.3642813364668330e-07  1.8407056745036702e-07  1.4281668755544485e-07 
 1.1042407872683261e-07  8.5078412404574555e-08  6.5316964793217586e-08  4.9964738603343885e-08 
 3.8081315958863637e-08  2.8916810684697689e-08  2.1875504500584369e-08  1.6485944925525530e-08 
 1.2376454426994070e-08  9.2551520906346542e-09  6.8937224378475583e-09  5.1142825803745190e-09 
 3.7788002458563565e-09  2.7806028590304744e-09  2.0375932739721752e-09  1.4868522956649573e-09 
 1.0803630848457349e-09  7.8163909192089265e-10  5.6307639736561563e-10  4.0388423121222071e-10 
 2.8847488936354899e-10  2.0521705266199504e-10  1.4547535165254661e-10  1.0287453153557135e-10 
 0.0000000000000000e+00  0.0000000000000000e+00  0.0000000000000000e+00  0.0000000000000000e+00 
 0.0000000000000000e+00  0.0000000000000000e+00  0.0000000000000000e+00  0.0000000000000000e+00 
 0.0000000000000000e+00  0.0000000000000000e+00  0.0000000000000000e+00  0.0000000000000000e+00 
 0.0000000000000000e+00  0.0000000000000000e+00  0.0000000000000000e+00  0.0000000000000000e+00 
 0.0000000000000000e+00  0.0000000000000000e+00  0.0000000000000000e+00  0.0000000000000000e+00 
 0.0000000000000000e+00  0.0000000000000000e+00  0.0000000000000000e+00  0.0000000000000000e+00 
 0.0000000000000000e+00  0.0000000000000000e+00  0.0000000000000000e+00  0.0000000000000000e+00 
 0.0000000000000000e+00  0.0000000000000000e+00  0.0000000000000000e+00  0.0000000000000000e+00 
 0.0000000000000000e+00  0.0000000000000000e+00  0.0000000000000000e+00  0.0000000000000000e+00 
 0.0000000000000000e+00  0.0000000000000000e+00  0.0000000000000000e+00  0.0000000000000000e+00 
 0.0000000000000000e+00  0.0000000000000000e+00  0.0000000000000000e+00  0.0000000000000000e+00 
 0.0000000000000000e+00  0.0000000000000000e+00  0.0000000000000000e+00  0.0000000000000000e+00 
 0.0000000000000000e+00  0.0000000000000000e+00  0.0000000000000000e+00  0.0000000000000000e+00 
 0.0000000000000000e+00  0.0000000000000000e+00  0.0000000000000000e+00  0.0000000000000000e+00 
 0.0000000000000000e+00  0.0000000000000000e+00  0.0000000000000000e+00  0.0000000000000000e+00 
 0.0000000000000000e+00  0.0000000000000000e+00  0.0000000000000000e+00  0.0000000000000000e+00 
 0.0000000000000000e+00  0.0000000000000000e+00  0.0000000000000000e+00  0.0000000000000000e+00 
 0.0000000000000000e+00  0.0000000000000000e+00  0.0000000000000000e+00  0.0000000000000000e+00 
 0.0000000000000000e+00  0.0000000000000000e+00  0.0000000000000000e+00  0.0000000000000000e+00 
 0.0000000000000000e+00  0.0000000000000000e+00  0.0000000000000000e+00  0.0000000000000000e+00 
 0.0000000000000000e+00  0.0000000000000000e+00  0.0000000000000000e+00  0.0000000000000000e+00 
 0.0000000000000000e+00  0.0000000000000000e+00  0.0000000000000000e+00  0.0000000000000000e+00 
 0.0000000000000000e+00  0.0000000000000000e+00  0.0000000000000000e+00  0.0000000000000000e+00 
 0.0000000000000000e+00  0.0000000000000000e+00  0.0000000000000000e+00  0.0000000000000000e+00 
 0.0000000000000000e+00  0.0000000000000000e+00  0.0000000000000000e+00  0.0000000000000000e+00 
 0.0000000000000000e+00  0.0000000000000000e+00  0.0000000000000000e+00  0.0000000000000000e+00 
 0.0000000000000000e+00  0.0000000000000000e+00  0.0000000000000000e+00  0.0000000000000000e+00 
 0.0000000000000000e+00  0.0000000000000000e+00  0.0000000000000000e+00  0.0000000000000000e+00 
 0.0000000000000000e+00  0.0000000000000000e+00 
</PP_PSWFC>


<PP_RHOATOM>
 8.0457538733988820e-14  8.2576866672188247e-14  8.4752019721400967e-14  8.6984468368159519e-14 
 8.9275721833015021e-14  9.1627329090828275e-14  9.4040879917936632e-14  9.6518005966904011e-14 
 9.9060381869580886e-14  1.0166972636922006e-13  1.0434780348241342e-13  1.0709642369163551e-13 
 1.0991744516919922e-13  1.1281277503345207e-13  1.1578437063806243e-13  1.1883424089526542e-13 
 1.2196444763396627e-13  1.2517710699361553e-13  1.2847439085480186e-13  1.3185852830752721e-13 
 1.3533180715815793e-13  1.3889657547607065e-13  1.4255524318103826e-13  1.4631028367242912e-13 
 1.5016423550132102e-13  1.5411970408666018e-13  1.5817936347662628e-13  1.6234595815639188e-13 
 1.6662230490350243e-13  1.7101129469212642e-13  1.7551589464746693e-13  1.8013915005165423e-13 
 1.8488418640247464e-13  1.8975421152632891e-13  1.9475251774684885e-13  1.9988248411063582e-13 
 2.0514757867162884e-13  2.1055136083564407e-13  2.1609748376667358e-13  2.2178969685656598e-13 
 2.2763184825976312e-13  2.3362788749480309e-13  2.3978186811434990e-13  2.4609795044555395e-13 
 2.5258040440259742e-13  2.5923361237332395e-13  2.6606207218190467e-13  2.7307040012954620e-13 
 2.8026333411529070e-13  2.8764573683902357e-13  2.9522259908885123e-13  3.0299904311506989e-13 
 3.1098032609301098e-13  3.1917184367709955e-13  3.2757913364853020e-13  3.3620787965902798e-13 
 3.4506391507322265e-13  3.5415322691223544e-13  3.6348195990114352e-13  3.7305642062306011e-13 
 3.8288308178263590e-13  3.9296858658186686e-13  4.0331975321116416e-13  4.1394357945872508e-13 
 4.2484724744131850e-13  4.3603812845968418e-13  4.4752378798182964e-13  4.5931199075759066e-13 
 4.7141070606791698e-13  4.8382811311242707e-13  4.9657260653887977e-13  5.0965280211829550e-13 
 5.2307754256956826e-13  5.3685590353750347e-13  5.5099719972832345e-13  5.6551099120678964e-13 
 5.8040708985919745e-13  5.9569556602661350e-13  6.1138675531283994e-13  6.2749126557170694e-13 
 6.4401998407842112e-13  6.6098408488980998e-13  6.7839503639845077e-13  6.9626460908577672e-13 
 7.1460488347941290e-13  7.3342825832011595e-13  7.5274745894383942e-13  7.7257554588459660e-13 
 7.9292592370392562e-13  8.1381235005293975e-13  8.3524894497307559e-13  8.5725020044184362e-13 
 8.7983099017001357e-13  9.0300657965687796e-13  9.2679263651037941e-13  9.5120524103908217e-13 
 9.7626089712314947e-13  1.0019765433716779e-12  1.0283695645739239e-12  1.0554578034521752e-12 
 1.0832595727242041e-12  1.1117936674834614e-12  1.1410793779053797e-12  1.1711365022883780e-12 
 1.2019853604383787e-12  1.2336468074058959e-12  1.2661422475849698e-12  1.2994936491834882e-12 
 1.3337235590746761e-12  1.3688551180397910e-12  1.4049120764123284e-12  1.4419188101343209e-12 
 1.4799003372355793e-12  1.5188823347470179e-12  1.5588911560594998e-12  1.5999538487399404e-12 
 1.6420981728167091e-12  1.6853526195466888e-12  1.7297464306767000e-12  1.7753096182122803e-12 
 1.8220729847072123e-12  1.8700681440875085e-12  1.9193275430239148e-12  1.9698844828674180e-12 
 2.0217731421625493e-12  2.0750285997537295e-12  2.1296868585002689e-12  2.1857848696160526e-12 
 2.2433605576503751e-12  2.3024528461268094e-12  2.3631016838574270e-12  2.4253480719502021e-12 
 2.4892340915278128e-12  2.5548029321766094e-12  2.6220989211449701e-12  2.6911675533107907e-12 
 2.7620555219383714e-12  2.8348107502454801e-12  2.9094824238019582e-12  2.9861210237817556e-12 
 3.0647783610908753e-12  3.1455076113943223e-12  3.2283633510657048e-12  3.3134015940838339e-12 
 3.4006798299012244e-12  3.4902570623101447e-12  3.5821938493324490e-12  3.6765523441601912e-12 
 3.7733963371747023e-12  3.8727912990725125e-12  3.9748044251273169e-12  4.0795046806178581e-12 
 4.1869628474525061e-12  4.2972515720219913e-12  4.4104454143127144e-12  4.5266208983137661e-12 
 4.6458565637517878e-12  4.7682330191886615e-12  4.8938329965178851e-12  5.0227414068965029e-12 
 5.1550453981504178e-12  5.2908344136918866e-12  5.4302002529890601e-12  5.5732371336283841e-12 
 5.7200417550119299e-12  5.8707133637326203e-12  6.0253538206716455e-12  6.1840676698633528e-12 
 6.3469622091742322e-12  6.5141475628437750e-12  6.6857367559362345e-12  6.8618457907536744e-12 
 7.0425937252619015e-12  7.2281027535824044e-12  7.4184982886046316e-12  7.6139090467745527e-12 
 7.8144671351167851e-12  8.0203081405491419e-12  8.2315712215499639e-12  8.4483992022403304e-12 
 8.6709386689445911e-12  8.8993400692947325e-12  9.1337578139453438e-12  9.3743503809681717e-12 
 9.6212804229968059e-12  9.8747148771938551e-12  1.0134825078115084e-11  1.0401786873546774e-11 
 1.0675780743394694e-11  1.0956991921705031e-11  1.1245610521899813e-11  1.1541831665311538e-11 
 1.1845855613103869e-11  1.2157887901667716e-11  1.2478139481584123e-11  1.2806826860248118e-11 
 1.3144172248249814e-11  1.3490403709611804e-11  1.3845755315984619e-11  1.4210467304904225e-11 
 1.4584786242218849e-11  1.4968965188794858e-11  1.5363263871614557e-11  1.5767948859381460e-11 
 1.6183293742751881e-11  1.6609579319314852e-11  1.7047093783445306e-11  1.7496132921159000e-11 
 1.7957000310101121e-11  1.8430007524803472e-11  1.8915474347349566e-11  1.9413728983589714e-11 
 1.9925108285052600e-11  2.0449957976703230e-11  2.0988632890701659e-11  2.1541497206320205e-11 
 2.2108924696181813e-11  2.2691298978985888e-11  2.3289013778892662e-11  2.3902473191741602e-11 
 2.4532091958283874e-11  2.5178295744613720e-11  2.5841521429988536e-11  2.6522217402232357e-11 
 2.7220843860922350e-11  2.7937873128563981e-11  2.8673789969964794e-11  2.9429091920023314e-11 
 3.0204289620154499e-11  3.0999907163579859e-11  3.1816482449715136e-11  3.2654567547896208e-11 
 3.3514729070688515e-11  3.4397548557033071e-11  3.5303622865488310e-11  3.6233564577833527e-11 
 3.7188002413307397e-11  3.8167581653761475e-11  3.9172964580016923e-11  4.0204830919718920e-11 
 4.1263878306992443e-11  4.2350822754210446e-11  4.3466399136192808e-11  4.4611361687164880e-11 
 4.5786484510810825e-11  4.6992562103767265e-11  4.8230409892911455e-11  4.9500864786807121e-11 
 5.0804785741681167e-11  5.2143054342313961e-11  5.3516575398236083e-11  5.4926277555634531e-11 
 5.6373113925382495e-11  5.7858062727616547e-11  5.9382127953297829e-11  6.0946340043203450e-11 
 6.2551756584807942e-11  6.4199463027524670e-11  6.5890573416791268e-11  6.7626231147494735e-11 
 6.9407609737245031e-11  7.1235913620020405e-11  7.3112378960720052e-11  7.5038274491174903e-11 
 7.7014902368182265e-11  7.9043599054144163e-11  8.1125736220905668e-11  8.3262721677405777e-11 
 8.5456000321768243e-11  8.7707055118480375e-11  9.0017408101320842e-11  9.2388621402720755e-11 
 9.4822298310255748e-11  9.7320084350991038e-11  9.9883668404417422e-11  1.0251478384473850e-10 
 1.0521520971328864e-10  1.0798677192188465e-10  1.1083134448793308e-10  1.1375085080213977e-10 
 1.1674726492968952e-10  1.1982261294578750e-10  1.2297897430647764e-10  1.2621848325567919e-10 
 1.2954333026940401e-10  1.3295576353814697e-10  1.3645809048846590e-10  1.4005267934479256e-10 
 1.4374196073254888e-10  1.4752842932366269e-10  1.5141464552561174e-10  1.5540323721516790e-10 
 1.5949690151789140e-10  1.6369840663181990e-10  1.6801059369812953e-10  1.7243637872388456e-10 
 1.7697875455565755e-10  1.8164079290521386e-10  1.8642564642865836e-10  1.9133655086046064e-10 
 1.9637682720381193e-10  2.0154988397880776e-10  2.0685921952998642e-10  2.1230842439480091e-10 
 2.1790118373463832e-10  2.2364127983004717e-10  2.2953259464188096e-10  2.3557911244010458e-10 
 2.4178492250206751e-10  2.4815422188208797e-10  2.5469131825425120e-10  2.6140063283036888e-10 
 2.6828670335510877e-10  2.7535418718035205e-10  2.8260786442089635e-10  2.9005264119368513e-10 
 2.9769355294279747e-10  3.0553576785250367e-10  3.1358459035075316e-10  3.2184546470553166e-10 
 3.3032397871658988e-10  3.3902586750513308e-10  3.4795701740411633e-10  3.5712346995188932e-10 
 3.6653142599200355e-10  3.7618724988209008e-10  3.8609747381479226e-10  3.9626880225384631e-10 
 4.0670811648848242e-10  4.1742247930942478e-10  4.2841913980986716e-10  4.3970553831489651e-10 
 4.5128931144293632e-10  4.6317829730287119e-10  4.7538054083059241e-10  4.8790429926876703e-10 
 5.0075804779365974e-10  5.1395048529282593e-10  5.2749054029741830e-10  5.4138737707269026e-10 
 5.5565040187002041e-10  5.7028926934340477e-10  5.8531388913288153e-10  6.0073443261679459e-10 
 6.1656133983429418e-10  6.3280532657917275e-10  6.4947739166628997e-10  6.6658882437273189e-10 
 6.8415121205767285e-10  7.0217644796754150e-10  7.2067673923627706e-10  7.3966461509333140e-10 
 7.5915293529389443e-10  7.7915489878589765e-10  7.9968405262663130e-10  8.2075430115881718e-10 
 8.4237991545263031e-10  8.6457554301741747e-10  8.8735621778525125e-10  9.1073737036813846e-10 
 9.3473483859133229e-10  9.5936487830642391e-10  9.8464417448923945e-10  1.0105898526288214e-09 
 1.0372194904147972e-09  1.0645511297311875e-09  1.0926032889652718e-09  1.1213949756404892e-09 
 1.1509456993826535e-09  1.1812754852289823e-09  1.2124048872896570e-09  1.2443550027718006e-09 
 1.2771474863759936e-09  1.3108045650756525e-09  1.3453490532898139e-09  1.3808043684601452e-09 
 1.4171945470432269e-09  1.4545442609294627e-09  1.4928788343002360e-09  1.5322242609352642e-09 
 1.5726072219823876e-09  1.6140551042024016e-09  1.6565960187018342e-09  1.7002588201669538e-09 
 1.7450731266126864e-09  1.7910693396604172e-09  1.8382786653591334e-09  1.8867331355647160e-09 
 1.9364656298926012e-09  1.9875098982595039e-09  2.0399005840302800e-09  2.0936732477865065e-09 
 2.1488643917337833e-09  2.2055114847653173e-09  2.2636529881997307e-09  2.3233283822116790e-09 
 2.3845781929742785e-09  2.4474440205329766e-09  2.5119685674310012e-09  2.5781956681071221e-09 
 2.6461703190870680e-09  2.7159387099905303e-09  2.7875482553763487e-09  2.8610476274490972e-09 
 2.9364867896509666e-09  3.0139170311635752e-09  3.0933910023449811e-09  3.1749627511279898e-09 
 3.2586877604065357e-09  3.3446229864377618e-09  3.4328268982881885e-09  3.5233595183532452e-09 
 3.6162824639802401e-09  3.7116589902257990e-09  3.8095540337796582e-09  3.9100342580877205e-09 
 4.0131680997081656e-09  4.1190258159355207e-09  4.2276795337285867e-09  4.3392032999791355e-09 
 4.4536731331595926e-09  4.5711670763888105e-09  4.6917652519564810e-09  4.8155499173477670e-09 
 4.9426055228111448e-09  5.0730187705136378e-09  5.2068786753291200e-09  5.3442766273066045e-09 
 5.4853064558670333e-09  5.6300644957785115e-09  5.7786496549614831e-09  5.9311634841769244e-09 
 6.0877102486524235e-09  6.2483970017025279e-09  6.4133336604017182e-09  6.5826330833700770e-09 
 6.7564111507336949e-09  6.9347868463237840e-09  7.1178823421806072e-09  7.3058230854303055e-09 
 7.4987378876050483e-09  7.6967590164790825e-09  7.9000222904957577e-09  8.1086671758628331e-09 
 8.3228368863961980e-09  8.5426784861944789e-09  8.7683429952298393e-09  8.9999854979433096e-09 
 9.2377652549354395e-09  9.4818458178466440e-09  9.7323951475243792e-09  9.9895857355777006e-09 
 1.0253594729423308e-08  1.0524604060930285e-08  1.0802800578774967e-08  1.1088376184620681e-08 
 1.1381527973241418e-08  1.1682458376712355e-08  1.1991375312794573e-08  1.2308492337645696e-08 
 1.2634028802992756e-08  1.2968210017908515e-08  1.3311267415337249e-08  1.3663438723521474e-08 
 1.4024968142486135e-08  1.4396106525742858e-08  1.4777111567382141e-08  1.5168247994728011e-08 
 1.5569787766735572e-08  1.5982010278318764e-08  1.6405202570802290e-08  1.6839659548699041e-08 
 1.7285684203021524e-08  1.7743587841343931e-08  1.8213690324839263e-08  1.8696320312524440e-08 
 1.9191815512955299e-08  1.9700522943622260e-08  2.0222799198307338e-08  2.0759010722672792e-08 
 2.1309534098362492e-08  2.1874756335907641e-08  2.2455075176739968e-08  2.3050899404627454e-08 
 2.3662649166859772e-08  2.4290756305523597e-08  2.4935664699221666e-08  2.5597830615603218e-08 
 2.6277723075088389e-08  2.6975824226184299e-08  2.7692629732807017e-08  2.8428649174039737e-08 
 2.9184406456776161e-08  2.9960440241714907e-08  3.0757304383191657e-08  3.1575568383354379e-08 
 3.2415817861209323e-08  3.3278655037086162e-08  3.4164699233094999e-08  3.5074587390170982e-08 
 3.6008974602328166e-08  3.6968534668770710e-08  3.7953960664536712e-08  3.8965965530379366e-08 
 4.0005282682620627e-08  4.1072666643744199e-08  4.2168893694527730e-08  4.3294762548550317e-08 
 4.4451095049946038e-08  4.5638736895315127e-08  4.6858558380742899e-08  4.8111455174919433e-08 
 4.9398349119397637e-08  5.0720189057074262e-08  5.2077951690025477e-08  5.3472642467883064e-08 
 5.4905296507987373e-08  5.6376979548613544e-08  5.7888788936623346e-08  5.9441854650960917e-08 
 6.1037340363472050e-08  6.2676444538599777e-08  6.4360401573578340e-08  6.6090482980824587e-08 
 6.7867998614305882e-08  6.9694297941747186e-08  7.1570771364629171e-08  7.3498851588019792e-08 
 7.5480015042382868e-08  7.7515783359606366e-08  7.9607724905603474e-08  8.1757456371951843e-08 
 8.3966644429157401e-08  8.6237007444253447e-08  8.8570317265579177e-08  9.0968401077721278e-08 
 9.3433143329748778e-08  9.5966487740026514e-08  9.8570439381054877e-08  1.0124706684795582e-07 
 1.0399850451440581e-07  1.0682695488000619e-07  1.0973469101328457e-07  1.1272405909472878e-07 
 1.1579748106448284e-07  1.1895745737956510e-07  1.2220656988572150e-07  1.2554748480928409e-07 
 1.2898295587468575e-07  1.3251582755356888e-07  1.3614903845173828e-07  1.3988562484052818e-07 
 1.4372872433949912e-07  1.4768157975774283e-07  1.5174754310144900e-07  1.5593007975580280e-07 
 1.6023277284969371e-07  1.6465932781217943e-07  1.6921357713011548e-07  1.7389948531686838e-07 
 1.7872115410255865e-07  1.8368282785684506e-07  1.8878889925585137e-07  1.9404391520546711e-07 
 1.9945258303391986e-07  2.0501977696721422e-07  2.1075054490178197e-07  2.1665011548947050e-07 
 2.2272390555083241e-07  2.2897752783355822e-07  2.3541679913383045e-07  2.4204774879936565e-07 
 2.4887662763395353e-07  2.5590991722442412e-07  2.6315433971213145e-07  2.7061686803230837e-07 
 2.7830473664595217e-07  2.8622545279031071e-07  2.9438680827552118e-07  3.0279689185652928e-07 
 3.1146410221108730e-07  3.2039716155640616e-07  3.2960512993891724e-07  3.3909742023359789e-07 
 3.4888381389143738e-07  3.5897447747587452e-07  3.6937998003143093e-07  3.8011131133030841e-07 
 3.9117990104542262e-07  4.0259763890121640e-07  4.1437689585665338e-07  4.2653054637804363e-07 
 4.3907199186280200e-07  4.5201518527892271e-07  4.6537465708886646e-07  4.7916554253071818e-07 
 4.9340361033391032e-07  5.0810529295152863e-07  5.2328771839625096e-07  5.3896874377232100e-07 
 5.5516699060168678e-07  5.7190188204850834e-07  5.8919368215273885e-07  6.0706353719041455e-07 
 6.2553351928566951e-07  6.4462667240737946e-07  6.6436706089175776e-07  6.8477982064121173e-07 
 7.0589121315935759e-07  7.2772868259236911e-07  7.5032091595774894e-07  7.7369790675337061e-07 
 7.9789102215212538e-07  8.2293307400090834e-07  8.4885839385701151e-07  8.7570291231030863e-07 
 9.0350424285603706e-07  9.3230177060053272e-07  9.6213674610111409e-07  9.9305238466145727e-07 
 1.0250939714254022e-06  1.0583089726352976e-06  1.0927471534458534e-06  1.1284607027110387e-06 
 1.1655043651902264e-06  1.2039355816504144e-06  1.2438146373743154e-06  1.2852048196194663e-06 
 1.3281725846115365e-06  1.3727877346958462e-06  1.4191236063150124e-06  1.4672572695278841e-06 
 1.5172697398356917e-06  1.5692462031360328e-06  1.6232762546841286e-06  1.6794541530041801e-06 
 1.7378790897618557e-06  1.7986554766825539e-06  1.8618932506792933e-06  1.9277081984395810e-06 
 1.9962223018128733e-06  2.0675641054396118e-06  2.1418691081703052e-06  2.2192801799390553e-06 
 2.2999480058811537e-06  2.3840315596197344e-06  2.4716986077927645e-06  2.5631262480498119e-06 
 2.6585014829191905e-06  2.7580218321312025e-06  2.8618959861836403e-06  2.9703445041527927e-06 
 3.0836005589883135e-06  3.2019107337850671e-06  3.3255358728014133e-06  3.4547519912928612e-06 
 3.5898512485551186e-06  3.7311429889231899e-06  3.8789548558564027e-06  4.0336339846548270e-06 
 4.1955482798049433e-06  4.3650877834433720e-06  4.5426661419618733e-06  4.7287221783578713e-06 
 4.9237215785671641e-06  5.1281587007039174e-06  5.3425585168828381e-06  5.5674786981152626e-06 
 5.8035118536612652e-06  6.0512879371906669e-06  6.3114768331646841e-06  6.5847911380055708e-06 
 6.8719891518829189e-06  7.1738780983228551e-06  7.4913175903514384e-06  7.8252233635283319e-06 
 8.1765712980256165e-06  8.5464017538733781e-06  8.9358242456470178e-06  9.3460224852272167e-06 
 9.7782598238447414e-06  1.0233885127449244e-05  1.0714339122540568e-05  1.1221161252998464e-05 
 1.1755997092174045e-05  1.2320606358595723e-05  1.2916871588132396e-05  1.3546807520386964e-05 
 1.4212571262510310e-05  1.4916473299579475e-05  1.5660989427229942e-05  1.6448773689432205e-05 
 1.7282672412225789e-05  1.8165739432945913e-05  1.9101252634082581e-05  2.0092731901492463e-05 
 2.1143958638345728e-05  2.2258996979045719e-05  2.3442216861538886e-05  2.4698319132076549e-05 
 2.6032362873757031e-05  2.7449795169241932e-05  2.8956483529097595e-05  3.0558751240480381e-05 
 3.2263415916601235e-05  3.4077831555840373e-05  3.6009934450833803e-05  3.8068293322651306e-05 
 4.0262164093699852e-05  4.2601549755626033e-05  4.5097265835714612e-05  4.7761012017593232e-05 
 5.0605450530025790e-05  5.3644291981831051e-05  5.6892389392210360e-05  6.0365841244777922e-05 
 6.4082104481236164e-05  6.8060118447888646e-05  7.2320440916112471e-05  7.6885397417716269e-05 
 8.1779245269123781e-05  8.7028353806024091e-05  9.2661402514169808e-05  9.8709598924215256e-05 
 1.0520691834090127e-04  1.1219036770178015e-04  1.1970027611054186e-04  1.2778061486764180e-04 
 1.3647935012943809e-04  1.4584883166985079e-04  1.5594622159946535e-04  1.6683396732021586e-04 
 1.7858032346397464e-04  1.9125992808567975e-04  2.0495443896173131e-04  2.1975323648856776e-04 
 2.3575420039147419e-04  2.5306456824739022e-04  2.7180188470610987e-04  2.9209505127093365e-04 
 3.1408548758257449e-04  3.3792841634983252e-04  3.6379428539917822e-04  3.9187034178583000e-04 
 4.2236237453522826e-04  4.5549664438112491e-04  4.9152202085114155e-04  5.3071234924006918e-04 
 5.7336907242406827e-04  6.1982413512502070e-04  6.7044320115456659e-04  7.2562921737363882e-04 
 7.8582636161838573e-04  8.5152441569064650e-04  9.2326360871442339e-04  1.0016399807429314e-03 
 1.0873113214872503e-03  1.1810037444498747e-03  1.2835189626053661e-03  1.3957423380941982e-03 
 1.5186517851996195e-03  1.6533276131709016e-03  1.8009634032436518e-03  1.9628780224847887e-03 
 2.1405288858425101e-03  2.3355265869837568e-03  2.5496510281128016e-03  2.7848691889254592e-03 
 3.0433546850851113e-03  3.3275092770042479e-03  3.6399865001461376e-03  3.9837175983593615e-03 
 4.3619399517199862e-03  4.7782281997365006e-03  5.2365282692785724e-03  5.7411945238779096e-03 
 6.2970302567168825e-03  6.9093317532078011e-03  7.5839361500475164e-03  8.3272733154193743e-03 
 9.1464219689507079e-03  1.0049170249399686e-02  1.1044080922059501e-02  1.2140561395697719e-02 
 1.3348938689619907e-02  1.4680539454257445e-02  1.6147775102625529e-02  1.7764232054191278e-02 
 1.9544767026301018e-02  2.1505607230595775e-02  2.3664455242181710e-02  2.6040598207282963e-02 
 2.8655020940479538e-02  3.1530522335487386e-02  3.4691834374153796e-02  3.8165742867649351e-02 
 4.1981208902832759e-02  4.6169489796894593e-02  5.0764258186404634e-02  5.5801717694763650e-02 
 6.1320713436825311e-02  6.7362835432993567e-02  7.3972512818873071e-02  8.1197096551234735e-02 
 8.9086928126196202e-02  9.7695391639071649e-02  1.0707894632340254e-01  1.1729713650318672e-01 
 1.2841257566914394e-01  1.4049090113713147e-01  1.5360069545391491e-01  1.6781337037250463e-01 
 1.8320300881936968e-01  1.9984615981838730e-01  2.1782158083074787e-01  2.3720992144006386e-01 
 2.5809334180061344e-01  2.8055505884076942e-01  3.0467881296760174e-01  3.3054824807682920e-01 
 3.5824619818918918e-01  3.8785387519009928e-01  4.1944995414003933e-01  4.5310955563974065e-01 
 4.8890312893143045e-01  5.2689524486346673e-01  5.6714331445857313e-01  6.0969625629963076e-01 
 6.5459314368915822e-01  7.0186186965088782e-01  7.5151787318601371e-01  8.0356297257863063e-01 
 8.5798435001262363e-01  9.1475372594626014e-01  9.7382675204816060e-01  1.0351426393064296e+00 
 1.0986240249479189e+00  1.1641770697407621e+00  1.2316917671841701e+00  1.3010424382573511e+00 
 1.3720883794137861e+00  1.4446746268725257e+00  1.5186327969221776e+00  1.5937819605615118e+00 
 1.6699295125125786e+00  1.7468720005843916e+00  1.8243958919745134e+00  1.9022782676631902e+00 
 1.9802874526931666e+00  2.0581836062033365e+00  2.1357193079349805e+00  2.2126401855842177e+00 
 2.2886856289930768e+00  2.3635896330883446e+00  2.4370818029100620e+00  2.5088885426715191e+00 
 2.5787344385662654e+00  2.6463438388053531e+00  2.7114426273425232e+00  2.7737600122065555e+00 
 2.8330306669212471e+00  2.8889968077834673e+00  2.9414103444272213e+00  2.9900350400449409e+00 
 3.0346486354873394e+00  3.0750448973472539e+00  3.1110355523997533e+00  3.1424520738550275e+00 
 3.1691472885951066e+00  3.1909967787496614e+00  3.2079000554857711e+00  3.2197814876278281e+00 
 3.2265909725885260e+00  3.2283043419904751e+00  3.2249234992059557e+00  3.2164762907551627e+00 
 3.2030161179989025e+00  3.1846212997571444e+00  3.1613942003024182e+00  3.1334601405452194e+00 
 3.1009661130862294e+00  3.0640793241101436e+00  3.0229855868072861e+00  2.9778875921193420e+00 
 2.9290030831206839e+00  2.8765629592915229e+00  2.8208093363551203e+00  2.7619935862948131e+00 
 2.7003743807031535e+00  2.6362157588128881e+00  2.5697852374778609e+00  2.5013519908924966e+00 
 2.4311850932551784e+00  2.3595518586517645e+00  2.2867162775873724e+00  2.2129375604022279e+00 
 2.1384687937104916e+00  2.0635557141650844e+00  1.9884356022254235e+00  1.9133362971849011e+00 
 1.8384753331937336e+00  1.7640591968576160e+00  1.6902827013716699e+00  1.6173284778065380e+00 
 1.5453665787481061e+00  1.4745541908696369e+00  1.4050354522254929e+00  1.3369413696070613e+00 
 1.2703898302135204e+00  1.2054857055327144e+00  1.1423210346592740e+00  1.0809752876444894e+00 
 1.0215156987425567e+00  9.6399766322082880e-01  9.0846519044343288e-01  8.5495140573064798e-01 
 8.0347909338144485e-01  7.5406127323393490e-01  7.0670180323511234e-01  6.6139600069907267e-01 
 6.1813127524785494e-01  5.7688776684192100e-01  5.3763898280417932e-01  5.0035242830506643e-01 
 4.6499022538711215e-01  4.3150971624554946e-01  3.9986404712727341e-01  3.7000272984595539e-01 
 3.4187217852092833e-01  3.1541621971908484e-01  2.9057657470324022e-01  2.6729331296080794e-01 
 2.4550527659965932e-01  2.2515047555225093e-01  2.0616645382471105e-01  1.8849062726612401e-01 
 1.7206059351715558e-01  1.5681441492985312e-01  1.4269087533635044e-01  1.2962971158912437e-01 
 1.1757182080673986e-01  1.0645944424572518e-01  9.6236328691777187e-02  8.6847866233076568e-02 
 7.8241213255922162e-02  7.0365389497342848e-02  6.3171358006995193e-02  5.6612086913673608e-02 
 5.0642593957867479e-02  4.5219974834472820e-02  4.0303416479259987e-02  3.5854196517533028e-02 
 3.1835670162172910e-02  2.8213245891336454e-02  2.4954351247074048e-02  2.2028390072652299e-02 
 1.9406692450202691e-02  1.7062458516920346e-02  1.4970697235490864e-02  1.3108161082097884e-02 
 1.1453277502497368e-02  9.9860778811041370e-03  8.6881246754588921e-03  7.5424372918401327e-03 
 6.5334172174892546e-03  5.6467728795253002e-03  4.8694446668750557e-03  4.1895305252780801e-03 
 3.5962125134944853e-03  3.0796846876285349e-03  2.6310826572124397e-03  2.2424151301255052e-03 
 1.9064977327328814e-03  1.6168893569133702e-03  1.3678312475716142e-03  1.1541890038336586e-03 
 9.7139762563185268e-04  8.1540969605376087e-04  6.8264674983468108e-04  5.6995384072783273e-04 
 4.7455728599699645e-04  3.9402553552695253e-04  3.2623308640078485e-04  2.6932734141039256e-04 
 2.2169829183177729e-04  1.8195089074927938e-04  1.4887997298132667e-04  1.2144757089437824e-04 
 9.8762471693694941e-05  8.0061860730452683e-05  6.4694896546872360e-05  5.2108066395364578e-05 
 4.1832175445883687e-05  3.3470828507847001e-05  2.6690269551056491e-05  2.1210451368070306e-05 
 1.6797215172208039e-05  1.3255467600626779e-05  1.0423250351814634e-05  8.1666054191126217e-06 
 6.3751464961782228e-06  4.9582545543117629e-06  3.8418227675924423e-06  2.9654828441225596e-06 
 2.2802513746704943e-06  1.7465410064755400e-06  1.3324870702389669e-06  1.0125457193697415e-06 
 7.6632467545205186e-07  5.7761231128379401e-07  4.3357504638761982e-07  3.2409688785159383e-07 
 2.4123843394692718e-07  1.7879578484426875e-07  1.3194259236356765e-07  9.6940949686940366e-08 
 7.0908994551088153e-08  5.1634998807868637e-08  3.7429367023286913e-08  2.7007390540793764e-08 
 1.9396824240873497e-08  1.3865393317037282e-08  9.8642178606812234e-09  6.9838836629451210e-09 
 4.9205066700080876e-09  3.4496526623990263e-09  2.4063980528705563e-09  1.6701656975869788e-09 
 1.1532532286467723e-09  7.9220110572060116e-10  5.4133243746870908e-10  3.6794445943974110e-10 
 2.4874904555364603e-10  1.6725241776049865e-10  1.1183703616028542e-10  7.4365437553799443e-11 
 4.9169793955184983e-11  3.2324845050446673e-11  2.1127781848749283e-11  1.3728365773433170e-11 
 8.8674526292526806e-12  5.6932614905615590e-12  3.6330571585531613e-12  2.3040839596892987e-12 
 1.4521282052978248e-12  9.0940496620983162e-13  5.6587430778871230e-13  3.4982995885917646e-13 
 2.1484830837898831e-13  1.3107136250472387e-13  7.9423150364903533e-14  4.7798225130091500e-14 
 2.8566893988263405e-14  1.6953606390589013e-14  9.9900825904226838e-15  5.8444508751692024e-15 
 3.3942605571141070e-15  1.9567353388733283e-15  1.1195989832361026e-15  6.3576100277465742e-16 
 3.5824751844126884e-16  2.0030270523126451e-16  1.1111192586627840e-16  6.1144908609252667e-17 
 3.3376517152641634e-17  1.8070006752461699e-17  9.7021634328433690e-18  5.1583694146230253e-18 
 2.7234302552272500e-18  1.4255725633774746e-18  7.3979506829722825e-19  3.8061910185106863e-19 
 1.9417477751772763e-19  9.8266090307644110e-20  4.9380515189674892e-20  2.4694061556880950e-20 
 0.0000000000000000e+00  0.0000000000000000e+00  0.0000000000000000e+00  0.0000000000000000e+00 
 0.0000000000000000e+00  0.0000000000000000e+00  0.0000000000000000e+00  0.0000000000000000e+00 
 0.0000000000000000e+00  0.0000000000000000e+00  0.0000000000000000e+00  0.0000000000000000e+00 
 0.0000000000000000e+00  0.0000000000000000e+00  0.0000000000000000e+00  0.0000000000000000e+00 
 0.0000000000000000e+00  0.0000000000000000e+00  0.0000000000000000e+00  0.0000000000000000e+00 
 0.0000000000000000e+00  0.0000000000000000e+00  0.0000000000000000e+00  0.0000000000000000e+00 
 0.0000000000000000e+00  0.0000000000000000e+00  0.0000000000000000e+00  0.0000000000000000e+00 
 0.0000000000000000e+00  0.0000000000000000e+00  0.0000000000000000e+00  0.0000000000000000e+00 
 0.0000000000000000e+00  0.0000000000000000e+00  0.0000000000000000e+00  0.0000000000000000e+00 
 0.0000000000000000e+00  0.0000000000000000e+00  0.0000000000000000e+00  0.0000000000000000e+00 
 0.0000000000000000e+00  0.0000000000000000e+00  0.0000000000000000e+00  0.0000000000000000e+00 
 0.0000000000000000e+00  0.0000000000000000e+00  0.0000000000000000e+00  0.0000000000000000e+00 
 0.0000000000000000e+00  0.0000000000000000e+00  0.0000000000000000e+00  0.0000000000000000e+00 
 0.0000000000000000e+00  0.0000000000000000e+00  0.0000000000000000e+00  0.0000000000000000e+00 
 0.0000000000000000e+00  0.0000000000000000e+00  0.0000000000000000e+00  0.0000000000000000e+00 
 0.0000000000000000e+00  0.0000000000000000e+00  0.0000000000000000e+00  0.0000000000000000e+00 
 0.0000000000000000e+00  0.0000000000000000e+00  0.0000000000000000e+00  0.0000000000000000e+00 
 0.0000000000000000e+00  0.0000000000000000e+00  0.0000000000000000e+00  0.0000000000000000e+00 
 0.0000000000000000e+00  0.0000000000000000e+00  0.0000000000000000e+00  0.0000000000000000e+00 
 0.0000000000000000e+00  0.0000000000000000e+00  0.0000000000000000e+00  0.0000000000000000e+00 
 0.0000000000000000e+00  0.0000000000000000e+00  0.0000000000000000e+00  0.0000000000000000e+00 
 0.0000000000000000e+00  0.0000000000000000e+00  0.0000000000000000e+00  0.0000000000000000e+00 
 0.0000000000000000e+00  0.0000000000000000e+00  0.0000000000000000e+00  0.0000000000000000e+00 
 0.0000000000000000e+00  0.0000000000000000e+00  0.0000000000000000e+00  0.0000000000000000e+00 
 0.0000000000000000e+00  0.0000000000000000e+00  0.0000000000000000e+00  0.0000000000000000e+00 
 0.0000000000000000e+00  0.0000000000000000e+00  0.0000000000000000e+00  0.0000000000000000e+00 
 0.0000000000000000e+00  0.0000000000000000e+00  0.0000000000000000e+00  0.0000000000000000e+00 
 0.0000000000000000e+00  0.0000000000000000e+00  0.0000000000000000e+00  0.0000000000000000e+00 
 0.0000000000000000e+00  0.0000000000000000e+00 
</PP_RHOATOM>


<PP_ADDINFO>
 6S  6  0   0.50  2.00 
 6P  6  1   0.50  1.17 
 6P  6  1   1.50  2.33 
  1   0.50 
  1   1.50 
 -6.24857287,  117.42218699,   85.00000000,    0.01300000 
</PP_ADDINFO>
