  <PP_INFO>

############################################################
#    Opium Parameter File                                  #
############################################################
#-----------------------------------------------------------
#Command line   : opium Os Os.log ae ps nl tc2 ke upf qmcpack rpt 
 
#Opium version  : 4.1 
#Compile Host   : py-garuda.cos.ncsu.edu 
#Compile OS     : Linux 5.15.0-113-generic x86_64 
#Compile Date   : Sat Jul 13 02:11:52 EDT 2024 
#-----------------------------------------------------------
#Execution Host : Gwaihir 
#Execution Date : Wed Apr  8 10:50:30 2026
 
#-----------------------------------------------------------
############################################################
[Atom]
Os
15
100   2.00  -
200   2.00  -
210   6.00  -
300   2.00  -
310   6.00  -
320   10.00  -
400   2.00  -
410   6.00  -
420   10.00  -
430   14.00  -
500   2.00  -
510   6.00  -
520   5.50  -
600   1.00  -
610   0.50  -

[Pseudo]
5 -1 -1 -1 -1 -1
g

[Gaussinfo]
16 5
2 2 2 2 4
2 11.5002463 471.0407297  
2 3.4852399 17.8130491
2 9.8037034 265.2677546
2 4.6481669 48.5100692
2 6.2027583 107.9209763
2 4.0550573 31.4379599
2 2.5029220 16.9056440
2 4.0139760 17.8581420
1 13.9228489 16.0
3 14.5401353 222.76558240
2 3.4987206 -8.8867880
2 4.1385791 -10.8313312

[KBdesign]
s

[Relativity]
nrl

[XC]
pbe

[Configs]
12

500  2.00 -
510  6.00 -
520  6.00 -
600  1.00 -
610  0.00 -

500  2.00 -
510  6.00 -
520  6.00 -
600  1.00 -
610  1.00 -

500  2.00 -
510  6.00 -
520  6.00 -
600  2.00 -
610  0.00 -

500  2.00 -
510  6.00 -
520  7.00 -
600  1.00 -
610  0.00 -

500  2.00 -
510  6.00 -
520  6.00 -
600  1.00 -
610  0.00 -

500  2.00 -
510  6.00 -
520  5.00 -
600  1.00 -
610  0.00 -

500  2.00 -
510  6.00 -
520  6.00 -
600  0.00 -
610  0.00 -

500  2.00 -
510  6.00 -
520  5.00 -
600  0.00 -
610  0.00 -

500  2.00 -
510  6.00 -
520  4.00 -
600  0.00 -
610  0.00 -

500  2.00 -
510  6.00 -
520  3.00 -
600  0.00 -
610  0.00 -

500  2.00 -
510  6.00 -
520  2.00 -
600  0.00 -
610  0.00 -

500  2.00 -
510  6.00 -
520  1.00 -
600  0.00 -
610  0.00 -
############################################################
  </PP_INFO>



<PP_HEADER>
   0         Version Number
   Os        Element
   NC        Norm - Conserving pseudopotential
    F      Nonlinear Core Correction
SLA  PW   PBE  PBE     PBE  Exchange-Correlation functional
 16          Z valence
 0          Total energy
 0.000000   0.000000     Suggested cutoff for wfc and rho
 2           Max angular momentum component
 1187           Number of points in mesh
 3  2     Number of Wavefuncitons, Number of Projectors
 Wavefunctions         nl  l   occ
                      5S  0  2.000000
                      5P  1  6.000000
                      5D  2  5.500000
</PP_HEADER>
<PP_MESH>
  <PP_R>
 2.3608159785434170e-05  2.3917069424835755e-05  2.4230021105895077e-05  2.4547067718191088e-05 
 2.4868262843355869e-05  2.5193660764130068e-05  2.5523316473536738e-05  2.5857285684175392e-05 
 2.6195624837637518e-05  2.6538391114045328e-05  2.6885642441715343e-05  2.7237437506948445e-05 
 2.7593835763947952e-05  2.7954897444867566e-05  2.8320683569990749e-05  2.8691255958043199e-05 
 2.9066677236640525e-05  2.9447010852872350e-05  2.9832321084025045e-05  3.0222673048444746e-05 
 3.0618132716542519e-05  3.1018766921943513e-05  3.1424643372781973e-05  3.1835830663144154e-05 
 3.2252398284660741e-05  3.2674416638251263e-05  3.3101957046021921e-05  3.3535091763319209e-05 
 3.3973893990941268e-05  3.4418437887508949e-05  3.4868798581998827e-05  3.5325052186440178e-05 
 3.5787275808778121e-05  3.6255547565904881e-05  3.6729946596861998e-05  3.7210553076214802e-05 
 3.7697448227602206e-05  3.8190714337463651e-05  3.8690434768945723e-05  3.9196693975990716e-05 
 3.9709577517609624e-05  4.0229172072341602e-05  4.0755565452903120e-05  4.1288846621028378e-05 
 4.1829105702504037e-05  4.2376434002400731e-05  4.2930924020503847e-05  4.3492669466946184e-05 
 4.4061765278045189e-05  4.4638307632347454e-05  4.5222393966883112e-05  4.5814122993632801e-05 
 4.6413594716210466e-05  4.7020910446764014e-05  4.7636172823097382e-05  4.8259485826016555e-05 
 4.8890954796902567e-05  4.9530686455514456e-05  5.0178788918025200e-05  5.0835371715293417e-05 
 5.1500545811374624e-05  5.2174423622274228e-05  5.2857119034946172e-05  5.3548747426540083e-05 
 5.4249425683900274e-05  5.4959272223319929e-05  5.5678407010553710e-05  5.6406951581092266e-05 
 5.7145029060702090e-05  5.7892764186233804e-05  5.8650283326703376e-05  5.9417714504648512e-05 
 6.0195187417764836e-05  6.0982833460825136e-05  6.1780785747885358e-05  6.2589179134781234e-05 
 6.3408150241919220e-05  6.4237837477365575e-05  6.5078381060237878e-05  6.5929923044402196e-05 
 6.6792607342480622e-05  6.7666579750172795e-05  6.8551987970895742e-05  6.9448981640746137e-05 
 7.0357712353789120e-05  7.1278333687678052e-05  7.2211001229609530e-05  7.3155872602618038e-05 
 7.4113107492214389e-05  7.5082867673373279e-05  7.6065317037873464e-05  7.7060621621995859e-05 
 7.8068949634584116e-05  7.9090471485472263e-05  8.0125359814284497e-05  8.1173789519611394e-05 
 8.2235937788568562e-05  8.3311984126741487e-05  8.4402110388522416e-05  8.5506500807844187e-05 
 8.6625342029316238e-05  8.7758823139767945e-05  8.8907135700204743e-05  9.0070473778182468e-05 
 9.1249033980605147e-05  9.2443015486952157e-05  9.3652620082939697e-05  9.4878052194623551e-05 
 9.6119518922947234e-05  9.7377230078742665e-05  9.8651398218188623e-05  9.9942238678733325e-05 
 1.0124996961548701e-04  1.0257481203809036e-04  1.0391698984806613e-04  1.0527672987665868e-04 
 1.0665426192316921e-04  1.0804981879379223e-04  1.0946363634096040e-04  1.1089595350320422e-04 
 1.1234701234553321e-04  1.1381705810034535e-04  1.1530633920887205e-04  1.1681510736316538e-04 
 1.1834361754863427e-04  1.1989212808713813e-04  1.2146090068064356e-04  1.2305020045545273e-04 
 1.2466029600701023e-04  1.2629145944529651e-04  1.2794396644081503e-04  1.2961809627118096e-04 
 1.3131413186832030e-04  1.3303235986628575e-04  1.3477307064969847e-04  1.3653655840282396e-04 
 1.3832312115928975e-04  1.4013306085245385e-04  1.4196668336643225e-04  1.4382429858779403e-04 
 1.4570622045793289e-04  1.4761276702612418e-04  1.4954426050327541e-04  1.5150102731638151e-04 
 1.5348339816369117e-04  1.5549170807059581e-04  1.5752629644624969e-04  1.5958750714093083e-04 
 1.6167568850415266e-04  1.6379119344353530e-04  1.6593437948444879e-04  1.6810560883043503e-04 
 1.7030524842442121e-04  1.7253367001073409e-04  1.7479125019792562e-04  1.7707837052242066e-04 
 1.7939541751299764e-04  1.8174278275611281e-04  1.8412086296207915e-04  1.8653006003211152e-04 
 1.8897078112624908e-04  1.9144343873216558e-04  1.9394845073488170e-04  1.9648624048738809e-04 
 1.9905723688219327e-04  2.0166187442380683e-04  2.0430059330217283e-04  2.0697383946706208e-04 
 2.0968206470343897e-04  2.1242572670781437e-04  2.1520528916559720e-04  2.1802122182945839e-04 
 2.2087400059872032e-04  2.2376410759978501e-04  2.2669203126761419e-04  2.2965826642827665e-04 
 2.3266331438257434e-04  2.3570768299076389e-04  2.3879188675838615e-04  2.4191644692321814e-04 
 2.4508189154336476e-04  2.4828875558650080e-04  2.5153758102028232e-04  2.5482891690393995e-04 
 2.5816331948107181e-04  2.6154135227364960e-04  2.6496358617725545e-04  2.6843059955756430e-04 
 2.7194297834808902e-04  2.7550131614920522e-04  2.7910621432847038e-04  2.8275828212225696e-04 
 2.8645813673871417e-04  2.9020640346207830e-04  2.9400371575834684e-04  2.9785071538233578e-04 
 3.0174805248613806e-04  3.0569638572899984e-04  3.0969638238863685e-04  3.1374871847400488e-04 
 3.1785407883954742e-04  3.2201315730093720e-04  3.2622665675233328e-04  3.3049528928517154e-04 
 3.3481977630850970e-04  3.3920084867094765e-04  3.4363924678414165e-04  3.4813572074793688e-04 
 3.5269103047713511e-04  3.5730594582992299e-04  3.6198124673797862e-04  3.6671772333828344e-04 
 3.7151617610665602e-04  3.7637741599303505e-04  3.8130226455853180e-04  3.8629155411427500e-04 
 3.9134612786207476e-04  3.9646684003692489e-04  4.0165455605137084e-04  4.0691015264176605e-04 
 4.1223451801644326e-04  4.1762855200582318e-04  4.2309316621448844e-04  4.2862928417524695e-04 
 4.3423784150520994e-04  4.3991978606391539e-04  4.4567607811351733e-04  4.5150769048107273e-04 
 4.5741560872295136e-04  4.6340083129139752e-04  4.6946436970327066e-04  4.7560724871099431e-04 
 4.8183050647574165e-04  4.8813519474288631e-04  4.9452237901975152e-04  5.0099313875568222e-04 
 5.0754856752447503e-04  5.1418977320919379e-04  5.2091787818940637e-04  5.2773401953086800e-04 
 5.3463934917768823e-04  5.4163503414701318e-04  5.4872225672625253e-04  5.5590221467289062e-04 
 5.6317612141690949e-04  5.7054520626586170e-04  5.7801071461262548e-04  5.8557390814588004e-04 
 5.9323606506333398e-04  6.0099848028774268e-04  6.0886246568575488e-04  6.1682935028961930e-04 
 6.2490048052179625e-04  6.3307722042250480e-04  6.4136095188025018e-04  6.4975307486536411e-04 
 6.5825500766660547e-04  6.6686818713085317e-04  6.7559406890593668e-04  6.8443412768664483e-04 
 6.9338985746395117e-04  7.0246277177750394e-04  7.1165440397141647e-04  7.2096630745340667e-04 
 7.3040005595732577e-04  7.3995724380912454e-04  7.4963948619629684e-04  7.5944841944085078e-04 
 7.6938570127585123e-04  7.7945301112557945e-04  7.8965205038936147e-04  7.9998454272910743e-04 
 8.1045223436061568e-04  8.2105689434868530e-04  8.3180031490609453e-04  8.4268431169648818e-04 
 8.5371072414122879e-04  8.6488141573026376e-04  8.7619827433705797e-04  8.8766321253765210e-04 
 8.9927816793388923e-04  9.1104510348087662e-04  9.2296600781872744e-04  9.3504289560864809e-04 
 9.4727780787341894e-04  9.5967281234233322e-04  9.7223000380064809e-04  9.8495150444360621e-04 
 9.9783946423509517e-04  1.0108960612709942e-03  1.0241235021472791e-03  1.0375240223329395e-03 
 1.0510998865477816e-03  1.0648533891451696e-03  1.0787868544997773e-03  1.0929026374004128e-03 
 1.1072031234479829e-03  1.1216907294586661e-03  1.1363679038723601e-03  1.1512371271664747e-03 
 1.1663009122751355e-03  1.1815618050138802e-03  1.1970223845099034e-03  1.2126852636379377e-03 
 1.2285530894618358e-03  1.2446285436819276e-03  1.2609143430882379e-03  1.2774132400196283e-03 
 1.2941280228289491e-03  1.3110615163542778e-03  1.3282165823963249e-03  1.3455961202020795e-03 
 1.3632030669547975e-03  1.3810403982703861e-03  1.3991111287002919e-03  1.4174183122409678e-03 
 1.4359650428500052e-03  1.4547544549690203e-03  1.4737897240533811e-03  1.4930740671088704e-03 
 1.5126107432353608e-03  1.5324030541776176e-03  1.5524543448832981e-03  1.5727680040682555e-03 
 1.5933474647892400e-03  1.6141962050240952e-03  1.6353177482595427e-03  1.6567156640866605e-03 
 1.6783935688041540e-03  1.7003551260295127e-03  1.7226040473181804e-03  1.7451440927908090e-03 
 1.7679790717687312e-03  1.7911128434177433e-03  1.8145493174003147e-03  1.8382924545363301e-03 
 1.8623462674724760e-03  1.8867148213603903e-03  1.9114022345436768e-03  1.9364126792539235e-03 
 1.9617503823158135e-03  1.9874196258614705e-03  2.0134247480541496e-03  2.0397701438213947e-03 
 2.0664602655977964e-03  2.0934996240774594e-03  2.1208927889763249e-03  2.1486443898044560e-03 
 2.1767591166484447e-03  2.2052417209640451e-03  2.2340970163791767e-03  2.2633298795074431e-03 
 2.2929452507722907e-03  2.3229481352419500e-03  2.3533436034753070e-03  2.3841367923788386e-03 
 2.4153329060747561e-03  2.4469372167805264e-03  2.4789550656998801e-03  2.5113918639254897e-03 
 2.5442530933534584e-03  2.5775443076097725e-03  2.6112711329888769e-03  2.6454392694045350e-03 
 2.6800544913531256e-03  2.7151226488895419e-03  2.7506496686158753e-03  2.7866415546830164e-03 
 2.8231043898053758e-03  2.8600443362888739e-03  2.8974676370723870e-03  2.9353806167828184e-03 
 2.9737896828039762e-03  3.0127013263594377e-03  3.0521221236095718e-03  3.0920587367629414e-03 
 3.1325179152022235e-03  3.1735064966248701e-03  3.2150314081986989e-03  3.2570996677325991e-03 
 3.2997183848625582e-03  3.3428947622532084e-03  3.3866360968150947e-03  3.4309497809378617e-03 
 3.4758433037395996e-03  3.5213242523325127e-03  3.5674003131051621e-03  3.6140792730214853e-03 
 3.6613690209368064e-03  3.7092775489310781e-03  3.7578129536595590e-03  3.8069834377211700e-03 
 3.8567973110447415e-03  3.9072629922934296e-03  3.9583890102874797e-03  4.0101840054456179e-03 
 4.0626567312453017e-03  4.1158160557020823e-03  4.1696709628683158e-03  4.2242305543514951e-03 
 4.2795040508524411e-03  4.3355007937236102e-03  4.3922302465478312e-03  4.4497019967376511e-03 
 4.5079257571556406e-03  4.5669113677558890e-03  4.6266687972469790e-03  4.6872081447767236e-03 
 4.7485396416389429e-03  4.8106736530025883e-03  4.8736206796634552e-03  4.9373913598188737e-03 
 5.0019964708655712e-03  5.0674469312210800e-03  5.1337538021689793e-03  5.2009282897282757e-03 
 5.2689817465472492e-03  5.3379256738220748e-03  5.4077717232405608e-03  5.4785316989512892e-03 
 5.5502175595585771e-03  5.6228414201434833e-03  5.6964155543113015e-03  5.7709523962658181e-03 
 5.8464645429107285e-03  5.9229647559785421e-03  6.0004659641873445e-03  6.0789812654257914e-03 
 6.1585239289666509e-03  6.2391073977093904e-03  6.3207452904520210e-03  6.4034514041927228e-03 
 6.4872397164615686e-03  6.5721243876827535e-03  6.6581197635677486e-03  6.7452403775397560e-03 
 6.8335009531898978e-03  6.9229164067655174e-03  7.0135018496910893e-03  7.1052725911220724e-03 
 7.1982441405321913e-03  7.2924322103345776e-03  7.3878527185372049e-03  7.4845217914330693e-03 
 7.5824557663255717e-03  7.6816711942895681e-03  7.7821848429685129e-03  7.8840136994082714e-03 
 7.9871749729279479e-03  8.0916860980282963e-03  8.1975647373382070e-03  8.3048287845997257e-03 
 8.4134963676921366e-03  8.5235858516956239e-03  8.6351158419950141e-03  8.7481051874241048e-03 
 8.8625729834512067e-03  8.9785385754062915e-03  9.0960215617504128e-03  9.2150417973878799e-03 
 9.3356193970217972e-03  9.4577747385534879e-03  9.5815284665264136e-03  9.7069014956151552e-03 
 9.8339150141600103e-03  9.9625904877479309e-03  1.0092949662840207e-02  1.0225014570447701e-02 
 1.0358807529854124e-02  1.0494351152388056e-02  1.0631668345244313e-02  1.0770782315355316e-02 
 1.0911716573313126e-02  1.1054494937342760e-02  1.1199141537327571e-02  1.1345680818887229e-02 
 1.1494137547509099e-02  1.1644536812733655e-02  1.1796904032394690e-02  1.1951264956914971e-02 
 1.2107645673658136e-02  1.2266072611337530e-02  1.2426572544482669e-02  1.2589172597964269e-02 
 1.2753900251578376e-02  1.2920783344690512e-02  1.3089850080940619e-02  1.3261129033009513e-02 
 1.3434649147447755e-02  1.3610439749567681e-02  1.3788530548399458e-02  1.3968951641711943e-02 
 1.4151733521099330e-02  1.4336907077134276e-02  1.4524503604588486e-02  1.4714554807721597e-02 
 1.4907092805639274e-02  1.5102150137721426e-02  1.5299759769121435e-02  1.5499955096337345e-02 
 1.5702769952855918e-02  1.5908238614870628e-02  1.6116395807074402e-02  1.6327276708528154e-02 
 1.6540916958606145e-02  1.6757352663019125e-02  1.6976620399916275e-02  1.7198757226067007e-02 
 1.7423800683123668e-02  1.7651788803966090e-02  1.7882760119129350e-02  1.8116753663315440e-02 
 1.8353808981990256e-02  1.8593966138066870e-02  1.8837265718676256e-02  1.9083748842026616e-02 
 1.9333457164352443e-02  1.9586432886954563e-02  1.9842718763332167e-02  2.0102358106408359e-02 
 2.0365394795850096e-02  2.0631873285483941e-02  2.0901838610808885e-02  2.1175336396607455e-02 
 2.1452412864656403e-02  2.1733114841538292e-02  2.2017489766555338e-02  2.2305585699746666e-02 
 2.2597451330010704e-02  2.2893135983333635e-02  2.3192689631125630e-02  2.3496162898666125e-02 
 2.3803607073659638e-02  2.4115074114903490e-02  2.4430616661068966e-02  2.4750288039597418e-02 
 2.5074142275712617e-02  2.5402234101551298e-02  2.5734618965412914e-02  2.6071353041130570e-02 
 2.6412493237564519e-02  2.6758097208219901e-02  2.7108223360990339e-02  2.7462930868028972e-02 
 2.7822279675748761e-02  2.8186330514953443e-02  2.8555144911101348e-02  2.8928785194703238e-02 
 2.9307314511856336e-02  2.9690796834916183e-02  3.0079296973308106e-02  3.0472880584480142e-02 
 3.0871614184999369e-02  3.1275565161793313e-02  3.1684801783538441e-02  3.2099393212197881e-02 
 3.2519409514709850e-02  3.2944921674829139e-02  3.3376001605123579e-02  3.3812722159127395e-02 
 3.4255157143653653e-02  3.4703381331267776e-02  3.5157470472924321e-02  3.5617501310768941e-02 
 3.6083551591108175e-02  3.6555700077548658e-02  3.7034026564308341e-02  3.7518611889701958e-02 
 3.8009537949802864e-02  3.8506887712283666e-02  3.9010745230437960e-02  3.9521195657385572e-02 
 4.0038325260463525e-02  4.0562221435805589e-02  4.1092972723112305e-02  4.1630668820614482e-02 
 4.2175400600232359e-02  4.2727260122933208e-02  4.3286340654289851e-02  4.3852736680242747e-02 
 4.4426543923068391e-02  4.5007859357556475e-02  4.5596781227399047e-02  4.6193409061793790e-02 
 4.6797843692264765e-02  4.7410187269703120e-02  4.8030543281630901e-02  4.8659016569690607e-02 
 4.9295713347363761e-02  4.9940741217921227e-02  5.0594209192608278e-02  5.1256227709067993e-02 
 5.1926908650005314e-02  5.2606365362095557e-02  5.3294712675140223e-02  5.3992066921473569e-02 
 5.4698545955622985e-02  5.5414269174226739e-02  5.6139357536212298e-02  5.6873933583238528e-02 
 5.7618121460405798e-02  5.8372046937236577e-02  5.9135837428930860e-02  5.9909622017899657e-02 
 6.0693531475580167e-02  6.1487698284536534e-02  6.2292256660849650e-02  6.3107342576800105e-02 
 6.3933093783847567e-02  6.4769649835911450e-02  6.5617152112955629e-02  6.6475743844882071e-02 
 6.7345570135736998e-02  6.8226777988233830e-02  6.9119516328597003e-02  7.0023936031730849e-02 
 7.0940189946717802e-02  7.1868432922650272e-02  7.2808821834800475e-02  7.3761515611132825e-02 
 7.4726675259163114e-02  7.5704463893168789e-02  7.6695046761756355e-02  7.7698591275788279e-02 
 7.8715267036676001e-02  7.9745245865042835e-02  8.0788701829762291e-02  8.1845811277375904e-02 
 8.2916752861896328e-02  8.4001707575000306e-02  8.5100858776616647e-02  8.6214392225914524e-02 
 8.7342496112697163e-02  8.8485361089206446e-02  8.9643180302343528e-02  9.0816149426311138e-02 
 9.2004466695683018e-02  9.3208332938905999e-02  9.4427951612240671e-02  9.5663528834145306e-02 
 9.6915273420111372e-02  9.8183396917953164e-02  9.9468113643560063e-02  1.0076964071711646e-01 
 1.0208819809979554e-01  1.0342400863093328e-01  1.0477729806568879e-01  1.0614829511319750e-01 
 1.0753723147522355e-01  1.0894434188531794e-01  1.1036986414848901e-01  1.1181403918139214e-01 
 1.1327711105304515e-01  1.1475932702607661e-01  1.1626093759851379e-01  1.1778219654611735e-01 
 1.1932336096527049e-01  1.2088469131642766e-01  1.2246645146813458e-01  1.2406890874162162e-01 
 1.2569233395598198e-01  1.2733700147394084e-01  1.2900318924822315e-01  1.3069117886852849e-01 
 1.3240125560912028e-01  1.3413370847703782e-01  1.3588883026093915e-01  1.3766691758058314e-01 
 1.3946827093695882e-01  1.4129319476307084e-01  1.4314199747538928e-01  1.4501499152597289e-01 
 1.4691249345527407e-01  1.4883482394563516e-01  1.5078230787548458e-01  1.5275527437424119e-01 
 1.5475405687793939e-01  1.5677899318557956e-01  1.5883042551621729e-01  1.6090870056679901e-01 
 1.6301416957075482e-01  1.6514718835735756e-01  1.6730811741185900e-01  1.6949732193641251e-01 
 1.7171517191179334e-01  1.7396204215992594e-01  1.7623831240723009e-01  1.7854436734879531e-01 
 1.8088059671339532e-01  1.8324739532935319e-01  1.8564516319126828e-01  1.8807430552761614e-01 
 1.9053523286923355e-01  1.9302836111869778e-01  1.9555411162061728e-01  1.9811291123283836e-01 
 2.0070519239858567e-01  2.0333139321954610e-01  2.0599195752990906e-01  2.0868733497137532e-01 
 2.1141798106914780e-01  2.1418435730891625e-01  2.1698693121484935e-01  2.1982617642860769e-01 
 2.2270257278939001e-01  2.2561660641502740e-01  2.2856876978413823e-01  2.3155956181935841e-01 
 2.3458948797166027e-01  2.3765906030577497e-01  2.4076879758673331e-01  2.4391922536753641e-01 
 2.4711087607797799e-01  2.5034428911462459e-01  2.5362001093197512e-01  2.5693859513481332e-01 
 2.6030060257176801e-01  2.6370660143009800e-01  2.6715716733171685e-01  2.7065288343047472e-01 
 2.7419434051071234e-01  2.7778213708710531e-01  2.8141687950581440e-01  2.8509918204695933e-01 
 2.8882966702843388e-01  2.9260896491107874e-01  2.9643771440523120e-01  3.0031656257866862e-01 
 3.0424616496596485e-01  3.0822718567927504e-01  3.1226029752057566e-01  3.1634618209536686e-01 
 3.2048552992786677e-01  3.2467904057771102e-01  3.2892742275818043e-01  3.3323139445597505e-01 
 3.3759168305255571e-01  3.4200902544707307e-01  3.4648416818090561e-01  3.5101786756382652e-01 
 3.5561088980182221e-01  3.6026401112658268e-01  3.6497801792668683e-01  3.6975370688050352e-01 
 3.7459188509083263e-01  3.7949337022130702e-01  3.8445899063458044e-01  3.8948958553231999e-01 
 3.9458600509703740e-01  3.9974911063576907e-01  4.0497977472563973e-01  4.1027888136133006e-01 
 4.1564732610447391e-01  4.2108601623501024e-01  4.2659587090451584e-01  4.3217782129154364e-01 
 4.3783281075899466e-01  4.4356179501354853e-01  4.4936574226717962e-01  4.5524563340078777e-01 
 4.6120246212996940e-01  4.6723723517295734e-01  4.7335097242075941e-01  4.7954470710952168e-01 
 4.8581948599514913e-01  4.9217636953020633e-01  4.9861643204314143e-01  5.0514076191984714e-01 
 5.1175046178760131e-01  5.1844664870141310e-01  5.2523045433280857e-01  5.3210302516108565e-01 
 5.3906552266707164e-01  5.4611912352941638e-01  5.5326501982345389e-01  5.6050441922266592e-01 
 5.6783854520278132e-01  5.7526863724854671e-01  5.8279595106320203e-01  5.9042175878069780e-01 
 5.9814734918068846e-01  6.0597402790633914e-01  6.1390311768498385e-01  6.2193595855166517e-01 
 6.3007390807560937e-01  6.3831834158965517e-01  6.4667065242268917e-01  6.5513225213512127e-01 
 6.6370457075744227e-01  6.7238905703190244e-01  6.8118717865735190e-01  6.9010042253728598e-01 
 6.9913029503113455e-01  7.0827832220884113e-01  7.1754605010877193e-01  7.2693504499900008e-01 
 7.3644689364200888e-01  7.4608320356285796e-01  7.5584560332085937e-01  7.6573574278480760e-01 
 7.7575529341181315e-01  7.8590594852977647e-01  7.9618942362357348e-01  8.0660745662497069e-01 
 8.1716180820634143e-01  8.2785426207822310e-01  8.3868662529076932e-01  8.4966072853914498e-01 
 8.6077842647291825e-01  8.7204159800950176e-01  8.8345214665169181e-01  8.9501200080936771e-01 
 9.0672311412539575e-01  9.1858746580579953e-01  9.3060706095425161e-01  9.4278393091093970e-01 
 9.5512013359586867e-01  9.6761775385665383e-01  9.8027890382086635e-01  9.9310572325298130e-01 
 1.0061003799160138e+00  1.0192650699378683e+00  1.0326020181824918e+00  1.0461134786258810e+00 
 1.0598017347370090e+00  1.0736690998637384e+00  1.0877179176237808e+00  1.1019505623007759e+00 
 1.1163694392455483e+00  1.1309769852826208e+00  1.1457756691220407e+00  1.1607679917765992e+00 
 1.1759564869845078e+00  1.1913437216376070e+00  1.2069322962151765e+00  1.2227248452234218e+00 
 1.2387240376407156e+00  1.2549325773686515e+00  1.2713532036890236e+00  1.2879886917267627e+00 
 1.3048418529189414e+00  1.3219155354899133e+00  1.3392126249326697e+00  1.3567360444964953e+00 
 1.3744887556810041e+00  1.3924737587366389e+00  1.4106940931717227e+00  1.4291528382661407e+00 
 1.4478531135917478e+00  1.4667980795395823e+00  1.4859909378539806e+00  1.5054349321736782e+00 
 1.5251333485799938e+00  1.5450895161521845e+00  1.5653068075300702e+00  1.5857886394840073e+00 
 1.6065384734923476e+00  1.6275598163264251e+00  1.6488562206432116e+00  1.6704312855857240e+00 
 1.6922886573912883e+00  1.7144320300077631e+00  1.7368651457178228e+00  1.7595917957714158e+00 
 1.7826158210264931e+00  1.8059411125981217e+00  1.8295716125160941e+00  1.8535113143911395e+00 
 1.8777642640898526e+00  1.9023345604184581e+00  1.9272263558155138e+00  1.9524438570536884e+00 
 1.9779913259507134e+00  2.0038730800896314e+00  2.0300934935484958e+00  2.0566569976395894e+00 
 2.0835680816583264e+00  2.1108312936419575e+00  2.1384512411381968e+00  2.1664325919839094e+00 
 2.1947800750939863e+00  2.2234984812605427e+00  2.2525926639625737e+00  2.2820675401862029e+00 
 2.3119280912556648e+00  2.3421793636751618e+00  2.3728264699817334e+00  2.4038745896092886e+00 
 2.4353289697639413e+00  2.4671949263108028e+00  2.4994778446723784e+00  2.5321831807386976e+00 
 2.5653164617894029e+00  2.5988832874278516e+00  2.6328893305274699e+00  2.6673403381904786e+00 
 2.7022421327191690e+00  2.7376006125998869e+00  2.7734217534998882e+00  2.8097116092772434e+00 
 2.8464763130039517e+00  2.8837220780024468e+00  2.9214551988956616e+00  2.9596820526708361e+00 
 2.9984090997572412e+00  3.0376428851180095e+00  3.0773900393562466e+00  3.1176572798356204e+00 
 3.1584514118156179e+00  3.1997793296016268e+00  3.2416480177101232e+00  3.2840645520490481e+00 
 3.3270361011136607e+00  3.3705699271980292e+00  3.4146733876223765e+00  3.4593539359764858e+00 
 3.5046191233793715e+00  3.5504765997554406e+00  3.5969341151273464e+00  3.6439995209257594e+00 
 3.6916807713162809e+00  3.7399859245437117e+00  3.7889231442939191e+00  3.8385007010735159e+00 
 3.8887269736075969e+00  3.9396104502557647e+00  3.9911597304466855e+00  4.0433835261313913e+00 
 4.0962906632556582e+00  4.1498900832515826e+00  4.2041908445487168e+00  4.2592021241049602e+00 
 4.3149332189574903e+00  4.3713935477939829e+00  4.4285926525443928e+00  4.4865401999935610e+00 
 4.5452459834149277e+00  4.6047199242256172e+00  4.6649720736631792e+00  4.7260126144842749e+00 
 4.7878518626855868e+00  4.8505002692472416e+00  4.9139684218990602e+00  4.9782670469098997e+00 
 5.0434070109004336e+00  5.1093993226795966e+00  5.1762551351051576e+00  5.2439857469685389e+00 
 5.3126026049043515e+00  5.3821173053249005e+00  5.4525415963800103e+00  5.5238873799424839e+00 
 5.5961667136195548e+00  5.6693918127906446e+00  5.7435750526717984e+00  5.8187289704071166e+00 
 5.8948662671875729e+00  5.9719998103975342e+00  6.0501426357893910e+00  6.1293079496866207e+00 
 6.2095091312156940e+00  6.2907597345671737e+00  6.3730734912864246e+00  6.4564643125942229e+00 
 6.5409462917378587e+00  6.6265337063728840e+00  6.7132410209760769e+00  6.8010828892899768e+00 
 6.8900741567994039e+00  6.9802298632403721e+00  7.0715652451418514e+00  7.1640957384007677e+00 
 7.2578369808907155e+00  7.3528048151047871e+00  7.4490152908329978e+00  7.5464846678747373e+00 
 7.6452294187867116e+00  7.7452662316668448e+00  7.8466120129746146e+00  7.9492838903882710e+00 
 8.0532992156994823e+00  8.1586755677457656e+00  8.2654307553814341e+00  8.3735828204872860e+00 
 8.4831500410197371e+00  8.5941509340998383e+00  8.7066042591427166e+00  8.8205290210279461e+00 
 8.9359444733114444e+00  9.0528701214793426e+00  9.1713257262444792e+00  9.2913313068859917e+00 
 9.4129071446326353e+00  9.5360737860903537e+00  9.6608520467146981e+00  9.7872630143286994e+00 
 9.9153280526867551e+00  1.0045068805085156e+01  1.0176507198019868e+01  1.0309665444892101e+01 
 1.0444566049762521e+01  1.0581231811154428e+01  1.0719685825906776e+01  1.0859951493077590e+01 
 1.1002052517898472e+01  1.1146012915780826e+01  1.1291857016374538e+01  1.1439609467679727e+01 
 1.1589295240212332e+01  1.1740939631224178e+01  1.1894568268978270e+01  1.2050207117080046e+01 
 1.2207882478865264e+01  1.2367621001845354e+01  1.2529449682210890e+01  1.2693395869394021e+01 
 1.2859487270690613e+01  1.3027751955942751e+01  1.3198218362282756e+01  1.3370915298939021e+01 
 1.3545871952104880e+01  1.3723117889871132e+01  1.3902683067223117e+01  1.4084597831103194e+01 
 1.4268892925539436e+01  1.4455599496841435e+01  1.4644749098864128e+01  1.4836373698340450e+01 
 1.5030505680283792e+01  1.5227177853461166e+01  1.5426423455937924e+01  1.5628276160695119e+01 
 1.5832770081320282e+01  1.6039939777772741e+01  1.6249820262224219e+01  1.6462447004976163e+01 
 1.6677855940454162e+01  1.6896083473281006e+01  1.7117166484429152e+01  1.7341142337453675e+01 
 1.7568048884806828e+01  1.7797924474235163e+01  1.8030807955260432e+01  1.8266738685745203e+01 
 1.8505756538544471e+01  1.8747901908244245e+01  1.8993215717988335e+01  1.9241739426394453e+01 
 1.9493515034560829e+01  1.9748585093164504e+01  2.0006992709652465e+01  2.0268781555526967e+01 
 2.0533995873725985e+01  2.0802680486100552e+01  2.1074880800989671e+01  2.1350642820894404e+01 
 2.1630013150252466e+01  2.1913039003314445e+01  2.2199768212123139e+01  2.2490249234597275e+01 
 2.2784531162721027e+01  2.3082663730840668e+01  2.3384697324069794e+01  2.3690682986804529e+01 
 2.4000672431350150e+01  2.4314718046660595e+01  2.4632872907192304e+01  2.4955190781873949e+01 
 2.5281726143193499e+01  2.5612534176404250e+01  2.5947670788851074e+01  2.6287192619419184e+01 
 2.6631157048106036e+01  2.6979622205718748e+01  2.7332646983698336e+01  2.7690291044072513e+01 
 2.8052614829538708e+01  2.8419679573679037e+01  2.8791547311308904e+01  2.9168280888961046e+01 
 2.9549943975506757e+01  2.9936601072916048e+01  3.0328317527158674e+01  3.0725159539247716e+01 
 3.1127194176427746e+01  3.1534489383509325e+01  3.1947113994351849e+01  3.2365137743496703e+01 
 3.2788631277952305e+01  3.3217666169133999e+01  3.3652314924959533e+01  3.4092651002103153e+01 
 3.4538748818409935e+01  3.4990683765472589e+01  3.5448532221372822e+01  3.5912371563589403e+01 
 3.6382280182075149e+01  3.6858337492505008e+01  3.7340623949697516e+01  3.7829221061211818e+01 
 3.8324211401122668e+01  3.8825678623975641e+01  3.9333707478924971e+01  3.9848383824056164e+01 
 4.0369794640896771e+01  4.0898028049115709e+01  4.1433173321416064e+01  4.1975320898622847e+01 
 4.2524562404966673e+01  4.3080990663569665e+01  4.3644699712131562e+01  4.4215784818823579e+01 
 4.4794342498387671e+01  4.5380470528449010e+01  4.5974267966039406e+01  4.6575835164339438e+01 
 4.7185273789637058e+01  4.7802686838510823e+01  4.8428178655235136e+01  4.9061854949416116e+01 
 4.9703822813855325e+01  5.0354190742650168e+01  5.1013068649528179e+01  5.1680567886424178e+01 
 5.2356801262297743e+01  5.3041883062198693e+01  5.3735929066582166e+01  5.4439056570874406e+01 
 5.5151384405297534e+01  5.5873032954950588e+01  5.6604124180156461e+01  5.7344781637071875e+01 
 5.8095130498570278e+01  5.8855297575394758e+01  5.9625411337590990e+01  6.0405601936217323e+01 
 6.1196001225342258e+01  6.1996742784326464e+01  6.2807961940399693e+01  6.3629795791529638e+01 
 6.4462383229593655e+01  6.5305864963850183e+01  6.6160383544719650e+01  6.7026083387876525e+01 
 6.7903110798654268e+01  6.8791613996773194e+01  6.9691743141388031e+01  7.0603650356467099e+01 
 7.1527489756499676e+01  7.2463417472543711e+01  7.3411591678610293e+01  7.4372172618397485e+01 
 7.5345322632369914e+01  7.6331206185196635e+01  7.7329989893544024e+01  7.8341842554236564e+01 
 7.9366935172781652e+01  8.0405440992272204e+01  8.1457535522662909e+01  8.2523396570434031e+01 
 8.3603204268639232e+01  8.4697141107349239e+01  8.5805391964494092e+01  8.6928144137105761e+01 
 8.8065587372974321e+01  8.9217913902713192e+01  9.0385318472249224e+01  9.1567998375732543e+01 
 9.2766153488882381e+01  9.3979986302763933e+01  9.5209701958012431e+01  9.6455508279499824e+01 
 9.7717615811460206e+01  9.8996237853069758e+01  1.0029159049449747e+02  1.0160389265342208e+02 
 1.0293336611203256e+02  1.0428023555450737e+02  1.0564472860498755e+02  1.0702707586604703e+02 
 1.0842751095766229e+02  1.0984627055669773e+02  1.1128359443690162e+02  1.1273972550943147e+02 
 1.1421490986390346e+02  1.1570939680998538e+02  1.1722343891952735e+02 
  </PP_R>
  <PP_RAB>
 3.0690607721064417e-07  3.1092190252286481e-07  3.1499027437663598e-07  3.1911188033648415e-07 
 3.2328741696362627e-07  3.2751758993369088e-07  3.3180311415597758e-07  3.3614471389428006e-07 
 3.4054312288928772e-07  3.4499908448258923e-07  3.4951335174229943e-07  3.5408668759032978e-07 
 3.5871986493132337e-07  3.6341366678327832e-07  3.6816888640987970e-07  3.7298632745456158e-07 
 3.7786680407632681e-07  3.8281114108734051e-07  3.8782017409232557e-07  3.9289474962978169e-07 
 3.9803572531505273e-07  4.0324396998526565e-07  4.0852036384616564e-07  4.1386579862087398e-07 
 4.1928117770058959e-07  4.2476741629726638e-07  4.3032544159828494e-07  4.3595619292314971e-07 
 4.4166062188223646e-07  4.4743969253761629e-07  4.5329438156598473e-07  4.5922567842372231e-07 
 4.6523458551411554e-07  4.7132211835676342e-07  4.7748930575920594e-07  4.8373718999079237e-07 
 4.9006682695882861e-07  4.9647928638702742e-07  5.0297565199629441e-07  5.0955702168787928e-07 
 5.1622450772892510e-07  5.2297923694044085e-07  5.2982235088774057e-07  5.3675500607336887e-07 
 5.4377837413255250e-07  5.5089364203120947e-07  5.5810201226654993e-07  5.6540470307030038e-07 
 5.7280294861458746e-07  5.8029799922051690e-07  5.8789112156948047e-07  5.9558359891722643e-07 
 6.0337673131073604e-07  6.1127183580793219e-07  6.1927024670026597e-07  6.2737331573821515e-07 
 6.3558241235973335e-07  6.4389892392168789e-07  6.5232425593432762e-07  6.6085983229881435e-07 
 6.6950709554787014e-07  6.7826750708956495e-07  6.8714254745430022e-07  6.9613371654502103e-07 
 7.0524253389070349e-07  7.1447053890315900e-07  7.2381929113719822e-07  7.3329037055419941e-07 
 7.4288537778912714e-07  7.5260593442103947e-07  7.6245368324714380e-07  7.7243028856043064e-07 
 7.8253743643094282e-07  7.9277683499072678e-07  8.0315021472250960e-07  8.1365932875215604e-07 
 8.2430595314494987e-07  8.3509188720575241e-07  8.4601895378309240e-07  8.5708899957722852e-07 
 8.6830389545224800e-07  8.7966553675224630e-07  8.9117584362164465e-07  9.0283676132969975e-07 
 9.1465026059925854e-07  9.2661833793981468e-07  9.3874301598492385e-07  9.5102634383403441e-07 
 9.6347039739878697e-07  9.7607727975385267e-07  9.8884912149235500e-07  1.0017880810859461e-06 
 1.0148963452495935e-06  1.0281761293111394e-06  1.0416296775856984e-06  1.0552592637549480e-06 
 1.0690671912513913e-06  1.0830557936476394e-06  1.0972274350507914e-06  1.1115845105019744e-06 
 1.1261294463811110e-06  1.1408647008169832e-06  1.1557927641026617e-06  1.1709161591163721e-06 
 1.1862374417478669e-06  1.2017592013303780e-06  1.2174840610782160e-06  1.2334146785301060e-06 
 1.2495537459983140e-06  1.2659039910236547e-06  1.2824681768364520e-06  1.2992491028235331e-06 
 1.3162496050013312e-06  1.3334725564951746e-06  1.3509208680248595e-06  1.3685974883965627e-06 
 1.3865054050011998e-06  1.4046476443192989e-06  1.4230272724324851e-06  1.4416473955416549e-06 
 1.4605111604919316e-06  1.4796217553044895e-06  1.4989824097153365e-06  1.5185963957211500e-06 
 1.5384670281322456e-06  1.5585976651327956e-06  1.5789917088483662e-06  1.5996526059208854e-06 
 1.6205838480911330e-06  1.6417889727888544e-06  1.6632715637305955e-06  1.6850352515253523e-06 
 1.7070837142881637e-06  1.7294206782617147e-06  1.7520499184460801e-06  1.7749752592367115e-06 
 1.7982005750707667e-06  1.8217297910818999e-06  1.8455668837636193e-06  1.8697158816413223e-06 
 1.8941808659531276e-06  1.9189659713396141e-06  1.9440753865425801e-06  1.9695133551129597e-06 
 1.9952841761279849e-06  2.0213922049177453e-06  2.0478418538012459e-06  2.0746375928321006e-06 
 2.1017839505539845e-06  2.1292855147659586e-06  2.1571469332978341e-06  2.1853729147956554e-06 
 2.2139682295174759e-06  2.2429377101395431e-06  2.2722862525730330e-06  2.3020188167914687e-06 
 2.3321404276689691e-06  2.3626561758294665e-06  2.3935712185070287e-06  2.4248907804174495e-06 
 2.4566201546412378e-06  2.4887647035181523e-06  2.5213298595534622e-06  2.5543211263360451e-06 
 2.5877440794685123e-06  2.6216043675094885e-06  2.6559077129282468e-06  2.6906599130718069e-06 
 2.7258668411447066e-06  2.7615344472015865e-06  2.7976687591527634e-06  2.8342758837829587e-06 
 2.8713620077833641e-06  2.9089333987972050e-06  2.9469964064789842e-06  2.9855574635675962e-06 
 3.0246230869734665e-06  3.0641998788799304e-06  3.1042945278590200e-06  3.1449138100018356e-06 
 3.1860645900637417e-06  3.2277538226245104e-06  3.2699885532636698e-06  3.3127759197512190e-06 
 3.3561231532539332e-06  3.4000375795574448e-06  3.4445266203043205e-06  3.4895977942483355e-06 
 3.5352587185251573e-06  3.5815171099396679e-06  3.6283807862701148e-06  3.6758576675893402e-06 
 3.7239557776032842e-06  3.7726832450070177e-06  3.8220483048585084e-06  3.8720592999703648e-06 
 3.9227246823197949e-06  3.9740530144769979e-06  4.0260529710522789e-06  4.0787333401620635e-06 
 4.1321030249141160e-06  4.1861710449121836e-06  4.2409465377803326e-06  4.2964387607072302e-06 
 4.3526570920106257e-06  4.4096110327223195e-06  4.4673102081938411e-06  4.5257643697231795e-06 
 4.5849833962027564e-06  4.6449772957889984e-06  4.7057562075937218e-06  4.7673304033976849e-06 
 4.8297102893865283e-06  4.8929064079094553e-06  4.9569294392609129e-06  5.0217902034855744e-06 
 5.0874996622069715e-06  5.1540689204800231e-06  5.2215092286678210e-06  5.2898319843429583e-06 
 5.3590487342137621e-06  5.4291711760757011e-06  5.5002111607883498e-06  5.5721806942782099e-06 
 5.6450919395677290e-06  5.7189572188308998e-06  5.7937890154757250e-06  5.8695999762539451e-06 
 5.9464029133983675e-06  6.0242108067881678e-06  6.1030368061425181e-06  6.1828942332429259e-06 
 6.2637965841846409e-06  6.3457575316575217e-06  6.4287909272567696e-06  6.5129108038238686e-06 
 6.5981313778181747e-06  6.6844670517195190e-06  6.7719324164622828e-06  6.8605422539012834e-06 
 6.9503115393099469e-06  7.0412554439111712e-06  7.1333893374412829e-06  7.2267287907475780e-06 
 7.3212895784198232e-06  7.4170876814562020e-06  7.5141392899641305e-06  7.6124608058964399e-06 
 7.7120688458233412e-06  7.8129802437406541e-06  7.9152120539148138e-06  8.0187815537650500e-06 
 8.1237062467833503e-06  8.2300038654925623e-06  8.3376923744432518e-06  8.4467899732497334e-06 
 8.5573150996658704e-06  8.6692864327010909e-06  8.7827228957771760e-06  8.8976436599263815e-06 
 9.0140681470313652e-06  9.1320160331075503e-06  9.2515072516284133e-06  9.3725619968942860e-06 
 9.4952007274452343e-06  9.6194441695186181e-06  9.7453133205518586e-06  9.8728294527310592e-06 
 1.0002014116586066e-05  1.0132889144632532e-05  1.0265476655061699e-05  1.0399799055478395e-05 
 1.0535879046688003e-05  1.0673739626532908e-05  1.0813404093779229e-05  1.0954896052054345e-05 
 1.1098239413835975e-05  1.1243458404493428e-05  1.1390577566381753e-05  1.1539621762989477e-05 
 1.1690616183140559e-05  1.1843586345251396e-05  1.1998558101643456e-05  1.2155557642912425e-05 
 1.2314611502354445e-05  1.2475746560450331e-05  1.2638990049408424e-05  1.2804369557766880e-05 
 1.2971913035056236e-05  1.3141648796522923e-05  1.3313605527914627e-05  1.3487812290328213e-05 
 1.3664298525121161e-05  1.3843094058887204e-05  1.4024229108497105e-05  1.4207734286205366e-05 
 1.4393640604823778e-05  1.4581979482962658e-05  1.4772782750340680e-05  1.4966082653164170e-05 
 1.5161911859576761e-05  1.5360303465180443e-05  1.5561290998628743e-05  1.5764908427293188e-05 
 1.5971190163003864e-05  1.6180171067865058e-05  1.6391886460147091e-05  1.6606372120255169e-05 
 1.6823664296776338e-05  1.7043799712605612e-05  1.7266815571152222e-05  1.7492749562627032e-05 
 1.7721639870412368e-05  1.7953525177515018e-05  1.8188444673103795e-05  1.8426438059132581e-05 
 1.8667545557050066e-05  1.8911807914597262e-05  1.9159266412693952e-05  1.9409962872415314e-05 
 1.9663939662059688e-05  1.9921239704309029e-05  2.0181906483482876e-05  2.0445984052887321e-05 
 2.0713517042260121e-05  2.0984550665313235e-05  2.1259130727374053e-05  2.1537303633126584e-05 
 2.1819116394454000e-05  2.2104616638383666e-05  2.2393852615136344e-05  2.2686873206280516e-05 
 2.2983727932993505e-05  2.3284466964430661e-05  2.3589141126204090e-05  2.3897801908972289e-05 
 2.4210501477142188e-05  2.4527292677685074e-05  2.4848229049067798e-05  2.5173364830301004e-05 
 2.5502754970105574e-05  2.5836455136199116e-05  2.6174521724703943e-05  2.6517011869678130e-05 
 2.6863983452771351e-05  2.7215495113006972e-05  2.7571606256692222e-05  2.7932377067457925e-05 
 2.8297868516429779e-05  2.8668142372532584e-05  2.9043261212929294e-05  2.9423288433596759e-05 
 2.9808288260039780e-05  3.0198325758145351e-05  3.0593466845178987e-05  3.0993778300924902e-05 
 3.1399327778971827e-05  3.1810183818146843e-05  3.2226415854098443e-05  3.2648094231031367e-05 
 3.3075290213594961e-05  3.3508075998927039e-05  3.3946524728855402e-05  3.4390710502258950e-05 
 3.4840708387590630e-05  3.5296594435564040e-05  3.5758445692006378e-05  3.6226340210879212e-05 
 3.6700357067469882e-05  3.7180576371755356e-05  3.7667079281941028e-05  3.8159948018176641e-05 
 3.8659265876451691e-05  3.9165117242672692e-05  3.9677587606924428e-05  4.0196763577918233e-05 
 4.0722732897628905e-05  4.1255584456123307e-05  4.1795408306583086e-05  4.2342295680523789e-05 
 4.2896339003213255e-05  4.3457631909291705e-05  4.4026269258596229e-05  4.4602347152192197e-05 
 4.5185962948614790e-05  4.5777215280322661e-05  4.6376204070367102e-05  4.6983030549279307e-05 
 4.7597797272178478e-05  4.8220608136104011e-05  4.8851568397574264e-05  4.9490784690375207e-05 
 5.0138365043581639e-05  5.0794418899814584e-05  5.1459057133737231e-05  5.2132392070793029e-05 
 5.2814537506188917e-05  5.3505608724127064e-05  5.4205722517288105e-05  5.4914997206569432e-05 
 5.5633552661081735e-05  5.6361510318406928e-05  5.7098993205121806e-05  5.7846125957589460e-05 
 5.8603034843023325e-05  5.9369847780826552e-05  6.0146694364210725e-05  6.0933705882097404e-05 
 6.1731015341306251e-05  6.2538757489033646e-05  6.3357068835624914e-05  6.4186087677645348e-05 
 6.5025954121252419e-05  6.5876810105874043e-05  6.6738799428196733e-05  6.7612067766467584e-05 
 6.8496762705114238e-05  6.9393033759686972e-05  7.0301032402127290e-05  7.1220912086366760e-05 
 7.2152828274261497e-05  7.3096938461865286e-05  7.4053402206046914e-05  7.5022381151455627e-05 
 7.6004039057839468e-05  7.6998541827721047e-05  7.8006057534435480e-05  7.9026756450535280e-05 
 8.0060811076566453e-05  8.1108396170222072e-05  8.2169688775876265e-05  8.3244868254505393e-05 
 8.4334116314000392e-05  8.5437617039875794e-05  8.6555556926380732e-05  8.7688124908016823e-05 
 8.8835512391468663e-05  8.9997913287951720e-05  9.1175524045984159e-05  9.2368543684586942e-05 
 9.3577173826918478e-05  9.4801618734349511e-05  9.6042085340983656e-05  9.7298783288629896e-05 
 9.8571924962232433e-05  9.9861725525764384e-05  1.0116840295859067e-04  1.0249217809230752e-04 
 1.0383327464806332e-04  1.0519191927436785e-04  1.0656834158539669e-04  1.0796277419979643e-04 
 1.0937545277999777e-04  1.1080661607204311e-04  1.1225650594593518e-04  1.1372536743651336e-04 
 1.1521344878486568e-04  1.1672100148028178e-04  1.1824828030275536e-04  1.1979554336604243e-04 
 1.2136305216128336e-04  1.2295107160119535e-04  1.2455987006484336e-04  1.2618971944299701e-04 
 1.2784089518408012e-04  1.2951367634072308e-04  1.3120834561692268e-04  1.3292518941582010e-04 
 1.3466449788810360e-04  1.3642656498104473e-04  1.3821168848817607e-04  1.4002017009961910e-04 
 1.4185231545307063e-04  1.4370843418545589e-04  1.4558883998525842e-04  1.4749385064553397e-04 
 1.4942378811761827e-04  1.5137897856553752e-04  1.5335975242113095e-04  1.5536644443989460e-04 
 1.5739939375755576e-04  1.5945894394738788e-04  1.6154544307827470e-04  1.6365924377353548e-04 
 1.6580070327051888e-04  1.6797018348097665e-04  1.7016805105222804e-04  1.7239467742912368e-04 
 1.7465043891682082e-04  1.7693571674437983e-04  1.7925089712919295e-04  1.8159637134225525e-04 
 1.8397253577429127e-04  1.8637979200274558e-04  1.8881854685965030e-04  1.9128921250038077e-04 
 1.9379220647331057e-04  1.9632795179037852e-04  1.9889687699857863e-04  2.0149941625238548e-04 
 2.0413600938712692e-04  2.0680710199331816e-04  2.0951314549196723e-04  2.1225459721086601e-04 
 2.1503192046187989e-04  2.1784558461924861e-04  2.2069606519891155e-04  2.2358384393887109e-04 
 2.2650940888060769e-04  2.2947325445155916e-04  2.3247588154868155e-04  2.3551779762310071e-04 
 2.3859951676587332e-04  2.4172155979486931e-04  2.4488445434279132e-04  2.4808873494634601e-04 
 2.5133494313658177e-04  2.5462362753040930e-04  2.5795534392331813e-04  2.6133065538330865e-04 
 2.6475013234605123e-04  2.6821435271129124e-04  2.7172390194051552e-04  2.7527937315589688e-04 
 2.7888136724053321e-04  2.8253049293999776e-04  2.8622736696521940e-04  2.8997261409670664e-04 
 2.9376686729013911e-04  2.9761076778333725e-04  3.0150496520463320e-04  3.0545011768265959e-04 
 3.0944689195757530e-04  3.1349596349374535e-04  3.1759801659389655e-04  3.2175374451476644e-04 
 3.2596384958426402e-04  3.3022904332016687e-04  3.3455004655036786e-04  3.3892758953469742e-04 
 3.4336241208833871e-04  3.4785526370685870e-04  3.5240690369287437e-04  3.5701810128437663e-04 
 3.6168963578473389e-04  3.6642229669439473e-04  3.7121688384431751e-04  3.7607420753114207e-04 
 3.8099508865413234e-04  3.8598035885391036e-04  3.9103086065300535e-04  3.9614744759824185e-04 
 4.0133098440499175e-04  4.0658234710331306e-04  4.1190242318599971e-04  4.1729211175857244e-04 
 4.2275232369122804e-04  4.2828398177277880e-04  4.3388802086660651e-04  4.3956538806865609e-04 
 4.4531704286749745e-04  4.5114395730648103e-04  4.5704711614801615e-04  4.6302751703999624e-04 
 4.6908617068440624e-04  4.7522410100813252e-04  4.8144234533600838e-04  4.8774195456612545e-04 
 4.9412399334743725e-04  5.0058954025968764e-04  5.0713968799569349e-04  5.1377554354601240e-04 
 5.2049822838602579e-04  5.2730887866547262e-04  5.3420864540045996e-04  5.4119869466798828e-04 
 5.4828020780302062e-04  5.5545438159813171e-04  5.6272242850576807e-04  5.7008557684315572e-04 
 5.7754507099988907e-04  5.8510217164823414e-04  5.9275815595618761e-04  6.0051431780331927e-04 
 6.0837196799944191e-04  6.1633243450614052e-04  6.2439706266120170e-04  6.3256721540597789e-04 
 6.4084427351572884e-04  6.4922963583297587e-04  6.5772471950390756e-04  6.6633096021788385e-04 
 6.7504981245006907e-04  6.8388274970724216e-04  6.9283126477682284e-04  7.0189686997915635e-04 
 7.1108109742309879e-04  7.2038549926494756e-04  7.2981164797075986e-04  7.3936113658210078e-04 
 7.4903557898527531e-04  7.5883661018407550e-04  7.6876588657610119e-04  7.7882508623269549e-04 
 7.8901590918254219e-04  7.9934007769897491e-04  8.0979933659104544e-04  8.2039545349840129e-04 
 8.3113021919001837e-04  8.4200544786684880e-04  8.5302297746842309e-04  8.6418466998346686e-04 
 8.7549241176458094e-04  8.8694811384703979e-04  8.9855371227176095e-04  9.1031116841250098e-04 
 9.2222246930733138e-04  9.3428962799445346e-04  9.4651468385240610e-04  9.5889970294472666e-04 
 9.7144677836912040e-04  9.8415803061119430e-04  9.9703560790283252e-04  1.0100816865852476e-03 
 1.0232984714767879e-03  1.0366881962455567e-03  1.0502531237869097e-03  1.0639955466058867e-03 
 1.0779177872046522e-03  1.0920221984750040e-03  1.1063111640960163e-03  1.1207870989368887e-03 
 1.1354524494650632e-03  1.1503096941596837e-03  1.1653613439304659e-03  1.1806099425420448e-03 
 1.1960580670438792e-03  1.2117083282057780e-03  1.2275633709591287e-03  1.2436258748438889e-03 
 1.2598985544614479e-03  1.2763841599333912e-03  1.2930854773662809e-03  1.3100053293225139e-03 
 1.3271465752973419e-03  1.3445121122021325e-03  1.3621048748539543e-03  1.3799278364715673e-03 
 1.3979840091779062e-03  1.4162764445091332e-03  1.4348082339303572e-03  1.4535825093580977e-03 
 1.4726024436895870e-03  1.4918712513389959e-03  1.5113921887806791e-03  1.5311685550995254e-03 
 1.5512036925485163e-03  1.5715009871135595e-03  1.5920638690857494e-03  1.6128958136410810e-03 
 1.6340003414277657e-03  1.6553810191612308e-03  1.6770414602269009e-03  1.6989853252908703e-03 
 1.7212163229185634e-03  1.7437382102014915e-03  1.7665547933922087e-03  1.7896699285475806e-03 
 1.8130875221804646e-03  1.8368115319199209e-03  1.8608459671800605e-03  1.8851948898376473e-03 
 1.9098624149185629e-03  1.9348527112932571e-03  1.9601700023812994e-03  1.9858185668651354e-03 
 2.0118027394132121e-03  2.0381269114125343e-03  2.0647955317108246e-03  2.0918131073683873e-03 
 2.1191842044198128e-03  2.1469134486456483e-03  2.1750055263541667e-03  2.2034651851733627e-03 
 2.2322972348533133e-03  2.2615065480790374e-03  2.2910980612939912e-03  2.3210767755343390e-03 
 2.3514477572741392e-03  2.3822161392815914e-03  2.4133871214864874e-03  2.4449659718590098e-03 
 2.4769580273000360e-03  2.5093686945430712e-03  2.5422034510680248e-03  2.5754678460268984e-03 
 2.6091675011816135e-03  2.6433081118540994e-03  2.6778954478888176e-03  2.7129353546278788e-03 
 2.7484337538989214e-03  2.7843966450159111e-03  2.8208301057930413e-03  2.8577402935719000e-03 
 2.8951334462620701e-03  2.9330158833953562e-03  2.9713940071937968e-03  3.0102743036516592e-03 
 3.0496633436315835e-03  3.0895677839750746e-03  3.1299943686275327e-03  3.1709499297779731e-03 
 3.2124413890137139e-03  3.2544757584901194e-03  3.2970601421156765e-03  3.3402017367525731e-03 
 3.3839078334329839e-03  3.4281858185912740e-03  3.4730431753123188e-03  3.5184874845961712e-03 
 3.5645264266392601e-03  3.6111677821323686e-03  3.6584194335755869e-03  3.7062893666104713e-03 
 3.7547856713696401e-03  3.8039165438440233e-03  3.8536902872680053e-03  3.9041153135226919e-03 
 3.9552001445575429e-03  4.0069534138305754e-03  4.0593838677674835e-03  4.1125003672397688e-03 
 4.1663118890622680e-03  4.2208275275102429e-03  4.2760564958563450e-03  4.3320081279276754e-03 
 4.3886918796832240e-03  4.4461173308119493e-03  4.5042941863517724e-03  4.5632322783297442e-03 
 4.6229415674236881e-03  4.6834321446455746e-03  4.7447142330469287e-03  4.8067981894465454e-03 
 4.8696945061808238e-03  4.9334138128769908e-03  4.9979668782495455e-03  5.0633646119201594e-03 
 5.1296180662614857e-03  5.1967384382649974e-03  5.2647370714333161e-03  5.3336254576972905e-03 
 5.4034152393581609e-03  5.4741182110551326e-03  5.5457463217587055e-03  5.6183116767900667e-03 
 5.6918265398669303e-03  5.7663033351761303e-03  5.8417546494733347e-03  5.9181932342102410e-03 
 5.9956320076896023e-03  6.0740840572484451e-03  6.1535626414698725e-03  6.2340811924237816e-03 
 6.3156533179369381e-03  6.3982928038926823e-03  6.4820136165608380e-03  6.5668299049580128e-03 
 6.6527560032388165e-03  6.7398064331183703e-03  6.8279959063265111e-03  6.9173393270941129e-03 
 7.0078517946719314e-03  7.0995486058824126e-03  7.1924452577049004e-03  7.2865574498946562e-03 
 7.3819010876361568e-03  7.4784922842311072e-03  7.5763473638216262e-03  7.6754828641490708e-03 
 7.7759155393489496e-03  7.8776623627824088e-03  7.9807405299047902e-03  8.0851674611716468e-03 
 8.1909608049829212e-03  8.2981384406655163e-03  8.4067184814949590e-03  8.5167192777565754e-03 
 8.6281594198467492e-03  8.7410577414147317e-03  8.8554333225455747e-03  8.9713054929847179e-03 
 9.0886938354047490e-03  9.2076181887149351e-03  9.3280986514140338e-03  9.4501555849869998e-03 
 9.5738096173461143e-03  9.6990816463171526e-03  9.8259928431711722e-03  9.9545646562024977e-03 
 1.0084818814353571e-02  1.0216777330887094e-02  1.0350462507106455e-02  1.0485896936124619e-02 
 1.0623103506682437e-02  1.0762105407016900e-02  1.0902926128780001e-02  1.1045589471008884e-02 
 1.1190119544147937e-02  1.1336540774123523e-02  1.1484877906471992e-02  1.1635156010521780e-02 
 1.1787400483630145e-02  1.1941637055475393e-02  1.2097891792405271e-02  1.2256191101842215e-02 
 1.2416561736746292e-02  1.2579030800136498e-02  1.2743625749671262e-02  1.2910374402288757e-02 
 1.3079304938908179e-02  1.3250445909192287e-02  1.3423826236372392e-02  1.3599475222136453e-02 
 1.3777422551581117e-02  1.3957698298228599e-02  1.4140332929109149e-02  1.4325357309910086e-02 
 1.4512802710192127e-02  1.4702700808674070e-02  1.4895083698586527e-02  1.5089983893095788e-02 
 1.5287434330798601e-02  1.5487468381288890e-02  1.5690119850797293e-02  1.5895422987904483e-02 
 1.6103412489329300e-02  1.6314123505792470e-02  1.6527591647957307e-02  1.6743852992447916e-02 
 1.6962944087946238e-02  1.7184901961368872e-02  1.7409764124124705e-02  1.7637568578454440e-02 
 1.7868353823853052e-02  1.8102158863576304e-02  1.8339023211232396e-02  1.8578986897459827e-02 
 1.8822090476692720e-02  1.9068375034014567e-02  1.9317882192101746e-02  1.9570654118257817e-02 
 1.9826733531539919e-02  2.0086163709978396e-02  2.0348988497890911e-02  2.0615252313292094e-02 
 2.0885000155400516e-02  2.1158277612243526e-02  2.1435130868361751e-02  2.1715606712614410e-02 
 2.1999752546086746e-02  2.2287616390100920e-02  2.2579246894331696e-02  2.2874693345028403e-02 
 2.3174005673344409e-02  2.3477234463775580e-02  2.3784430962709224e-02  2.4095647087084813e-02 
 2.4410935433168083e-02  2.4730349285439955e-02  2.5053942625601677e-02  2.5381770141697946e-02 
 2.5713887237359272e-02  2.6050350041165207e-02  2.6391215416130445e-02  2.6736540969314663e-02 
 2.7086385061558242e-02  2.7440806817345446e-02  2.7799866134796559e-02  2.8163623695790820e-02 
 2.8532140976221820e-02  2.8905480256387055e-02  2.9283704631513457e-02  2.9666878022420635e-02 
 3.0055065186323639e-02  3.0448331727777101e-02  3.0846744109762531e-02  3.1250369664920750e-02 
 3.1659276606931235e-02  3.2073534042040434e-02  3.2493211980740920e-02  3.2918381349603065e-02 
 3.3349114003262237e-02  3.3785482736562067e-02  3.4227561296857105e-02  3.4675424396476216e-02 
 3.5129147725349197e-02  3.5588807963798527e-02  3.6054482795498548e-02  3.6526250920604166e-02 
 3.7004192069051367e-02  3.7488387014031808e-02  3.7978917585643597e-02  3.8475866684720868e-02 
 3.8979318296844132e-02  3.9489357506534123e-02  4.0006070511631200e-02  4.0529544637863062e-02 
 4.1059868353603028e-02  4.1597131284821148e-02  4.2141424230231601e-02  4.2692839176637624e-02 
 4.3251469314477584e-02  4.3817409053574376e-02  4.4390754039090895e-02  4.4971601167694310e-02 
 4.5560048603931827e-02  4.6156195796820725e-02  4.6760143496655499e-02  4.7371993772034868e-02 
 4.7991850027111649e-02  4.8619817019068250e-02  4.9256000875820945e-02  4.9900509113955702e-02 
 5.0553450656898757e-02  5.1214935853324942e-02  5.1885076495806912e-02  5.2563985839708081e-02 
 5.3251778622323553e-02  5.3948571082270573e-02  5.4654480979133314e-02  5.5369627613364482e-02 
 5.6094131846447369e-02  5.6828116121321777e-02  5.7571704483077107e-02  5.8325022599916287e-02 
 5.9088197784394059e-02  5.9861359014933023e-02  6.0644636957621324e-02  6.1438163988295567e-02 
 6.2242074214912624e-02  6.3056503500214134e-02  6.3881589484687779e-02  6.4717471609828700e-02 
 6.5564291141705630e-02  6.6422191194834751e-02  6.7291316756367042e-02  6.8171814710591000e-02 
 6.9063833863756571e-02  6.9967524969223704e-02  7.0883040752940135e-02  7.1810535939252282e-02 
 7.2750167277054203e-02  7.3702093566278382e-02  7.4666475684733377e-02  7.5643476615292513e-02 
 7.6633261473438449e-02  7.7635997535167936e-02  7.8651854265262083e-02  7.9681003345926066e-02 
 8.0723618705804023e-02  8.1779876549373257e-02  8.2849955386723517e-02  8.3934036063724890e-02 
 8.5032301792592163e-02  8.6144938182847491e-02  8.7272133272688998e-02  8.8414077560769688e-02 
 8.9570964038392251e-02  9.0742988222124829e-02  9.1930348186844063e-02  9.3133244599209977e-02 
 9.4351880751579298e-02  9.5586462596362234e-02  9.6837198780828970e-02  9.8104300682371581e-02 
 9.9387982444227252e-02  1.0068846101166898e-01  1.0200595616866999e-01  1.0334069057504752e-01 
 1.0469288980409326e-01  1.0606278238069494e-01  1.0745059981995864e-01  1.0885657666633471e-01 
 1.1028095053325658e-01  1.1172396214329790e-01  1.1318585536885531e-01  1.1466687727336329e-01 
 1.1616727815304877e-01  1.1768731157923144e-01  1.1922723444117822e-01  1.2078730698951788e-01 
 1.2236779288022426e-01  1.2396895921917460e-01  1.2559107660729107e-01  1.2723441918627310e-01 
 1.2889926468492782e-01  1.3058589446610702e-01  1.3229459357425827e-01  1.3402565078359729e-01 
 1.3577935864691276e-01  1.3755601354500754e-01  1.3935591573678807e-01  1.4117936941000866e-01 
 1.4302668273268013e-01  1.4489816790515073e-01  1.4679414121286899e-01  1.4871492307983644e-01 
 1.5066083812276029e-01  1.5263221520591430e-01  1.5462938749671751e-01  1.5665269252204059e-01 
 1.5870247222524841e-01  1.6077907302398958e-01  1.6288284586874158e-01  1.6501414630212227e-01 
 1.6717333451897795e-01  1.6936077542725575e-01  1.7157683870967583e-01  1.7382189888620728e-01 
 1.7609633537736344e-01  1.7840053256832469e-01  1.8073487987390052e-01  1.8309977180434150e-01 
 1.8549560803201268e-01  1.8792279345893864e-01  1.9038173828523366e-01  1.9287285807842586e-01 
 1.9539657384368928e-01  1.9795331209499514e-01  2.0054350492719300e-01  2.0316759008903654e-01 
 2.0582601105716367e-01  2.0851921711104562e-01  2.1124766340891485e-01  2.1401181106469011e-01 
 2.1681212722590409e-01  2.1964908515265308e-01  2.2252316429757896e-01  2.2543485038689776e-01 
 2.2838463550248875e-01  2.3137301816505712e-01  2.3440050341838561e-01  2.3746760291468763e-01 
 2.4057483500107812e-01  2.4372272480717516e-01  2.4691180433384835e-01  2.5014261254312786e-01 
 2.5341569544929077e-01  2.5673160621113855e-01  2.6009090522548206e-01  2.6349416022185057e-01 
 2.6694194635843776e-01  2.7043484631930714e-01  2.7397345041286569e-01  2.7755835667162726e-01 
 2.8119017095328203e-01  2.8486950704308778e-01  2.8859698675760082e-01  2.9237324004976456e-01 
 2.9619890511537333e-01  3.0007462850092870e-01  3.0400106521290732e-01  3.0797887882845887e-01 
 3.1200874160755193e-01  3.1609133460658773e-01  3.2022734779349993e-01  3.2441748016436134e-01 
 3.2866243986151544e-01  3.3296294429325524e-01  3.3731972025506396e-01  3.4173350405244934e-01 
 3.4620504162537846e-01  3.5073508867434372e-01  3.5532441078807836e-01  3.5997378357294263e-01 
 3.6468399278400321e-01  3.6945583445782748e-01  3.7429011504701570e-01  3.7918765155649359e-01 
 3.8414927168158780e-01  3.8917581394790862e-01  3.9426812785306276e-01  3.9942707401022032e-01 
 4.0465352429356066e-01  4.0994836198562118e-01  4.1531248192657400e-01  4.2074679066545712e-01 
 4.2625220661337992e-01  4.3182966019874197e-01  4.3748009402447391e-01  4.4320446302734096e-01 
 4.4900373463932913e-01  4.5487888895114365e-01  4.6083091887784666e-01  4.6686083032666220e-01 
 4.7296964236697692e-01  4.7915838740256506e-01  4.8542811134606767e-01  4.9177987379575361e-01 
 4.9821474821459466e-01  5.0473382211168327e-01  5.1133819722602458e-01  5.1802898971273015e-01 
 5.2480733033165805e-01  5.3167436463850415e-01  5.3863125317840876e-01  5.4567917168209701e-01 
 5.5281931126456674e-01  5.6005287862640563e-01  5.6738109625771027e-01  5.7480520264470647e-01 
 5.8232645247903969e-01  5.8994611686983711e-01  5.9766548355851223e-01  6.0548585713641268e-01 
 6.1340855926528171e-01  6.2143492890064067e-01  6.2956632251805678e-01  6.3780411434240947e-01 
 6.4614969658011923e-01  6.5460447965445212e-01  6.6316989244386626e-01  6.7184738252351428e-01 
 6.8063841640987066e-01  6.8954447980858302e-01  6.9856707786556815e-01  7.0770773542136722e-01 
 7.1696799726886795e-01  7.2634942841435757e-01  7.3585361434203400e-01  7.4548216128193434e-01 
 7.5523669648141356e-01  7.6511886848013178e-01  7.7513034738868281e-01  7.8527282517082519e-01 
 7.9554801592944935e-01  8.0595765619624404e-01  8.1650350522519599e-01  8.2718734528988525e-01 
 8.3801098198471746e-01  8.4897624453005238e-01  8.6008498608135542e-01  8.7133908404239480e-01 
 8.8274044038250543e-01  8.9429098195805146e-01  9.0599266083804431e-01  9.1784745463407225e-01 
 9.2985736683449571e-01  9.4202442714306822e-01  9.5435069182193377e-01  9.6683824403916729e-01 
 9.7948919422080882e-01  9.9230568040755618e-01  1.0052898686160723e+00  1.0184439532050753e+00 
 1.0317701572461615e+00  1.0452707328995385e+00  1.0589479617946178e+00  1.0728041554156424e+00 
 1.0868416554923099e+00  1.1010628343955400e+00  1.1154700955384231e+00  1.1300658737823748e+00 
 1.1448526358486661e+00  1.1598328807352714e+00  1.1750091401392400e+00  1.1903839788845230e+00 
 1.2059599953554709e+00  1.2217398219359310e+00  1.2377261254541616e+00  1.2539216076334976e+00 
 1.2703290055489826e+00  1.2869510920899068e+00  1.3037906764284670e+00  1.3208506044944870e+00 
 1.3381337594564231e+00  1.3556430622085958e+00  1.3733814718648381e+00  1.3913519862586112e+00 
 1.4095576424496097e+00  1.4280015172370704e+00  1.4466867276797211e+00  1.4656164316226090e+00 
 1.4847938282307449e+00  1.5042221585298099e+00  1.5239047059538555e+00 
  </PP_RAB>
</PP_MESH>


<PP_LOCAL>
9.3827131317706483e+02 9.3827131301822476e+02 9.3827131285548296e+02 9.3827131268841867e+02 
9.3827131251676485e+02 9.3827131234089779e+02 9.3827131215996360e+02 9.3827131197458868e+02 
9.3827131178427658e+02 9.3827131158907230e+02 9.3827131138850598e+02 9.3827131118275452e+02 
9.3827131097158417e+02 9.3827131075482453e+02 9.3827131053248877e+02 9.3827131030420321e+02 
9.3827131006983575e+02 9.3827130982929964e+02 9.3827130958243424e+02 9.3827130932907755e+02 
9.3827130906908405e+02 9.3827130880241054e+02 9.3827130852836206e+02 9.3827130824730489e+02 
9.3827130795880714e+02 9.3827130766270136e+02 9.3827130735875710e+02 9.3827130704697800e+02 
9.3827130672680880e+02 9.3827130639823633e+02 9.3827130606105277e+02 9.3827130571486111e+02 
9.3827130535966160e+02 9.3827130499500993e+02 9.3827130462086677e+02 9.3827130423685571e+02 
9.3827130384288625e+02 9.3827130343824012e+02 9.3827130302311275e+02 9.3827130259686930e+02 
9.3827130215965303e+02 9.3827130171070780e+02 9.3827130125005044e+02 9.3827130077711024e+02 
9.3827130029194575e+02 9.3827129979386734e+02 9.3827129928266800e+02 9.3827129875797959e+02 
9.3827129821950973e+02 9.3827129766696294e+02 9.3827129709968108e+02 9.3827129651750408e+02 
9.3827129591998323e+02 9.3827129530689854e+02 9.3827129467757754e+02 9.3827129403154959e+02 
9.3827129336861321e+02 9.3827129268814224e+02 9.3827129198976286e+02 9.3827129127297928e+02 
9.3827129053734518e+02 9.3827128978240717e+02 9.3827128900755929e+02 9.3827128821216286e+02 
9.3827128739596890e+02 9.3827128655820468e+02 9.3827128569838123e+02 9.3827128481596196e+02 
9.3827128391017663e+02 9.3827128298059063e+02 9.3827128202653046e+02 9.3827128104740450e+02 
9.3827128004235169e+02 9.3827127901091501e+02 9.3827127795223805e+02 9.3827127686569725e+02 
9.3827127575054772e+02 9.3827127460605902e+02 9.3827127343143457e+02 9.3827127222581839e+02 
9.3827127098853759e+02 9.3827126971850760e+02 9.3827126841511381e+02 9.3827126707741479e+02 
9.3827126570445148e+02 9.3827126429526550e+02 9.3827126284899794e+02 9.3827126136468314e+02 
9.3827125984124018e+02 9.3827125827764223e+02 9.3827125667288828e+02 9.3827125502579281e+02 
9.3827125333537549e+02 9.3827125160042601e+02 9.3827124981976465e+02 9.3827124799219098e+02 
9.3827124611648503e+02 9.3827124419137874e+02 9.3827124221559177e+02 9.3827124018766392e+02 
9.3827123810636340e+02 9.3827123597026491e+02 9.3827123377791213e+02 9.3827123152778745e+02 
9.3827122921843295e+02 9.3827122684812923e+02 9.3827122441550409e+02 9.3827122191873707e+02 
9.3827121935623200e+02 9.3827121672618273e+02 9.3827121402685157e+02 9.3827121125644908e+02 
9.3827120841305873e+02 9.3827120549479105e+02 9.3827120249965844e+02 9.3827119942561228e+02 
9.3827119627059483e+02 9.3827119303246991e+02 9.3827118970901654e+02 9.3827118629803817e+02 
9.3827118279723743e+02 9.3827117920415924e+02 9.3827117551650281e+02 9.3827117173168313e+02 
9.3827116784715042e+02 9.3827116386024170e+02 9.3827115976843277e+02 9.3827115556877538e+02 
9.3827115125843943e+02 9.3827114683464004e+02 9.3827114229427866e+02 9.3827113763431862e+02 
9.3827113285160760e+02 9.3827112794292339e+02 9.3827112290491471e+02 9.3827111773416937e+02 
9.3827111242728677e+02 9.3827110698059039e+02 9.3827110139039985e+02 9.3827109565294211e+02 
9.3827108976438205e+02 9.3827108372067198e+02 9.3827107751780829e+02 9.3827107115150125e+02 
9.3827106461753863e+02 9.3827105791141514e+02 9.3827105102864311e+02 9.3827104396460334e+02 
9.3827103671445252e+02 9.3827102927331498e+02 9.3827102163616246e+02 9.3827101379784995e+02 
9.3827100575307941e+02 9.3827099749636352e+02 9.3827098902215403e+02 9.3827098032470337e+02 
9.3827097139815544e+02 9.3827096223644480e+02 9.3827095283342499e+02 9.3827094318270656e+02 
9.3827093327775378e+02 9.3827092311189290e+02 9.3827091267826506e+02 9.3827090196976565e+02 
9.3827089097915461e+02 9.3827087969907734e+02 9.3827086812182688e+02 9.3827085623960500e+02 
9.3827084404440006e+02 9.3827083152794012e+02 9.3827081868176469e+02 9.3827080549720222e+02 
9.3827079196531452e+02 9.3827077807695457e+02 9.3827076382276437e+02 9.3827074919306290e+02 
9.3827073417800113e+02 9.3827071876740365e+02 9.3827070295085150e+02 9.3827068671766176e+02 
9.3827067005684535e+02 9.3827065295712669e+02 9.3827063540696861e+02 9.3827061739450392e+02 
9.3827059890754276e+02 9.3827057993358176e+02 9.3827056045978554e+02 9.3827054047302920e+02 
9.3827051995974239e+02 9.3827049890609999e+02 9.3827047729783612e+02 9.3827045512036523e+02 
9.3827043235866688e+02 9.3827040899738802e+02 9.3827038502066944e+02 9.3827036041237125e+02 
9.3827033515581650e+02 9.3827030923392067e+02 9.3827028262917406e+02 9.3827025532359028e+02 
9.3827022729868349e+02 9.3827019853553236e+02 9.3827016901465970e+02 9.3827013871613690e+02 
9.3827010761945530e+02 9.3827007570359353e+02 9.3827004294696872e+02 9.3827000932746125e+02 
9.3826997482227910e+02 9.3826993940812827e+02 9.3826990306105790e+02 9.3826986575649107e+02 
9.3826982746921226e+02 9.3826978817331417e+02 9.3826974784223125e+02 9.3826970644869277e+02 
9.3826966396471482e+02 9.3826962036157772e+02 9.3826957560977587e+02 9.3826952967905947e+02 
9.3826948253837702e+02 9.3826943415583457e+02 9.3826938449873535e+02 9.3826933353348556e+02 
9.3826928122563606e+02 9.3826922753979795e+02 9.3826917243969126e+02 9.3826911588804217e+02 
9.3826905784660846e+02 9.3826899827614625e+02 9.3826893713638492e+02 9.3826887438595759e+02 
9.3826880998244224e+02 9.3826874388228816e+02 9.3826867604079916e+02 9.3826860641209873e+02 
9.3826853494909108e+02 9.3826846160346906e+02 9.3826838632561999e+02 9.3826830906464704e+02 
9.3826822976828555e+02 9.3826814838293012e+02 9.3826806485353654e+02 9.3826797912362838e+02 
9.3826789113522659e+02 9.3826780082881703e+02 9.3826770814333156e+02 9.3826761301610497e+02 
9.3826751538280689e+02 9.3826741517739765e+02 9.3826731233211331e+02 9.3826720677740980e+02 
9.3826709844189020e+02 9.3826698725230892e+02 9.3826687313346349e+02 9.3826675600818555e+02 
9.3826663579723845e+02 9.3826651241935838e+02 9.3826638579107794e+02 9.3826625582677480e+02 
9.3826612243855266e+02 9.3826598553620033e+02 9.3826584502712637e+02 9.3826570081630496e+02 
9.3826555280621210e+02 9.3826540089674359e+02 9.3826524498516108e+02 9.3826508496600570e+02 
9.3826492073106260e+02 9.3826475216926190e+02 9.3826457916658489e+02 9.3826440160604727e+02 
9.3826421936753309e+02 9.3826403232779865e+02 9.3826384036034028e+02 9.3826364333531785e+02 
9.3826344111947628e+02 9.3826323357603724e+02 9.3826302056463908e+02 9.3826280194120397e+02 
9.3826257755786241e+02 9.3826234726284065e+02 9.3826211090037475e+02 9.3826186831060124e+02 
9.3826161932942045e+02 9.3826136378843989e+02 9.3826110151481009e+02 9.3826083233112377e+02 
9.3826055605530485e+02 9.3826027250048367e+02 9.3825998147485279e+02 9.3825968278156301e+02 
9.3825937621857315e+02 9.3825906157851159e+02 9.3825873864854987e+02 9.3825840721024190e+02 
9.3825806703938986e+02 9.3825771790589317e+02 9.3825735957357415e+02 9.3825699180004290e+02 
9.3825661433650362e+02 9.3825622692763159e+02 9.3825582931134568e+02 9.3825542121866260e+02 
9.3825500237353401e+02 9.3825457249259716e+02 9.3825413128505068e+02 9.3825367845241988e+02 
9.3825321368836057e+02 9.3825273667845363e+02 9.3825224709999611e+02 9.3825174462178200e+02 
9.3825122890386604e+02 9.3825069959735401e+02 9.3825015634414945e+02 9.3824959877671267e+02 
9.3824902651782952e+02 9.3824843918033002e+02 9.3824783636685004e+02 9.3824721766953871e+02 
9.3824658266980293e+02 9.3824593093802014e+02 9.3824526203323092e+02 9.3824457550285967e+02 
9.3824387088240496e+02 9.3824314769511477e+02 9.3824240545166788e+02 9.3824164364984927e+02 
9.3824086177420543e+02 9.3824005929568978e+02 9.3823923567132135e+02 9.3823839034378693e+02 
9.3823752274109791e+02 9.3823663227618260e+02 9.3823571834648658e+02 9.3823478033358060e+02 
9.3823381760272639e+02 9.3823282950245186e+02 9.3823181536411244e+02 9.3823077450143421e+02 
9.3822970621005231e+02 9.3822860976703316e+02 9.3822748443038165e+02 9.3822632943854376e+02 
9.3822514400988246e+02 9.3822392734215680e+02 9.3822267861197713e+02 9.3822139697424063e+02 
9.3822008156157028e+02 9.3821873148370446e+02 9.3821734582692818e+02 9.3821592365343088e+02 
9.3821446400066145e+02 9.3821296588070959e+02 9.3821142827960091e+02 9.3820985015663496e+02 
9.3820823044367216e+02 9.3820656804439852e+02 9.3820486183360504e+02 9.3820311065640317e+02 
9.3820131332746064e+02 9.3819946863018367e+02 9.3819757531589971e+02 9.3819563210301385e+02 
9.3819363767613049e+02 9.3819159068517206e+02 9.3818948974445834e+02 9.3818733343177075e+02 
9.3818512028738405e+02 9.3818284881307568e+02 9.3818051747112293e+02 9.3817812468324678e+02 
9.3817566882954407e+02 9.3817314824739879e+02 9.3817056123034092e+02 9.3816790602690844e+02 
9.3816518083943527e+02 9.3816238382285871e+02 9.3815951308344972e+02 9.3815656667753888e+02 
9.3815354261019263e+02 9.3815043883386397e+02 9.3814725324701078e+02 9.3814398369265461e+02 
9.3814062795693656e+02 9.3813718376760482e+02 9.3813364879247570e+02 9.3813002063785507e+02 
9.3812629684691876e+02 9.3812247489803701e+02 9.3811855220306950e+02 9.3811452610561525e+02 
9.3811039387920789e+02 9.3810615272545908e+02 9.3810179977217706e+02 9.3809733207140573e+02 
9.3809274659742937e+02 9.3808804024472590e+02 9.3808320982585315e+02 9.3807825206929658e+02 
9.3807316361723633e+02 9.3806794102328956e+02 9.3806258075015603e+02 9.3805707916723372e+02 
9.3805143254814186e+02 9.3804563706820511e+02 9.3803968880186130e+02 9.3803358371998627e+02 
9.3802731768717797e+02 9.3802088645893889e+02 9.3801428567880521e+02 9.3800751087538822e+02 
9.3800055745934776e+02 9.3799342072027355e+02 9.3798609582349388e+02 9.3797857780679942e+02 
9.3797086157707236e+02 9.3796294190683943e+02 9.3795481343072026e+02 9.3794647064179640e+02 
9.3793790788787123e+02 9.3792911936763699e+02 9.3792009912674882e+02 9.3791084105377718e+02 
9.3790133887607146e+02 9.3789158615550264e+02 9.3788157628410113e+02 9.3787130247957111e+02 
9.3786075778070108e+02 9.3784993504263480e+02 9.3783882693203657e+02 9.3782742592211218e+02 
9.3781572428750871e+02 9.3780371409907946e+02 9.3779138721850984e+02 9.3777873529279589e+02 
9.3776574974858920e+02 9.3775242178638143e+02 9.3773874237454197e+02 9.3772470224319716e+02 
9.3771029187795227e+02 9.3769550151343742e+02 9.3768032112669584e+02 9.3766474043039182e+02 
9.3764874886584209e+02 9.3763233559585944e+02 9.3761548949741734e+02 9.3759819915411231e+02 
9.3758045284843035e+02 9.3756223855381768e+02 9.3754354392653283e+02 9.3752435629728689e+02 
9.3750466266267176e+02 9.3748444967635146e+02 9.3746370364003644e+02 9.3744241049420157e+02 
9.3742055580858391e+02 9.3739812477240764e+02 9.3737510218437217e+02 9.3735147244236646e+02 
9.3732721953291457e+02 9.3730232702034891e+02 9.3727677803569600e+02 9.3725055526527319e+02 
9.3722364093898375e+02 9.3719601681831034e+02 9.3716766418398845e+02 9.3713856382336121e+02 
9.3710869601740467e+02 9.3707804052740619e+02 9.3704657658130486e+02 9.3701428285966608e+02 
9.3698113748129697e+02 9.3694711798847925e+02 9.3691220133182321e+02 9.3687636385472263e+02 
9.3683958127740243e+02 9.3680182868055772e+02 9.3676308048855901e+02 9.3672331045222438e+02 
9.3668249163114046e+02 9.3664059637552691e+02 9.3659759630762528e+02 9.3655346230260875e+02 
9.3650816446898966e+02 9.3646167212852652e+02 9.3641395379560163e+02 9.3636497715607118e+02 
9.3631470904556045e+02 9.3626311542720498e+02 9.3621016136880678e+02 9.3615581101940620e+02 
9.3610002758524786e+02 9.3604277330512207e+02 9.3598400942507567e+02 9.3592369617246334e+02 
9.3586179272934180e+02 9.3579825720516521e+02 9.3573304660879126e+02 9.3566611681975962e+02 
9.3559742255883748e+02 9.3552691735780832e+02 9.3545455352848455e+02 9.3538028213093423e+02 
9.3530405294088598e+02 9.3522581441630848e+02 9.3514551366313583e+02 9.3506309640011852e+02 
9.3497850692278098e+02 9.3489168806646228e+02 9.3480258116842015e+02 9.3471112602897233e+02 
9.3461726087165584e+02 9.3452092230238009e+02 9.3442204526754529e+02 9.3432056301110913e+02 
9.3421640703057062e+02 9.3410950703184938e+02 9.3399979088303246e+02 9.3388718456696404e+02 
9.3377161213264822e+02 9.3365299564544102e+02 9.3353125513600173e+02 9.3340630854797405e+02 
9.3327807168437312e+02 9.3314645815264225e+02 9.3301137930835091e+02 9.3287274419751225e+02 
9.3273045949747473e+02 9.3258442945636921e+02 9.3243455583107175e+02 9.3228073782365357e+02 
9.3212287201628305e+02 9.3196085230454867e+02 9.3179456982916793e+02 9.3162391290604705e+02 
9.3144876695465916e+02 9.3126901442470205e+02 9.3108453472100689e+02 9.3089520412665104e+02 
9.3070089572425331e+02 9.3050147931539902e+02 9.3029682133817096e+02 9.3008678478274351e+02 
9.2987122910499886e+02 9.2965001013813776e+02 9.2942298000223434e+02 9.2918998701170960e+02 
9.2895087558067200e+02 9.2870548612610003e+02 9.2845365496881800e+02 9.2819521423223364e+02 
9.2792999173879298e+02 9.2765781090412145e+02 9.2737849062880866e+02 9.2709184518779773e+02 
9.2679768411734665e+02 9.2649581209952350e+02 9.2618602884419249e+02 9.2586812896846777e+02 
9.2554190187358552e+02 9.2520713161917206e+02 9.2486359679486532e+02 9.2451107038926455e+02 
9.2414931965617257e+02 9.2377810597809832e+02 9.2339718472700042e+02 9.2300630512223415e+02 
9.2260521008568071e+02 9.2219363609403956e+02 9.2177131302825580e+02 9.2133796402006499e+02 
9.2089330529564393e+02 9.2043704601634772e+02 9.1996888811652445e+02 9.1948852613839915e+02 
9.1899564706402509e+02 9.1848993014429675e+02 9.1797104672503372e+02 9.1743866007013912e+02 
9.1689242518184744e+02 9.1633198861807421e+02 9.1575698830689703e+02 9.1516705335819188e+02 
9.1456180387245763e+02 9.1394085074687496e+02 9.1330379547864050e+02 9.1265022996563948e+02 
9.1197973630450940e+02 9.1129188658617829e+02 9.1058624268894914e+02 9.0986235606922094e+02 
9.0911976754995351e+02 9.0835800710697697e+02 9.0757659365327640e+02 9.0677503482138138e+02 
9.0595282674400778e+02 9.0510945383311366e+02 9.0424438855754374e+02 9.0335709121945195e+02 
9.0244700972970816e+02 9.0151357938251385e+02 9.0055622262946429e+02 8.9957434885331941e+02 
8.9856735414176296e+02 8.9753462106144912e+02 8.9647551843265853e+02 8.9538940110491308e+02 
8.9427560973391496e+02 8.9313347056020859e+02 8.9196229518998769e+02 8.9076138037849626e+02 
8.8953000781650917e+02 8.8826744392039814e+02 8.8697293962633091e+02 8.8564573018918088e+02 
8.8428503498676423e+02 8.8289005733004979e+02 8.8145998428004032e+02 8.7999398647204828e+02 
8.7849121794814812e+02 8.7695081599861760e+02 8.7537190101323483e+02 8.7375357634334432e+02 
8.7209492817565240e+02 8.7039502541877391e+02 8.6865291960358741e+02 8.6686764479853593e+02 
8.6503821754105138e+02 8.6316363678634343e+02 8.6124288387486672e+02 8.5927492251983051e+02 
8.5725869881618826e+02 8.5519314127261998e+02 8.5307716086807216e+02 8.5090965113451784e+02 
8.4868948826764745e+02 8.4641553126730332e+02 8.4408662210952548e+02 8.4170158595217936e+02 
8.3925923137619486e+02 8.3675835066454954e+02 8.3419772012120222e+02 8.3157610043226941e+02 
8.2889223707183112e+02 8.2614486075482955e+02 8.2333268793962702e+02 8.2045442138285500e+02 
8.1750875074930343e+02 8.1449435327966250e+02 8.1140989451903033e+02 8.0825402910917649e+02 
8.0502540164764741e+02 8.0172264761686461e+02 7.9834439438646291e+02 7.9488926229217975e+02 
7.9135586579467497e+02 7.8774281472174664e+02 7.8404871559743799e+02 7.8027217306161208e+02 
7.7641179138360542e+02 7.7246617607359940e+02 7.6843393559540198e+02 7.6431368318431760e+02 
7.6010403877381520e+02 7.5580363103467846e+02 7.5141109953030434e+02 7.4692509699177526e+02 
7.4234429171627448e+02 7.3766737009232941e+02 7.3289303925527440e+02 7.2802002987619665e+02 
7.2304709908748544e+02 7.1797303354791677e+02 7.1279665265001643e+02 7.0751681187219151e+02 
7.0213240627784785e+02 6.9664237416341882e+02 6.9104570085685418e+02 6.8534142266775314e+02 
6.7952863098987052e+02 6.7360647655625576e+02 6.6757417384674341e+02 6.6143100564693316e+02 
6.5517632775715845e+02 6.4880957384924045e+02 6.4233026046806947e+02 6.3573799217423584e+02 
6.2903246682304598e+02 6.2221348097430314e+02 6.1528093542621457e+02 6.0823484086569817e+02 
6.0107532362617997e+02 5.9380263154276474e+02 5.8641713989330901e+02 5.7891935741259090e+02 
5.7130993236526467e+02 5.6358965866178448e+02 5.5575948199987090e+02 5.4782050601242122e+02 
5.3977399840102998e+02 5.3162139703249204e+02 5.2336431597380351e+02 5.1500455143928082e+02 
5.0654408762146846e+02 4.9798510237554092e+02 4.8932997272489985e+02 4.8058128015366515e+02 
4.7174181564975930e+02 4.6281458446029171e+02 4.5380281051901426e+02 4.4470994050372093e+02 
4.3553964747963551e+02 4.2629583408314306e+02 4.1698263519859154e+02 4.0760442007946438e+02 
3.9816579386394932e+02 3.8867159843387111e+02 3.7912691256513767e+02 3.6953705131730499e+02 
3.5990756460963507e+02 3.5024423493113488e+02 3.4055307413256816e+02 3.3084031924935493e+02 
3.2111242730566767e+02 3.1137606905192217e+02 3.0163812159030363e+02 2.9190565984597879e+02 
2.8218594684528563e+02 2.7248642276647803e+02 2.6281469273354725e+02 2.5317851332936431e+02 
2.4358577781074203e+02 2.3404450001520610e+02 2.2456279695716142e+02 2.1514887011981270e+02 
2.0581098545862653e+02 1.9655745214227701e+02 1.8739660006788566e+02 1.7833675619890175e+02 
1.6938621978611820e+02 1.6055323654500970e+02 1.5184597187574974e+02 1.4327248322578049e+02 
1.3484069170859399e+02 1.2655835310629051e+02 1.1843302839734386e+02 1.1047205396471171e+02 
1.0268251165271793e+02 9.5071198853935613e+01 8.7644598819243754e+01 8.0408851395256079e+01 
7.3369724403091325e+01 6.6532585880776693e+01 5.9902377418209788e+01 5.3483588818302771e+01 
4.7280234320456891e+01 4.1295830622655707e+01 3.5533376935994852e+01 2.9995337300201154e+01 
2.4683625380469145e+01 1.9599591954620035e+01 1.4744015285077131e+01 1.0117094552395791e+01 
5.7184465060814365e+00 1.5471054642381168e+00 -2.3984732337007397e+00 -6.1204062470743361e+00 
-9.6213716857142995e+00 -1.2904594987262000e+01 -1.5973831251247695e+01 -1.8833344099810915e+01 
-2.1487881174674417e+01 -2.3942646420171823e+01 -2.6203269342151259e+01 -2.8275771471766834e+01 
-3.0166530300837980e+01 -3.1882240990887020e+01 -3.3429876190442627e+01 -3.4816644324019883e+01 
-3.6049946740677115e+01 -3.7137334129588901e+01 -3.8086462624097322e+01 -3.8905050023742987e+01 
-3.9600832565462071e+01 -4.0181522670207983e+01 -4.0654768079607933e+01 -4.1028112778907612e+01 
-4.1308960077571271e+01 -4.1504538187815797e+01 -4.1621868604545625e+01 -4.1667737548249619e+01 
-4.1648670686185596e+01 -4.1570911297500174e+01 -4.1440401995800151e+01 -4.1262770069172213e+01 
-4.1043316443860334e+01 -4.0787008224887778e+01 -4.0498474715981935e+01 -4.0182006773301659e+01 
-3.9841559303682089e+01 -3.9480756679294039e+01 -3.9102900807519326e+01 -3.8710981568072491e+01 
-3.8307689309366737e+01 -3.7895429083062140e+01 -3.7476336289679104e+01 -3.7052293408949033e+01 
-3.6624947495862315e+01 -3.6195728136642849e+01 -3.5765865577465100e+01 -3.5336408761843039e+01 
-3.4908243039385475e+01 -3.4482107338087332e+01 -3.4058610623554443e+01 -3.3638247500590033e+01 
-3.3221412844498651e+01 -3.2808415380456864e+01 -3.2399490158624729e+01 -3.1994809899712905e+01 
-3.1594495209989429e+01 -3.1198623685866124e+01 -3.0807237946030831e+01 -3.0420352643521564e+01 
-3.0037960521214849e+01 -2.9660037582080037e+01 -2.9286547450479929e+01 -2.8917445003087121e+01 
-2.8552679347997771e+01 -2.8192196228743978e+01 -2.7835939926528262e+01 -2.7483854729506600e+01 
-2.7135886032688081e+01 -2.6791981126315214e+01 -2.6452089724712657e+01 -2.6116164281766547e+01 
-2.5784160133594014e+01 -2.5456035503708328e+01 -2.5131751401156162e+01 -2.4811271437745354e+01 
-2.4494561586597271e+01 -2.4181589900836837e+01 -2.3872326208239514e+01 -2.3566741795044056e+01 
-2.3264809089864762e+01 -2.2966501356646532e+01 -2.2671792403855012e+01 -2.2380656315542542e+01 
-2.2093067208545339e+01 -2.1808999018823616e+01 -2.1528425318837282e+01 -2.1251319166843842e+01 
-2.0977652988108090e+01 -2.0707398487222932e+01 -2.0440526590059186e+01 -2.0177007413291676e+01 
-1.9916810258990576e+01 -1.9659903631424264e+01 -1.9406255272987703e+01 -1.9155832216048896e+01 
-1.8908600847486440e+01 -1.8664526982765398e+01 -1.8423575946555328e+01 -1.8185712657119499e+01 
-1.7950901711984471e+01 -1.7719107472717383e+01 -1.7490294146981050e+01 -1.7264425866387885e+01 
-1.7041466759020544e+01 -1.6821381015817671e+01 -1.6604132950327660e+01 -1.6389687051604724e+01 
-1.6178008030254777e+01 -1.5969060857830732e+01 -1.5762810799927415e+01 -1.5559223443437656e+01 
-1.5358264718503897e+01 -1.5159900915740447e+01 -1.4964098699313544e+01 -1.4770825116455233e+01 
-1.4580047603958226e+01 -1.4391733992157267e+01 -1.4205852506852469e+01 -1.4022371769576189e+01 
-1.3841260796549726e+01 -1.3662488996622971e+01 -1.3486026168440166e+01 -1.3311842497029831e+01 
-1.3139908549977394e+01 -1.2970195273304967e+01 -1.2802673987154334e+01 -1.2637316381346064e+01 
-1.2474094510868548e+01 -1.2312980791336971e+01 -1.2153947994450132e+01 -1.1996969243465109e+01 
-1.1842018008703276e+01 -1.1689068103096711e+01 -1.1538093677780902e+01 -1.1389069217737216e+01 
-1.1241969537487321e+01 -1.1096769776840537e+01 -1.0953445396694555e+01 -1.0811972174889453e+01 
-1.0672326202114759e+01 -1.0534483877869068e+01 -1.0398421906471672e+01 -1.0264117293125654e+01 
-1.0131547340031720e+01 -1.0000689642552315e+01 -9.8715220854251040e+00 -9.7440228390255061e+00 
-9.6181703556774210e+00 -9.4939433660116208e+00 -9.3713208753711790e+00 -9.2502821602633247e+00 
-9.1308067648571214e+00 -9.0128744975263828e+00 -8.8964654274372403e+00 -8.7815598811797830e+00 
-8.6681384394432062e+00 -8.5561819337339049e+00 -8.4456714431359430e+00 -8.3365882911133866e+00 
-8.2289140423539155e+00 -8.1226304996532122e+00 -8.0177197008395851e+00 -7.9141639157383628e+00 
-7.8119456431753740e+00 -7.7110476080192685e+00 -7.6114527582619580e+00 -7.5131442621367874e+00 
-7.4161055052739293e+00 -7.3203200878925099e+00 -7.2257718220290137e+00 -7.1324447288014774e+00 
-7.0403230357090170e+00 -6.9493911739662408e+00 -6.8596337758720880e+00 -6.7710356722126512e+00 
-6.6835818896975354e+00 -6.5972576484293528e+00 -6.5120483594058642e+00 -6.4279396220544207e+00 
-6.3449172217982115e+00 -6.2629671276540142e+00 -6.1820754898608579e+00 -6.1022286375394268e+00 
-6.0234130763816331e+00 -5.9456154863700554e+00 -5.8688227195268121e+00 -5.7930217976915364e+00 
-5.7181999103280221e+00 -5.6443444123592226e+00 -5.5714428220301970e+00 -5.4994828187986675e+00 
-5.4284522412528160e+00 -5.3583390850559782e+00 -5.2891315009178799e+00 -5.2208177925920811e+00 
-5.1533864148992823e+00 -5.0868259717761601e+00 -5.0211252143493956e+00 -4.9562730390346292e+00 
-4.8922584856598705e+00 -4.8290707356132350e+00 -4.7666991100145744e+00 -4.7051330679107126e+00 
-4.6443622044939978e+00 -4.5843762493438742e+00 -4.5251650646911479e+00 -4.4667186437046862e+00 
-4.4090271088002329e+00 -4.3520807099710774e+00 -4.2958698231402810e+00 -4.2403849485341807e+00 
-4.1856167090769079e+00 -4.1315558488056441e+00 -4.0781932313063285e+00 -4.0255198381695996e+00 
-3.9735267674666410e+00 -3.9222052322447687e+00 -3.8715465590423737e+00 -3.8215421864231129e+00 
-3.7721836635289976e+00 -3.7234626486521809e+00 -3.6753709078251862e+00 -3.6279003134293539e+00 
-3.5810428428212440e+00 -3.5347905769768002e+00 -3.4891356991530080e+00 -3.4440704935668540e+00 
-3.3995873440913336e+00 -3.3556787329683107e+00 -3.3123372395380000e+00 -3.2695555389848541e+00 
-3.2273264010996554e+00 -3.1856426890575911e+00 -3.1444973582121105e+00 -3.1038834549043806e+00 
-3.0637941152880721e+00 -3.0242225641693747e+00 -2.9851621138619637e+00 -2.9466061630567704e+00 
-2.9085481957063406e+00 -2.8709817799236115e+00 -2.8339005668949038e+00 -2.7972982898069594e+00 
-2.7611687627878325e+00 -2.7255058798614651e+00 -2.6903036139157628e+00 -2.6555560156839944e+00 
-2.6212572127393576e+00 -2.5874014085025188e+00 -2.5539828812619825e+00 -2.5209959832071061e+00 
-2.4884351394736015e+00 -2.4562948472013892e+00 -2.4245696746045731e+00 -2.3932542600534754e+00 
-2.3623433111685035e+00 -2.3318316039257243e+00 -2.3017139817739936e+00 -2.2719853547634847e+00 
-2.2426406986854754e+00 -2.2136750542232466e+00 -2.1850835261139419e+00 -2.1568612823212603e+00 
-2.1290035532188298e+00 -2.1015056307841271e+00 -2.0743628678028148e+00 -2.0475706770833448e+00 
-2.0211245306817180e+00 -1.9950199591362447e+00 -1.9692525507122103e+00 -1.9438179506562570e+00 
-1.9187118604604396e+00 -1.8939300371357601e+00 -1.8694682924950929e+00 -1.8453224924453731e+00 
-1.8214885562889223e+00 -1.7979624560338039e+00 -1.7747402157130789e+00 -1.7518179107128635e+00 
-1.7291916671090546e+00 -1.7068576610126303e+00 -1.6848121179234032e+00 -1.6630513120921215e+00 
-1.6415715658908065e+00 -1.6203692491912258e+00 -1.5994407787513940e+00 -1.5787826176099924e+00 
-1.5583912744886248e+00 -1.5382633032017681e+00 -1.5183953020743675e+00 -1.4987839133669458e+00 
-1.4794258227081334e+00 -1.4603177585345355e+00 -1.4414564915378270e+00 -1.4228388341189946e+00 
-1.4044616398496226e+00 -1.3863218029401394e+00 -1.3684162577149332e+00 -1.3507419780942440e+00 
-1.3332959770827493e+00 -1.3160753062647548e+00 -1.2990770553059057e+00 -1.2822983514613322e+00 
-1.2657363590901500e+00 -1.2493882791762267e+00 -1.2332513488551515e+00 -1.2173228409472903e+00 
-1.2016000634968951e+00 -1.1860803593171556e+00 -1.1707611055411264e+00 -1.1556397131784586e+00 
-1.1407136266778524e+00 -1.1259803234951631e+00 -1.1114373136670868e+00 -1.0970821393903485e+00 
-1.0829123746063287e+00 -1.0689256245910539e+00 -1.0551195255504811e+00 -1.0414917442210130e+00 
-1.0280399774751692e+00 -1.0147619519323534e+00 -1.0016554235746460e+00 -9.8871817736755740e-01 
-9.7594802688569082e-01 -9.6334281394321863e-01 -9.5090040822915189e-01 -9.3861870694731075e-01 
-9.2649563446094707e-01 -9.1452914194195667e-01 -9.0271720702462221e-01 -8.9105783346382916e-01 
-8.7954905079769530e-01 -8.6818891401455833e-01 -8.5697550322426308e-01 -8.4590692333369744e-01 
-8.3498130372651569e-01 -8.2419679794699974e-01 -8.1355158338800437e-01 -8.0304386098293512e-01 
-7.9267185490169134e-01 -7.8243381225056152e-01 -7.7232800277597313e-01 -7.6235271857206643e-01 
-7.5250627379207424e-01 -7.4278700436338807e-01 -7.3319326770634696e-01 -7.2372344245661646e-01 
-7.1437592819119533e-01 -7.0514914515791993e-01 -6.9604153400850199e-01 -6.8705155553497499e-01 
-6.7817769040958531e-01 -6.6941843892800068e-01 -6.6077232075587811e-01 -6.5223787467866279e-01 
-6.4381365835465987e-01 -6.3549824807125521e-01 -6.2729023850432430e-01 -6.1918824248070981e-01 
-6.1119089074380251e-01 -6.0329683172212656e-01 -5.9550473130091419e-01 -5.8781327259665284e-01 
-5.8022115573451061e-01 -5.7272709762867213e-01 -5.6532983176547669e-01 -5.5802810798939118e-01 
-5.5082069229171493e-01 -5.4370636660204441e-01 -5.3668392858240155e-01 -5.2975219142405061e-01 
-5.2290998364690988e-01 -5.1615614890158379e-01 -5.0948954577392169e-01 -5.0290904759213173e-01 
-4.9641354223635514e-01 -4.9000193195072878e-01 -4.8367313315785582e-01 -4.7742607627567363e-01 
-4.7125970553670404e-01 -4.6517297880961223e-01 -4.5916486742309748e-01 -4.5323435599203249e-01 
-4.4738044224587331e-01 -4.4160213685926081e-01 -4.3589846328483489e-01 -4.3026845758818322e-01 
-4.2471116828494587e-01 -4.1922565618000085e-01 -4.1381099420874945e-01 -4.0846626728042801e-01 
-4.0319057212346765e-01 -3.9798301713282724e-01 -3.9284272221932176e-01 -3.8776881866087370e-01 
-3.8276044895570660e-01 -3.7781676667742137e-01 -3.7293693633194364e-01 -3.6812013321633336e-01 
-3.6336554327939680e-01 -3.5867236298412097e-01 -3.5403979917186307e-01 -3.4946706892831542e-01 
-3.4495339945118086e-01 -3.4049802791957723e-01 -3.3610020136510910e-01 -3.3175917654462372e-01 
-3.2747421981459229e-01 -3.2324460700713098e-01 -3.1906962330760613e-01 -3.1494856313383796e-01 
-3.1088073001684641e-01 -3.0686543648315384e-01 -3.0290200393859745e-01 -2.9898976255364174e-01 
-2.9512805115018315e-01 -2.9131621708980127e-01 -2.8755361616346931e-01 -2.8383961248267342e-01 
-2.8017357837195384e-01 -2.7655489426281837e-01 -2.7298294858904165e-01 
</PP_LOCAL>


<PP_NONLOCAL>
  <PP_BETA>
  1  1      Beta    L
  1187  
 -1.9114602226535488e-09  -1.9618098992261186e-09  -2.0134858341068377e-09  -2.0665229622012926e-09 
 -2.1209571386338067e-09  -2.1768251629869080e-09  -2.2341648041792535e-09  -2.2930148259988851e-09 
 -2.3534150133090321e-09  -2.4154061989442211e-09  -2.4790302913148529e-09  -2.5443303027388965e-09 
 -2.6113503785198799e-09  -2.6801358267908246e-09  -2.7507331491442885e-09  -2.8231900720692508e-09 
 -2.8975555792160530e-09  -2.9738799445112468e-09  -3.0522147661447143e-09  -3.1326130014520470e-09 
 -3.2151290027157464e-09  -3.2998185539094825e-09  -3.3867389084102268e-09  -3.4759488277037381e-09 
 -3.5675086211096333e-09  -3.6614801865528053e-09  -3.7579270524088521e-09  -3.8569144204516943e-09 
 -3.9585092099325383e-09  -4.0627801028198909e-09  -4.1697975902312322e-09  -4.2796340200877661e-09 
 -4.3923636460244333e-09  -4.5080626775882765e-09  -4.6268093317590473e-09  -4.7486838858269552e-09 
 -4.8737687316632532e-09  -5.0021484314203597e-09  -5.1339097746991805e-09  -5.2691418372223033e-09 
 -5.4079360410526254e-09  -5.5503862163983245e-09  -5.6965886650457032e-09  -5.8466422254630043e-09 
 -6.0006483396191073e-09  -6.1587111215622705e-09  -6.3209374278053585e-09  -6.4874369295650273e-09 
 -6.6583221869038119e-09  -6.8337087248251675e-09  -7.0137151113729395e-09  -7.1984630377880552e-09 
 -7.3880774007766204e-09  -7.5826863869450320e-09  -7.7824215594592448e-09  -7.9874179469866479e-09 
 -8.1978141349808646e-09  -8.4137523593710098e-09  -8.6353786027188359e-09  -8.8628426929088230e-09 
 -9.0962984044377479e-09  -9.3359035623724662e-09  -9.5818201490458893e-09  -9.8342144135636389e-09 
 -1.0093256984195042e-08  -1.0359122983724748e-08  -1.0631992147842773e-08  -1.0912048946653064e-08 
 -1.1199482709382728e-08  -1.1494487752376325e-08  -1.1797263510461482e-08  -1.2108014671774978e-08 
 -1.2426951316140286e-08  -1.2754289057090013e-08  -1.3090249187629478e-08  -1.3435058829839826e-08 
 -1.3788951088421838e-08  -1.4152165208284295e-08  -1.4524946736283324e-08  -1.4907547687222164e-08 
 -1.5300226714223644e-08  -1.5703249283590318e-08  -1.6116887854270680e-08  -1.6541422062052742e-08 
 -1.6977138908609418e-08  -1.7424332955523704e-08  -1.7883306523424483e-08  -1.8354369896367996e-08 
 -1.8837841531602942e-08  -1.9334048274860889e-08  -1.9843325581317724e-08  -2.0366017742375741e-08 
 -2.0902478118418959e-08  -2.1453069377699997e-08  -2.2018163741519107e-08  -2.2598143235861771e-08 
 -2.3193399949664623e-08  -2.3804336299884369e-08  -2.4431365303549142e-08  -2.5074910856975634e-08 
 -2.5735408022341724e-08  -2.6413303321807130e-08  -2.7109055039382091e-08  -2.7823133530747413e-08 
 -2.8556021541235459e-08  -2.9308214532187461e-08  -3.0080221015907268e-08  -3.0872562899438254e-08 
 -3.1685775837395659e-08  -3.2520409594093356e-08  -3.3377028415208957e-08  -3.4256211409239631e-08 
 -3.5158552939005439e-08  -3.6084663023465920e-08  -3.7035167750120550e-08  -3.8010709698272791e-08 
 -3.9011948373443309e-08  -4.0039560653226275e-08  -4.1094241244890021e-08  -4.2176703155031854e-08 
 -4.3287678171603820e-08  -4.4427917358636115e-08  -4.5598191563991905e-08  -4.6799291940497227e-08 
 -4.8032030480798485e-08  -4.9297240566308525e-08  -5.0595777530612683e-08  -5.1928519237716458e-08 
 -5.3296366675524234e-08  -5.4700244564951883e-08  -5.6141101985083927e-08  -5.7619913014798193e-08 
 -5.9137677391292670e-08  -6.0695421185957581e-08  -6.2294197498052820e-08  -6.3935087166656321e-08 
 -6.5619199501367464e-08  -6.7347673032257735e-08  -6.9121676279576993e-08  -7.0942408543734257e-08 
 -7.2811100716088981e-08  -7.4729016111099130e-08  -7.6697451320389746e-08  -7.8717737089319680e-08 
 -8.0791239216638012e-08  -8.2919359477839312e-08  -8.5103536572842033e-08  -8.7345247098630463e-08 
 -8.9646006547517256e-08  -9.2007370331703452e-08  -9.4430934834826070e-08  -9.6918338491206215e-08 
 -9.9471262893526852e-08  -1.0209143392968880e-07  -1.0478062294961401e-07  -1.0754064796278490e-07 
 -1.1037337486732885e-07  -1.1328071871148056e-07  -1.1626464498827369e-07  -1.1932717096433624e-07 
 -1.2247036704369180e-07  -1.2569635816748435e-07  -1.2900732525057635e-07  -1.3240550665598928e-07 
 -1.3589319970818555e-07  -1.3947276224621313e-07  -1.4314661421776389e-07  -1.4691723931522404e-07 
 -1.5078718665482185e-07  -1.5475907250000867e-07  -1.5883558203023773e-07  -1.6301947115633912e-07 
 -1.6731356838371448e-07  -1.7172077672461489e-07  -1.7624407566079320e-07  -1.8088652315785813e-07 
 -1.8565125773269285e-07  -1.9054150057533442e-07  -1.9556055772675156e-07  -2.0071182231399087e-07 
 -2.0599877684420354e-07  -2.1142499555910539e-07  -2.1699414685145924e-07  -2.2270999574521739e-07 
 -2.2857640644099874e-07  -2.3459734492862128e-07  -2.4077688166845996e-07  -2.4711919434344004e-07 
 -2.5362857068352909e-07  -2.6030941136463399e-07  -2.6716623298386955e-07  -2.7420367111320445e-07 
 -2.8142648343355344e-07  -2.8883955295143458e-07  -2.9644789130036610e-07  -3.0425664212923478e-07 
 -3.1227108457993057e-07  -3.2049663685659549e-07  -3.2893885988890461e-07  -3.3760346109185264e-07 
 -3.4649629822459037e-07  -3.5562338335092363e-07  -3.6499088690414962e-07  -3.7460514185898140e-07 
 -3.8447264801338045e-07  -3.9460007638319904e-07  -4.0499427371259481e-07  -4.1566226710327896e-07 
 -4.2661126876572268e-07  -4.3784868089553627e-07  -4.4938210067832141e-07  -4.6121932542637948e-07 
 -4.7336835785075447e-07  -4.8583741147216861e-07  -4.9863491617452288e-07  -5.1176952390470615e-07 
 -5.2525011452257926e-07  -5.3908580180508269e-07  -5.5328593960854117e-07  -5.6786012819331504e-07 
 -5.8281822071510129e-07  -5.9817032988725313e-07  -6.1392683481864082e-07  -6.3009838803167140e-07 
 -6.4669592266521999e-07  -6.6373065986734505e-07  -6.8121411638278541e-07  -6.9915811234038019e-07 
 -7.1757477924567027e-07  -7.3647656818410630e-07  -7.5587625824039049e-07  -7.7578696513967075e-07 
 -7.9622215011642328e-07  -8.1719562901702548e-07  -8.3872158164218369e-07  -8.6081456133553460e-07 
 -8.8348950482491208e-07  -9.0676174232292948e-07  -9.3064700789373504e-07  -9.5516145009293127e-07 
 -9.8032164288788059e-07  -1.0061445968657729e-06  -1.0326477707370484e-06  -1.0598490831419713e-06 
 -1.0877669247683267e-06  -1.1164201707884576e-06  -1.1458281936240574e-06  -1.1760108760473656e-06 
 -1.2069886246276153e-06  -1.2387823835318749e-06  -1.2714136486895814e-06  -1.3049044823303887e-06 
 -1.3392775279051705e-06  -1.3745560254002705e-06  -1.4107638270553734e-06  -1.4479254134956381e-06 
 -1.4860659102890475e-06  -1.5252111049401332e-06  -1.5653874643316394e-06  -1.6066221526259034e-06 
 -1.6489430496380957e-06  -1.6923787696937641e-06  -1.7369586809834464e-06  -1.7827129254274877e-06 
 -1.8296724390644744e-06  -1.8778689729771679e-06  -1.9273351147700392e-06  -1.9781043106130328e-06 
 -2.0302108878664337e-06  -2.0836900783022204e-06  -2.1385780419376032e-06  -2.1949118914969419e-06 
 -2.2527297175185868e-06  -2.3120706141236738e-06  -2.3729747054643765e-06  -2.4354831728694858e-06 
 -2.4996382827057774e-06  -2.5654834149740299e-06  -2.6330630926591003e-06  -2.7024230118539510e-06 
 -2.7736100726780686e-06  -2.8466724110112496e-06  -2.9216594310642595e-06  -2.9986218388085075e-06 
 -3.0776116762873589e-06  -3.1586823568324224e-06  -3.2418887012086765e-06  -3.3272869747129860e-06 
 -3.4149349252511775e-06  -3.5048918224195429e-06  -3.5972184976172610e-06  -3.6919773852170251e-06 
 -3.7892325648218143e-06  -3.8890498046364921e-06  -3.9914966059837077e-06  -4.0966422489943538e-06 
 -4.2045578395035657e-06  -4.3153163571842449e-06  -4.4289927049506658e-06  -4.5456637596658660e-06 
 -4.6654084241872268e-06  -4.7883076807856581e-06  -4.9144446459747155e-06  -5.0439046267868857e-06 
 -5.1767751785353728e-06  -5.3131461641006946e-06  -5.4531098147823583e-06  -5.5967607927570861e-06 
 -5.7441962551860708e-06  -5.8955159200149347e-06  -6.0508221335111669e-06  -6.2102199395850176e-06 
 -6.3738171509411438e-06  -6.5417244221093742e-06  -6.7140553244044624e-06  -6.8909264228657963e-06 
 -7.0724573552296620e-06  -7.2587709129877973e-06  -7.4499931245875544e-06  -7.6462533408304079e-06 
 -7.8476843225271348e-06  -8.0544223304694373e-06  -8.2666072177794355e-06  -8.4843825247000754e-06 
 -8.7078955758912852e-06  -8.9372975802982065e-06  -9.1727437336598831e-06  -9.4143933237283777e-06 
 -9.6624098382703546e-06  -9.9169610759249028e-06  -1.0178219259993542e-05  -1.0446361155240225e-05 
 -1.0721568187781297e-05  -1.1004026568147566e-05  -1.1293927417602780e-05  -1.1591466897805004e-05 
 -1.1896846343899934e-05  -1.2210272401137203e-05  -1.2531957165103718e-05  -1.2862118325669934e-05 
 -1.3200979314748150e-05  -1.3548769457964185e-05  -1.3905724130346712e-05  -1.4272084916141278e-05 
 -1.4648099772858875e-05  -1.5034023199671969e-05  -1.5430116410273978e-05  -1.5836647510320991e-05 
 -1.6253891679578432e-05  -1.6682131358897708e-05  -1.7121656442152278e-05  -1.7572764473265158e-05 
 -1.8035760848464343e-05  -1.8510959023905479e-05  -1.8998680728805515e-05  -1.9499256184234699e-05 
 -2.0013024327718120e-05  -2.0540333043802839e-05  -2.1081539400749669e-05  -2.1637009893514206e-05 
 -2.2207120693185473e-05  -2.2792257903055372e-05  -2.3392817821496839e-05  -2.4009207211833456e-05 
 -2.4641843579388137e-05  -2.5291155455904011e-05  -2.5957582691535412e-05  -2.6641576754612607e-05 
 -2.7343601039389654e-05  -2.8064131181989931e-05  -2.8803655384770568e-05  -2.9562674749332362e-05 
 -3.0341703618408387e-05  -3.1141269926871252e-05  -3.1961915562104512e-05  -3.2804196733992026e-05 
 -3.3668684354784583e-05  -3.4555964429111574e-05  -3.5466638454411825e-05  -3.6401323832066420e-05 
 -3.7360654289523048e-05  -3.8345280313710652e-05  -3.9355869596050318e-05  -4.0393107489377775e-05 
 -4.1457697477101709e-05  -4.2550361654930074e-05  -4.3671841225507414e-05  -4.4822897006314725e-05 
 -4.6004309951193918e-05  -4.7216881685868625e-05  -4.8461435057844001e-05  -4.9738814701079193e-05 
 -5.1049887615836089e-05  -5.2395543764121352e-05  -5.3776696681148584e-05  -5.5194284103261181e-05 
 -5.6649268612768204e-05  -5.8142638300158307e-05  -5.9675407444171278e-05  -6.1248617210218881e-05 
 -6.2863336367661966e-05  -6.4520662026465168e-05  -6.6221720393765286e-05  -6.7967667550905363e-05 
 -6.9759690251501472e-05  -7.1599006741128031e-05  -7.3486867599220678e-05  -7.5424556603817603e-05 
 -7.7413391619775453e-05  -7.9454725511114092e-05  -8.1549947078167451e-05  -8.3700482020233584e-05 
 -8.5907793924438794e-05  -8.8173385281553458e-05  -9.0498798529516734e-05  -9.2885617125451641e-05 
 -9.5335466646973526e-05  -9.7850015923621572e-05  -1.0043097819926414e-04  -1.0308011232635916e-04 
 -1.0579922399297159e-04  -1.0859016698348359e-04  -1.1145484447395500e-04  -1.1439521036312685e-04 
 -1.1741327064008566e-04  -1.2051108478964175e-04  -1.2369076723650415e-04  -1.2695448882936938e-04 
 -1.3030447836607571e-04  -1.3374302416101029e-04  -1.3727247565599319e-04  -1.4089524507589920e-04 
 -1.4461380913032300e-04  -1.4843071076262618e-04  -1.5234856094775435e-04  -1.5637004054025060e-04 
 -1.6049790217394328e-04  -1.6473497221482404e-04  -1.6908415276869226e-04  -1.7354842374518069e-04 
 -1.7813084497983844e-04  -1.8283455841599573e-04  -1.8766279034819456e-04  -1.9261885372902479e-04 
 -1.9770615054126814e-04  -2.0292817423731146e-04  -2.0828851224785958e-04  -2.1379084856204189e-04 
 -2.1943896638107677e-04  -2.2523675084773465e-04  -2.3118819185390728e-04  -2.3729738692867657e-04 
 -2.4356854420935428e-04  -2.5000598549804279e-04  -2.5661414940636809e-04  -2.6339759459110369e-04 
 -2.7036100308352892e-04  -2.7750918371542872e-04  -2.8484707564477280e-04  -2.9237975198420082e-04 
 -3.0011242353555017e-04  -3.0805044263379082e-04  -3.1619930710382861e-04  -3.2456466433378303e-04 
 -3.3315231546845873e-04  -3.4196821972686968e-04  -3.5101849884781557e-04  -3.6030944166764572e-04 
 -3.6984750883451041e-04  -3.7963933766354006e-04  -3.8969174713756807e-04  -4.0001174305817893e-04 
 -4.1060652335203813e-04  -4.2148348353764331e-04  -4.3265022235784018e-04  -4.4411454758363063e-04 
 -4.5588448199501539e-04  -4.6796826954484172e-04  -4.8037438171183466e-04  -4.9311152404924179e-04 
 -5.0618864293576515e-04  -5.1961493253570301e-04  -5.3339984197550846e-04  -5.4755308274424081e-04 
 -5.6208463632567772e-04  -5.7700476207017595e-04  -5.9232400531466936e-04  -6.0805320575954146e-04 
 -6.2420350611145107e-04  -6.4078636100155554e-04  -6.5781354618895478e-04  -6.7529716805958453e-04 
 -6.9324967343119238e-04  -7.1168385967547388e-04  -7.3061288516889299e-04  -7.5005028008419709e-04 
 -7.7000995753512518e-04  -7.9050622508732764e-04  -8.1155379664907441e-04  -8.3316780475587349e-04 
 -8.5536381326375315e-04  -8.7815783046654413e-04  -9.0156632265318913e-04  -9.2560622812177520e-04 
 -9.5029497166768920e-04  -9.7565047956408972e-04  -1.0016911950536138e-03  -1.0284360943711261e-03 
 -1.0559047033181393e-03  -1.0841171144104495e-03  -1.1130940046215024e-03  -1.1428566537449631e-03 
 -1.1734269634010536e-03  -1.2048274767122679e-03  -1.2370813986752618e-03  -1.2702126172569135e-03 
 -1.3042457252437805e-03  -1.3392060428755758e-03  -1.3751196412945925e-03  -1.4120133668445495e-03 
 -1.4499148662538023e-03  -1.4888526127395177e-03  -1.5288559330710794e-03  -1.5699550356327694e-03 
 -1.6121810395276662e-03  -1.6555660047666073e-03  -1.7001429635881673e-03  -1.7459459529577746e-03 
 -1.7930100482963158e-03  -1.8413713984909996e-03  -1.8910672622437900e-03  -1.9421360458152881e-03 
 -1.9946173422248155e-03  -2.0485519719702638e-03  -2.1039820253344645e-03  -2.1609509063479485e-03 
 -2.2195033784814531e-03  -2.2796856121450665e-03  -2.3415452340746568e-03  -2.4051313786902142e-03 
 -2.4704947415148957e-03  -2.5376876347479086e-03  -2.6067640450890468e-03  -2.6777796939175097e-03 
 -2.7507920999327185e-03  -2.8258606443703348e-03  -2.9030466389122259e-03  -2.9824133964151968e-03 
 -3.0640263045895156e-03  -3.1479529027649850e-03  -3.2342629618891745e-03  -3.3230285679098736e-03 
 -3.4143242087015303e-03  -3.5082268647036118e-03  -3.6048161034474371e-03  -3.7041741781570709e-03 
 -3.8063861306194837e-03  -3.9115398985291837e-03  -4.0197264275231848e-03  -4.1310397881334374e-03 
 -4.2455772978954621e-03  -4.3634396488646636e-03  -4.4847310408046275e-03  -4.6095593203257824e-03 
 -4.7380361262673231e-03  -4.8702770416305793e-03  -5.0064017523885418e-03  -5.1465342135131277e-03 
 -5.2908028225798877e-03  -5.4393406013291514e-03  -5.5922853855824425e-03  -5.7497800239343592e-03 
 -5.9119725856625685e-03  -6.0790165783221155e-03  -6.2510711755152286e-03  -6.4283014553540617e-03 
 -6.6108786501617653e-03  -6.7989804079863127e-03  -6.9927910665327697e-03  -7.1925019401519923e-03 
 -7.3983116205585562e-03  -7.6104262919866050e-03  -7.8290600615312702e-03  -8.0544353054632003e-03 
 -8.2867830323468152e-03  -8.5263432638379346e-03  -8.7733654340838522e-03  -9.0281088086992672e-03 
 -9.2908429243442024e-03  -9.5618480499862924e-03  -9.8414156709882173e-03  -1.0129848997223551e-02 
 -1.0427463496489799e-02  -1.0734587454556209e-02  -1.1051562563257226e-02  -1.1378744538118893e-02 
 -1.1716503767086541e-02  -1.2065225992007555e-02  -1.2425313024612613e-02  -1.2797183498833688e-02 
 -1.3181273661396589e-02  -1.3578038202730848e-02  -1.3987951130350108e-02  -1.4411506686972525e-02 
 -1.4849220315772640e-02  -1.5301629675284856e-02  -1.5769295706613479e-02  -1.6252803755746323e-02 
 -1.6752764753917349e-02  -1.7269816459120561e-02  -1.7804624762040564e-02  -1.8357885059837438e-02 
 -1.8930323701403025e-02  -1.9522699507893950e-02  -2.0135805372543537e-02  -2.0770469943960052e-02 
 -2.1427559397333769e-02  -2.2107979298198008e-02  -2.2812676563623530e-02  -2.3542641525966284e-02 
 -2.4298910104541688e-02  -2.5082566090858037e-02  -2.5894743553312723e-02  -2.6736629367532950e-02 
 -2.7609465878831462e-02  -2.8514553703542601e-02  -2.9453254676308112e-02  -3.0426994950692930e-02 
 -3.1437268260827357e-02  -3.2485639352093733e-02  -3.3573747589201633e-02  -3.4703310750322090e-02 
 -3.5876129016278978e-02  -3.7094089164122442e-02  -3.8359168974726889e-02  -3.9673441864372765e-02 
 -4.1039081750568793e-02  -4.2458368162659951e-02  -4.3933691608030352e-02  -4.5467559204950173e-02 
 -4.7062600593323324e-02  -4.8721574134759381e-02  -5.0447373413515351e-02  -5.2243034049914899e-02 
 -5.4111740837849136e-02  -5.6056835217879415e-02  -5.8081823097287384e-02  -6.0190383028129499e-02 
 -6.2386374753948128e-02  -6.4673848135232304e-02  -6.7057052463003447e-02  -6.9540446168988218e-02 
 -7.2128706939713877e-02  -7.4826742240484051e-02  -7.7639700253537058e-02  -8.0572981232713198e-02 
 -8.3632249274619888e-02  -8.6823444503548342e-02  -9.0152795664191113e-02  -9.3626833112504151e-02 
 -9.7252402190773135e-02  -1.0103667696801245e-01  -1.0498717432118737e-01  -1.0911176832630178e-01 
 -1.1341870492106591e-01  -1.1791661679254012e-01  -1.2261453843374144e-01  -1.2752192130258350e-01 
 -1.3264864900457254e-01  -1.3800505240726610e-01  -1.4360192457947593e-01  -1.4945053543140754e-01 
 -1.5556264591320432e-01  -1.6195052160853637e-01  -1.6862694553675839e-01  -1.7560522995155187e-01 
 -1.8289922689567548e-01  -1.9052333724025486e-01  -1.9849251790273117e-01  -2.0682228689995014e-01 
 -2.1552872585167196e-01  -2.2462847950481182e-01  -2.3413875179977653e-01  -2.4407729794711971e-01 
 -2.5446241192526553e-01  -2.6531290874803476e-01  -2.7664810078409330e-01  -2.8848776733911419e-01 
 -3.0085211663541461e-01  -3.1376173924313955e-01  -3.2723755193189946e-01  -3.4130073082234064e-01 
 -3.5597263262386458e-01  -3.7127470264815382e-01  -3.8722836818899331e-01  -4.0385491575811971e-01 
 -4.2117535056556282e-01  -4.3921023653271901e-01  -4.5797951502897677e-01  -4.7750230043020908e-01 
 -4.9779665051248717e-01  -5.1887930961992734e-01  -5.4076542248518888e-01  -5.6346821653886980e-01 
 -5.8699865052458355e-01  -6.1136502724516106e-01  -6.3657256830819720e-01  -6.6262294882277029e-01 
 -6.8951379013115022e-01  -7.1723810884771177e-01  -7.4578372073127364e-01  -7.7513259824610070e-01 
 -8.0526018108136965e-01  -8.3613463940969424e-01  -8.6771609028373198e-01  -8.9995576830739454e-01 
 -9.3279515258625989e-01  -9.6616505297172472e-01  -9.9998465977564577e-01  -1.0341605624560968e+00 
 -1.0685857442682229e+00  -1.1031385615422300e+00  -1.1376817180958452e+00  -1.1720612473095076e+00 
 -1.2061055165830090e+00  -1.2396242712401278e+00  -1.2724077374344753e+00  -1.3042258062082168e+00 
 -1.3348273235301533e+00  -1.3639395138445711e+00  -1.3912675673400015e+00  -1.4164944237288095e+00 
 -1.4392807877307621e+00  -1.4592654135818544e+00  -1.4760656976334599e+00  -1.4892786193438683e+00 
 -1.4984820715597948e+00  -1.5032366207931893e+00  -1.5030877370650622e+00  -1.4975685306533963e+00 
 -1.4862030295867303e+00  -1.4685100268127984e+00  -1.4440075194983588e+00  -1.4122177547553447e+00 
 -1.3726728861408066e+00  -1.3249212334815514e+00  -1.2685341249119664e+00  -1.2031132845289623e+00 
 -1.1282987118698724e+00  -1.0437769806991473e+00  -9.4928986462443943e-01  -8.4464317623015772e-01 
 -7.2971568519538865e-01  -6.0446795983977464e-01  -4.6895095640944223e-01  -3.2331416196906249e-01 
 -1.6781308089057148e-01  -2.8158425819487212e-03  1.7119129971614785e-01  3.5359981150738767e-01 
 5.4367628917819422e-01  7.4056165822822073e-01  9.4327235435499113e-01  1.1507036558235160e+00 
 1.3616352985615048e+00  1.5747394601275990e+00  1.7885911459951687e+00  2.0016809529610358e+00 
 2.2124301219931621e+00  2.4192077290369460e+00  2.6203498000741861e+00  2.8141800789575102e+00 
 2.9990321257686388e+00  3.1732723815056119e+00  3.3353238026292407e+00  3.4836896461040481e+00 
 3.6169769707341333e+00  3.7339194117896213e+00  3.8333987809273293e+00  3.9144650404829702e+00 
 3.9763541998128971e+00  4.0185036828750818e+00  4.0405647244835006e+00  4.0424113738497658e+00 
 4.0241457257092064e+00  3.9860990682872601e+00  3.9288287367645682e+00  3.8531105880678092e+00 
 3.7599271588531487e+00  3.6504517203697828e+00  3.5260285877355826e+00  3.3881501659552251e+00 
 3.2384313141771837e+00  3.0785816810754829e+00  2.9103767089646766e+00  2.7356280252170491e+00 
 2.5561539401993243e+00  2.3737507542310867e+00  2.1901655434244649e+00  2.0070710447942721e+00 
 1.8260431914839201e+00  1.6485417553262500e+00  1.4758944347164091e+00  1.3092845853909214e+00 
 1.1497426420264942e+00  9.9814113634108670e-01  8.5519309959649148e-01  7.2145355400851152e-01 
 5.9732371323484224e-01  4.8305759323802311e-01  3.7877058129570157e-01  2.8444963201872536e-01 
 1.9996473205329804e-01  1.2508129216690805e-01  5.9473143856179481e-02  2.7358376515465343e-03 
 -4.5600036064848658e-02  -8.6055755379497959e-02  -1.1919182500291761e-01  -1.4559597159799922e-01 
 -1.6587192917121979e-01  -1.8062913324285934e-01  -1.9047340982879762e-01  -1.9599871502517172e-01 
 -1.9777995382911531e-01  -1.9636688308787190e-01  -1.9227908321321949e-01  -1.8600196638910477e-01 
 -1.7798377515912256e-01  -1.6863351414973585e-01  -1.5831974888917796e-01  -1.4737019886561686e-01 
 -1.3607204683255905e-01  -1.2467288268324134e-01  -1.1338219782407494e-01  -1.0237334479225273e-01 
 -9.1785876849512615e-02  -8.1728183442111066e-02  -7.2280339758271236e-02  -6.3497092143847828e-02 
 -5.5410905830329656e-02  -4.8035007228160204e-02  -4.1366359836530912e-02  -3.5388520464243303e-02 
 -3.0074330749530167e-02  -2.5388407677986866e-02  -2.1289405666267986e-02  -1.7732031614770341e-02 
 -1.4668802617402086e-02  -1.2051544062336073e-02  -9.8326327524346519e-03  -7.9659958462608132e-03 
 -6.4078814516907801e-03  -5.1174206236091358e-03  -4.0570033012829014e-03  -3.1924924064260407e-03 
 -2.4933009862520570e-03  -1.9323570383328902e-03  -1.4859796305475470e-03  -1.1336882817191843e-03 
 -8.5796545282888347e-04  -6.4398957094090835e-04  -4.7935341331563542e-04  -3.5378004831843957e-04 
 -2.5884597368715733e-04  -1.8771870053916660e-04  -1.3491386954416691e-04  -9.6075097674452352e-05 
 -6.7778162810183277e-05  -4.7359844107363182e-05  -3.2770738088147092e-05  -2.2450641669650645e-05 
 -1.5224603883767909e-05  -1.0217462530719729e-05  -6.7845633469795979e-06  -4.4563710135641333e-06 
 -2.8947888213442475e-06  -1.8591768021610653e-06  -1.1802702324025530e-06  -7.4043054590797484e-07 
 -4.5889236420887213e-07  -2.8089160447153204e-07  -1.6976262539077902e-07  -1.0127234442635778e-07 
 -5.9614396971760627e-08  -3.4616639857316548e-08  -1.9822109908234733e-08  -1.1189213456446870e-08 
 -6.2241922094935875e-09  -3.4107106832035181e-09  -1.8404546522571764e-09  -9.7759558881656285e-10 
 -5.1094924331920573e-10  -2.6266774829288780e-10  -1.3275954644633880e-10  -6.5943647741290184e-11 
 -3.2176315909331626e-11  -1.5415574638864546e-11  -7.2486477289945397e-12  -3.3435278635257871e-12 
 -1.5120385344153093e-12  -6.7016851725666274e-13  -2.9103889467659163e-13  -1.2366153644342374e-13 
 -5.1413391189113398e-14  -2.0916948404870201e-14  -8.3210942964086773e-15  -3.2449506991868906e-15 
 -1.2143342086044362e-15  -4.4299456166749230e-16  -1.6141089051210743e-16  -7.3425267299380648e-17 
 -3.3359566035031526e-17  0.0000000000000000e+00  0.0000000000000000e+00  0.0000000000000000e+00 
 0.0000000000000000e+00  0.0000000000000000e+00  0.0000000000000000e+00  0.0000000000000000e+00 
 0.0000000000000000e+00  0.0000000000000000e+00  0.0000000000000000e+00  0.0000000000000000e+00 
 0.0000000000000000e+00  0.0000000000000000e+00  0.0000000000000000e+00  0.0000000000000000e+00 
 0.0000000000000000e+00  0.0000000000000000e+00  0.0000000000000000e+00  0.0000000000000000e+00 
 0.0000000000000000e+00  0.0000000000000000e+00  0.0000000000000000e+00  0.0000000000000000e+00 
 0.0000000000000000e+00  0.0000000000000000e+00  0.0000000000000000e+00  0.0000000000000000e+00 
 0.0000000000000000e+00  0.0000000000000000e+00  0.0000000000000000e+00  0.0000000000000000e+00 
 0.0000000000000000e+00  0.0000000000000000e+00  0.0000000000000000e+00  0.0000000000000000e+00 
 0.0000000000000000e+00  0.0000000000000000e+00  0.0000000000000000e+00  0.0000000000000000e+00 
 0.0000000000000000e+00  0.0000000000000000e+00  0.0000000000000000e+00  0.0000000000000000e+00 
 0.0000000000000000e+00  0.0000000000000000e+00  0.0000000000000000e+00  0.0000000000000000e+00 
 0.0000000000000000e+00  0.0000000000000000e+00  0.0000000000000000e+00  0.0000000000000000e+00 
 0.0000000000000000e+00  0.0000000000000000e+00  0.0000000000000000e+00  0.0000000000000000e+00 
 0.0000000000000000e+00  0.0000000000000000e+00  0.0000000000000000e+00  0.0000000000000000e+00 
 0.0000000000000000e+00  0.0000000000000000e+00  0.0000000000000000e+00  0.0000000000000000e+00 
 0.0000000000000000e+00  0.0000000000000000e+00  0.0000000000000000e+00  0.0000000000000000e+00 
 0.0000000000000000e+00  0.0000000000000000e+00  0.0000000000000000e+00  0.0000000000000000e+00 
 0.0000000000000000e+00  0.0000000000000000e+00  0.0000000000000000e+00  0.0000000000000000e+00 
 0.0000000000000000e+00  0.0000000000000000e+00  0.0000000000000000e+00  0.0000000000000000e+00 
 0.0000000000000000e+00  0.0000000000000000e+00  0.0000000000000000e+00  0.0000000000000000e+00 
 0.0000000000000000e+00  0.0000000000000000e+00  0.0000000000000000e+00  0.0000000000000000e+00 
 0.0000000000000000e+00  0.0000000000000000e+00  0.0000000000000000e+00  0.0000000000000000e+00 
 0.0000000000000000e+00  0.0000000000000000e+00  0.0000000000000000e+00  0.0000000000000000e+00 
 0.0000000000000000e+00  0.0000000000000000e+00  0.0000000000000000e+00  0.0000000000000000e+00 
 0.0000000000000000e+00  0.0000000000000000e+00  0.0000000000000000e+00  0.0000000000000000e+00 
 0.0000000000000000e+00  0.0000000000000000e+00  0.0000000000000000e+00  0.0000000000000000e+00 
 0.0000000000000000e+00  0.0000000000000000e+00  0.0000000000000000e+00  0.0000000000000000e+00 
 0.0000000000000000e+00  0.0000000000000000e+00  0.0000000000000000e+00  0.0000000000000000e+00 
 0.0000000000000000e+00  0.0000000000000000e+00  0.0000000000000000e+00  0.0000000000000000e+00 
 0.0000000000000000e+00  0.0000000000000000e+00  0.0000000000000000e+00  0.0000000000000000e+00 
 0.0000000000000000e+00  0.0000000000000000e+00  0.0000000000000000e+00  0.0000000000000000e+00 
 0.0000000000000000e+00  0.0000000000000000e+00  0.0000000000000000e+00  0.0000000000000000e+00 
 0.0000000000000000e+00  0.0000000000000000e+00  0.0000000000000000e+00  0.0000000000000000e+00 
 0.0000000000000000e+00  0.0000000000000000e+00  0.0000000000000000e+00  0.0000000000000000e+00 
 0.0000000000000000e+00  0.0000000000000000e+00  0.0000000000000000e+00  0.0000000000000000e+00 
 0.0000000000000000e+00  0.0000000000000000e+00  0.0000000000000000e+00  0.0000000000000000e+00 
 0.0000000000000000e+00  0.0000000000000000e+00  0.0000000000000000e+00  0.0000000000000000e+00 
 0.0000000000000000e+00  0.0000000000000000e+00  0.0000000000000000e+00  0.0000000000000000e+00 
 0.0000000000000000e+00  0.0000000000000000e+00  0.0000000000000000e+00  0.0000000000000000e+00 
 0.0000000000000000e+00  0.0000000000000000e+00  0.0000000000000000e+00  0.0000000000000000e+00 
 0.0000000000000000e+00  0.0000000000000000e+00  0.0000000000000000e+00  0.0000000000000000e+00 
 0.0000000000000000e+00  0.0000000000000000e+00  0.0000000000000000e+00  0.0000000000000000e+00 
 0.0000000000000000e+00  0.0000000000000000e+00  0.0000000000000000e+00  0.0000000000000000e+00 
 0.0000000000000000e+00  0.0000000000000000e+00  0.0000000000000000e+00  0.0000000000000000e+00 
 0.0000000000000000e+00  0.0000000000000000e+00  0.0000000000000000e+00  0.0000000000000000e+00 
 0.0000000000000000e+00  0.0000000000000000e+00  0.0000000000000000e+00  0.0000000000000000e+00 
 0.0000000000000000e+00  0.0000000000000000e+00  0.0000000000000000e+00  0.0000000000000000e+00 
 0.0000000000000000e+00  0.0000000000000000e+00  0.0000000000000000e+00  0.0000000000000000e+00 
 0.0000000000000000e+00  0.0000000000000000e+00  0.0000000000000000e+00  0.0000000000000000e+00 
 0.0000000000000000e+00  0.0000000000000000e+00  0.0000000000000000e+00  0.0000000000000000e+00 
 0.0000000000000000e+00  0.0000000000000000e+00  0.0000000000000000e+00  0.0000000000000000e+00 
 0.0000000000000000e+00  0.0000000000000000e+00  0.0000000000000000e+00  0.0000000000000000e+00 
 0.0000000000000000e+00  0.0000000000000000e+00  0.0000000000000000e+00  0.0000000000000000e+00 
 0.0000000000000000e+00  0.0000000000000000e+00  0.0000000000000000e+00  0.0000000000000000e+00 
 0.0000000000000000e+00  0.0000000000000000e+00  0.0000000000000000e+00  0.0000000000000000e+00 
 0.0000000000000000e+00  0.0000000000000000e+00  0.0000000000000000e+00  0.0000000000000000e+00 
 0.0000000000000000e+00  0.0000000000000000e+00  0.0000000000000000e+00  0.0000000000000000e+00 
 0.0000000000000000e+00  0.0000000000000000e+00  0.0000000000000000e+00  0.0000000000000000e+00 
 0.0000000000000000e+00  0.0000000000000000e+00  0.0000000000000000e+00  0.0000000000000000e+00 
 0.0000000000000000e+00  0.0000000000000000e+00  0.0000000000000000e+00  0.0000000000000000e+00 
 0.0000000000000000e+00  0.0000000000000000e+00  0.0000000000000000e+00  0.0000000000000000e+00 
 0.0000000000000000e+00  0.0000000000000000e+00  0.0000000000000000e+00  0.0000000000000000e+00 
 0.0000000000000000e+00  0.0000000000000000e+00  0.0000000000000000e+00  0.0000000000000000e+00 
 0.0000000000000000e+00  0.0000000000000000e+00  0.0000000000000000e+00  0.0000000000000000e+00 
 0.0000000000000000e+00  0.0000000000000000e+00  0.0000000000000000e+00  0.0000000000000000e+00 
 0.0000000000000000e+00  0.0000000000000000e+00  0.0000000000000000e+00  0.0000000000000000e+00 
 0.0000000000000000e+00  0.0000000000000000e+00  0.0000000000000000e+00  0.0000000000000000e+00 
 0.0000000000000000e+00  0.0000000000000000e+00  0.0000000000000000e+00 
  </PP_BETA>
  <PP_BETA>
  2  2      Beta    L
  1187  
 -1.0180058120284794e-12  -1.0584923956165032e-12  -1.1005891502261030e-12  -1.1443601131380257e-12 
 -1.1898718684266735e-12  -1.2371936482473264e-12  -1.2863974381516006e-12  -1.3375580865913549e-12 
 -1.3907534187776163e-12  -1.4460643550677395e-12  -1.5035750340608759e-12  -1.5633729405890021e-12 
 -1.6255490387982304e-12  -1.6901979105228099e-12  -1.7574178991623413e-12  -1.8273112592810543e-12 
 -1.8999843121567170e-12  -1.9755476075158069e-12  -2.0541160917009614e-12  -2.1358092825265402e-12 
 -2.2207514510882666e-12  -2.3090718108035299e-12  -2.4009047139699265e-12  -2.4963898561409953e-12 
 -2.5956724886301180e-12  -2.6989036394657699e-12  -2.8062403431342856e-12  -2.9178458794595946e-12 
 -3.0338900219833362e-12  -3.1545492962231532e-12  -3.2800072482020554e-12  -3.4104547236573233e-12 
 -3.5460901583536849e-12  -3.6871198799424006e-12  -3.8337584218253991e-12  -3.9862288495019749e-12 
 -4.1447630998944411e-12  -4.3096023341689278e-12  -4.4809973045880292e-12  -4.6592087359533766e-12 
 -4.8445077222183360e-12  -5.0371761388742434e-12  -5.2375070717373621e-12  -5.4458052627889731e-12 
 -5.6623875737467187e-12  -5.8875834680723812e-12  -6.1217355121494075e-12  -6.3651998963924193e-12 
 -6.6183469770815978e-12  -6.8815618397460040e-12  -7.1552448849529886e-12  -7.4398124373946970e-12 
 -7.7356973791982558e-12  -8.0433498084229947e-12  -8.3632377237464673e-12  -8.6958477363807106e-12 
 -9.0416858103018213e-12  -9.4012780319187824e-12  -9.7751714103523869e-12  -1.0163934709541724e-11 
 -1.0568159313443807e-11  -1.0988460125642767e-11  -1.1425476504736823e-11  -1.1879873236926108e-11 
 -1.2352341547280793e-11  -1.2843600151227816e-11  -1.3354396347855745e-11  -1.3885507156700948e-11 
 -1.4437740499744240e-11  -1.5011936430416257e-11  -1.5608968411480725e-11  -1.6229744643740060e-11 
 -1.6875209447584034e-11  -1.7546344699483410e-11  -1.8244171325613558e-11  -1.8969750854880330e-11 
 -1.9724187033710403e-11  -2.0508627505062777e-11  -2.1324265554215176e-11  -2.2172341923981405e-11 
 -2.3054146702120814e-11  -2.3971021283810790e-11  -2.4924360412167940e-11  -2.5915614299921584e-11 
 -2.6946290835467546e-11  -2.8017957876657536e-11  -2.9132245635813681e-11  -3.0290849159596459e-11 
 -3.1495530907498085e-11  -3.2748123432883737e-11  -3.4050532170659211e-11  -3.5404738335805722e-11 
 -3.6812801937190362e-11  -3.8276864911237836e-11  -3.9799154380229411e-11  -4.1381986040186444e-11 
 -4.3027767683491387e-11  -4.4739002861605218e-11  -4.6518294693453369e-11  -4.8368349825272242e-11 
 -5.0291982547941785e-11  -5.2292119078065471e-11  -5.4371802009311794e-11  -5.6534194940787228e-11 
 -5.8782587289482069e-11  -6.1120399294109892e-11  -6.3551187217951852e-11  -6.6078648758620821e-11 
 -6.8706628672974610e-11  -7.1439124625734900e-11  -7.4280293270708228e-11  -7.7234456573860933e-11 
 -8.0306108387865100e-11  -8.3499921288118222e-11  -8.6820753680634405e-11  -9.0273657192620005e-11 
 -9.3863884356976481e-11  -9.7596896602419235e-11  -1.0147837256136824e-10  -1.0551421670824711e-10 
 -1.0971056834133173e-10  -1.1407381092181213e-10  -1.1861058178427267e-10  -1.2332778223336363e-10 
 -1.2823258804202274e-10  -1.3333246036721545e-10  -1.3863515709980018e-10  -1.4414874466578430e-10 
 -1.4988161029692053e-10  -1.5584247478931282e-10  -1.6204040576943726e-10  -1.6848483148776036e-10 
 -1.7518555516093594e-10  -1.8215276988439887e-10  -1.8939707413804085e-10  -1.9692948790855374e-10 
 -2.0476146945296812e-10  -2.1290493272888543e-10  -2.2137226551792031e-10  -2.3017634826992073e-10 
 -2.3933057369663386e-10  -2.4884886714462108e-10  -2.5874570777841505e-10  -2.6903615060614203e-10 
 -2.7973584938111399e-10  -2.9086108041423067e-10  -3.0242876733341208e-10  -3.1445650682772733e-10 
 -3.2696259541538018e-10  -3.3996605727627404e-10  -3.5348667319148960e-10  -3.6754501063370238e-10 
 -3.8216245505431359e-10  -3.9736124241488530e-10  -4.1316449301236834e-10  -4.2959624664957874e-10 
 -4.4668149920442184e-10  -4.6444624065349443e-10  -4.8291749460790970e-10  -5.0212335942147525e-10 
 -5.2209305093377560e-10  -5.4285694691316325e-10  -5.6444663326727598e-10  -5.8689495209136907e-10 
 -6.1023605162755906e-10  -6.3450543821097363e-10  -6.5974003028182526e-10  -6.8597821454558063e-10 
 -7.1325990436665000e-10  -7.4162660048442365e-10  -7.7112145414401922e-10  -8.0178933273778295e-10 
 -8.3367688805737880e-10  -8.6683262726031177e-10  -9.0130698665882342e-10  -9.3715240844342103e-10 
 -9.7442342045774207e-10  -1.0131767191461094e-09  -1.0534712557999647e-09  -1.0953683262343692e-09 
 -1.1389316640309916e-09  -1.1842275374894297e-09  -1.2313248504343330e-09  -1.2802952470317002e-09 
 -1.3312132207737725e-09  -1.3841562277983191e-09  -1.4392048047147147e-09  -1.4964426911160170e-09 
 -1.5559569569634336e-09  -1.6178381350369412e-09  -1.6821803586535543e-09  -1.7490815048627316e-09 
 -1.8186433433367542e-09  -1.8909716911825709e-09  -1.9661765739106065e-09  -2.0443723928054006e-09 
 -2.1256780989526895e-09  -2.2102173741876522e-09  -2.2981188192395948e-09  -2.3895161493592637e-09 
 -2.4845483977263874e-09  -2.5833601269468768e-09  -2.6861016489614116e-09  -2.7929292536999333e-09 
 -2.9040054468298849e-09  -3.0194991969598692e-09  -3.1395861926747515e-09  -3.2644491097932456e-09 
 -3.3942778892545125e-09  -3.5292700260565025e-09  -3.6696308696855889e-09  -3.8155739364944996e-09 
 -3.9673212345037521e-09  -4.1251036011206664e-09  -4.2891610542897401e-09  -4.4597431576084932e-09 
 -4.6371093999642945e-09  -4.8215295902695823e-09  -5.0132842678960670e-09  -5.2126651294321467e-09 
 -5.4199754724128817e-09  -5.6355306566973845e-09  -5.8596585841956122e-09  -6.0927001976742460e-09 
 -6.3350099994005108e-09  -6.5869565904128790e-09  -6.8489232312390021e-09  -7.1213084249139070e-09 
 -7.4045265231852609e-09  -7.6990083568280304e-09  -8.0052018910272057e-09  -8.3235729068257457e-09 
 -8.6546057096742814e-09  -8.9988038661604915e-09  -9.3566909700388794e-09  -9.7288114387262604e-09 
 -1.0115731341474626e-08  -1.0518039260481208e-08  -1.0936347186245748e-08  -1.1371291448536983e-08 
 -1.1823533684384584e-08  -1.2293761844569108e-08  -1.2782691240141047e-08  -1.3291065630561087e-08 
 -1.3819658355116751e-08  -1.4369273509336739e-08  -1.4940747168192490e-08  -1.5534948657947840e-08 
 -1.6152781878591471e-08  -1.6795186678864103e-08  -1.7463140285971942e-08  -1.8157658792161534e-08 
 -1.8879798700417489e-08  -1.9630658531634408e-08  -2.0411380495707942e-08  -2.1223152229087171e-08 
 -2.2067208601431779e-08  -2.2944833594122046e-08  -2.3857362253479777e-08  -2.4806182721671246e-08 
 -2.5792738348381915e-08  -2.6818529886475373e-08  -2.7885117774976495e-08  -2.8994124512852262e-08 
 -3.0147237127200861e-08  -3.1346209739604717e-08  -3.2592866234550666e-08  -3.3889103033977631e-08 
 -3.5236891982171953e-08  -3.6638283345399741e-08  -3.8095408930839097e-08  -3.9610485329557585e-08 
 -4.1185817288468016e-08  -4.2823801216392506e-08  -4.4526928829568924e-08  -4.6297790942145213e-08 
 -4.8139081407428374e-08  -5.0053601215884275e-08  -5.2044262756122043e-08  -5.4114094245346012e-08 
 -5.6266244336015291e-08  -5.8503986905718806e-08  -6.0830726037553400e-08  -6.3250001198581744e-08 
 -6.5765492624247908e-08  -6.8381026916942570e-08  -7.1100582867235479e-08  -7.3928297506630514e-08 
 -7.6868472401052884e-08  -7.9925580194642436e-08  -8.3104271413808673e-08  -8.6409381541899501e-08 
 -8.9845938375246855e-08  -9.3419169671779860e-08  -9.7134511103843198e-08  -1.0099761452731996e-07 
 -1.0501435657963812e-07  -1.0919084761974456e-07  -1.1353344102364515e-07  -1.1804874284965507e-07 
 -1.2274362188806434e-07  -1.2762522011050726e-07  -1.3270096353493576e-07  -1.3797857352272492e-07 
 -1.4346607852510059e-07  -1.4917182629676002e-07  -1.5510449659526814e-07  -1.6127311438555135e-07 
 -1.6768706356957947e-07  -1.7435610126212525e-07  -1.8129037263432207e-07  -1.8850042634760415e-07 
 -1.9599723060151271e-07  -2.0379218981978525e-07  -2.1189716200011550e-07  -2.2032447675398327e-07 
 -2.2908695406400267e-07  -2.3819792378732878e-07  -2.4767124593479907e-07  -2.5752133175666496e-07 
 -2.6776316566699811e-07  -2.7841232804013262e-07  -2.8948501891382776e-07  -3.0099808263522080e-07 
 -3.1296903348707207e-07  -3.2541608233329363e-07  -3.3835816432431137e-07  -3.5181496770441440e-07 
 -3.6580696376493043e-07  -3.8035543798880558e-07  -3.9548252243398097e-07  -4.1121122940484686e-07 
 -4.2756548646301044e-07  -4.4457017283065652e-07  -4.6225115724189918e-07  -4.8063533729972300e-07 
 -4.9975068039841210e-07  -5.1962626627373644e-07  -5.4029233124565529e-07  -5.6178031422086587e-07 
 -5.8412290452520523e-07  -6.0735409163870489e-07  -6.3150921690898471e-07  -6.5662502732169309e-07 
 -6.8273973140982531e-07  -7.0989305738701664e-07  -7.3812631359328234e-07  -7.6748245134520196e-07 
 -7.9800613028621627e-07  -8.2974378633648721e-07  -8.6274370234576143e-07  -8.9705608155676109e-07 
 -9.3273312399093248e-07  -9.6982910587281666e-07  -1.0084004622139378e-06  -1.0485058726819197e-06 
 -1.0902063508855339e-06  -1.1335653372116064e-06  -1.1786487953550859e-06  -1.2255253126892338e-06 
 -1.2742662046287304e-06  -1.3249456231445597e-06  -1.3776406695959010e-06  -1.4324315120507690e-06 
 -1.4894015072740439e-06  -1.5486373275686036e-06  -1.6102290926626717e-06  -1.6742705068441909e-06 
 -1.7408590015510169e-06  -1.8100958836340368e-06  -1.8820864895189845e-06  -1.9569403455016599e-06 
 -2.0347713344206708e-06  -2.1156978689614826e-06  -2.1998430718556868e-06  -2.2873349632499145e-06 
 -2.3783066555297228e-06  -2.4728965558951753e-06  -2.5712485769966195e-06  -2.6735123559514797e-06 
 -2.7798434820756392e-06  -2.8904037336762823e-06  -3.0053613242668683e-06  -3.1248911585792683e-06 
 -3.2491750987630804e-06  -3.3784022411776022e-06  -3.5127692041981364e-06  -3.6524804274750881e-06 
 -3.7977484831017916e-06  -3.9487943991651307e-06  -4.1058479961719568e-06  -4.2691482368638859e-06 
 -4.4389435899535418e-06  -4.6154924083365064e-06  -4.7990633223553236e-06  -4.9899356487149153e-06 
 -5.1883998156725831e-06  -5.3947578051506632e-06  -5.6093236124456862e-06  -5.8324237242347869e-06 
 -6.0643976156079920e-06  -6.3055982668841166e-06  -6.5563927009981426e-06  -6.8171625422794290e-06 
 -7.0883045974726444e-06  -7.3702314598875008e-06  -7.6633721375983900e-06  -7.9681727066520537e-06 
 -8.2850969902794666e-06  -8.6146272651477274e-06  -8.9572649957294402e-06  -9.3135315979095847e-06 
 -9.6839692329948937e-06  -1.0069141633337028e-05  -1.0469634960829308e-05  -1.0886058699586913e-05 
 -1.1319046584172735e-05  -1.1769257564785562e-05  -1.2237376810883590e-05  -1.2724116754775246e-05 
 -1.3230218176770338e-05  -1.3756451333548200e-05  -1.4303617131465554e-05  -1.4872548346595755e-05 
 -1.5464110893362441e-05  -1.6079205143705147e-05  -1.6718767298791688e-05  -1.7383770815372891e-05 
 -1.8075227888958459e-05  -1.8794190996080405e-05  -1.9541754498000571e-05  -2.0319056308313067e-05 
 -2.1127279626990636e-05  -2.1967654743525539e-05  -2.2841460911921579e-05  -2.3750028300404305e-05 
 -2.4694740018830839e-05  -2.5677034226900057e-05  -2.6698406326388203e-05  -2.7760411240763362e-05 
 -2.8864665785667185e-05  -3.0012851133891248e-05  -3.1206715378620856e-05  -3.2448076198870318e-05 
 -3.3738823631190283e-05  -3.5080922951891823e-05  -3.6476417674201297e-05  -3.7927432664937506e-05 
 -3.9436177385485837e-05  -4.1004949262036349e-05  -4.2636137190250882e-05  -4.4332225179732115e-05 
 -4.6095796143882718e-05  -4.7929535840966089e-05  -4.9836236972415312e-05  -5.1818803444676347e-05 
 -5.3880254801127916e-05  -5.6023730830878537e-05  -5.8252496361518514e-05  -6.0569946243185927e-05 
 -6.2979610531602157e-05  -6.5485159878041511e-05  -6.8090411134516724e-05  -7.0799333182798053e-05 
 -7.3616052996227952e-05  -7.6544861943655289e-05  -7.9590222345187497e-05  -8.2756774289848849e-05 
 -8.6049342725641367e-05  -8.9472944832924139e-05  -9.3032797692470143e-05  -9.6734326260014596e-05 
 -1.0058317165958703e-04  -1.0458519980841279e-04  -1.0874651038668878e-04  -1.1307344616607110e-04 
 -1.1757260271127339e-04  -1.2225083846975591e-04  -1.2711528526508962e-04  -1.3217335921020964e-04 
 -1.3743277205742802e-04  -1.4290154300275850e-04  -1.4858801096281451e-04  -1.5450084734328377e-04 
 -1.6064906931874772e-04  -1.6704205364442067e-04  -1.7368955102121134e-04  -1.8060170103638277e-04 
 -1.8778904770298604e-04  -1.9526255562218585e-04  -2.0303362679357587e-04  -2.1111411809959809e-04 
 -2.1951635949124781e-04  -2.2825317290334373e-04  -2.3733789192879930e-04  -2.4678438228252747e-04 
 -2.5660706308685860e-04  -2.6682092901164997e-04  -2.7744157330362036e-04  -2.8848521174085011e-04 
 -2.9996870754985514e-04  -3.1190959732417192e-04  -3.2432611798498072e-04  -3.3723723482595501e-04 
 -3.5066267068624521e-04  -3.6462293629731392e-04  -3.7913936185119898e-04  -3.9423412983974679e-04 
 -4.0993030921638066e-04  -4.2625189093408784e-04  -4.4322382491552426e-04  -4.6087205851341913e-04 
 -4.7922357652187264e-04  -4.9830644280162166e-04  -5.1814984358495826e-04  -5.3878413252868957e-04 
 -5.6024087758635140e-04  -5.8255290977383414e-04  -6.0575437390563900e-04  -6.2988078138218767e-04 
 -6.5496906511192479e-04  -6.8105763665544331e-04  -7.0818644568246259e-04  -7.3639704183627161e-04 
 -7.6573263910418557e-04  -7.9623818279664534e-04  -8.2796041924188555e-04  -8.6094796830753423e-04 
 -8.9525139886516779e-04  -9.3092330731866753e-04  -9.6801839932230337e-04  -1.0065935748197071e-03 
 -1.0467080165404167e-03  -1.0884232820963806e-03  -1.1318033998267947e-03  -1.1769149685458744e-03 
 -1.2238272613546606e-03  -1.2726123336847396e-03  -1.3233451357488200e-03  -1.3761036295804995e-03 
 -1.4309689108532345e-03  -1.4880253356765601e-03  -1.5473606525759826e-03  -1.6090661398717122e-03 
 -1.6732367486804911e-03  -1.7399712517743296e-03  -1.8093723985398533e-03  -1.8815470762923437e-03 
 -1.9566064782093368e-03  -2.0346662781599726e-03  -2.1158468127180021e-03  -2.2002732706586925e-03 
 -2.2880758902526581e-03  -2.3793901646830631e-03  -2.4743570559265641e-03  -2.5731232174529767e-03 
 -2.6758412261138620e-03  -2.7826698236060746e-03  -2.8937741679129383e-03  -3.0093260951430008e-03 
 -3.1295043922043436e-03  -3.2544950807713558e-03  -3.3844917130204494e-03  -3.5196956796318384e-03 
 -3.6603165305758570e-03  -3.8065723092246943e-03  -3.9586899003538050e-03  -4.1169053926215634e-03 
 -4.2814644561411756e-03  -4.4526227357854923e-03  -4.6306462608928928e-03  -4.8158118720714547e-03 
 -5.0084076658287111e-03  -5.2087334577857651e-03  -5.4171012652673078e-03  -5.6338358100933650e-03 
 -5.8592750424343006e-03  -6.0937706866277192e-03  -6.3376888098949039e-03  -6.5914104149347045e-03 
 -6.8553320574151182e-03  -7.1298664894266220e-03  -7.4154433300072879e-03  -7.7125097638972287e-03 
 -8.0215312697297404e-03  -8.3429923789182497e-03  -8.6773974665518960e-03  -9.0252715756688803e-03 
 -9.3871612763345852e-03  -9.7636355610126891e-03  -1.0155286777779920e-02  -1.0562731603001006e-02 
 -1.0986612055148243e-02  -1.1427596551520647e-02  -1.1886381009691084e-02  -1.2363689995585665e-02 
 -1.2860277920178409e-02  -1.3376930286865766e-02  -1.3914464991670131e-02  -1.4473733678508443e-02 
 -1.5055623151852644e-02  -1.5661056849201382e-02  -1.6290996375878830e-02  -1.6946443104775090e-02 
 -1.7628439843744754e-02  -1.8338072573484573e-02  -1.9076472258818731e-02  -1.9844816736430290e-02 
 -2.0644332682189563e-02  -2.1476297661345744e-02  -2.2342042264964324e-02  -2.3242952336112670e-02 
 -2.4180471289416142e-02  -2.5156102527729405e-02  -2.6171411959790409e-02  -2.7228030622847559e-02 
 -2.8327657414374468e-02  -2.9472061937108288e-02  -3.0663087461770003e-02  -3.1902654011942762e-02 
 -3.3192761575701418e-02  -3.4535493448697253e-02  -3.5933019713509207e-02  -3.7387600860171885e-02 
 -3.8901591552882919e-02  -4.0477444547974556e-02  -4.2117714768303074e-02  -4.3825063539268391e-02 
 -4.5602262991714451e-02  -4.7452200636983868e-02  -4.9377884119399813e-02  -5.1382446151423296e-02 
 -5.3469149636679592e-02  -5.5641392985962948e-02  -5.7902715631203736e-02  -6.0256803742218402e-02 
 -6.2707496150848849e-02  -6.5258790486832863e-02  -6.7914849529420035e-02  -7.0680007778354745e-02 
 -7.3558778247378540e-02  -7.6555859482850430e-02  -7.9676142809436815e-02  -8.2924719804070027e-02 
 -8.6306889998506373e-02  -8.9828168809815284e-02  -9.3494295696993246e-02  -9.7311242540591467e-02 
 -1.0128522224077668e-01  -1.0542269752757301e-01  -1.0973038997515235e-01  -1.1421528920992494e-01 
 -1.1888466229980926e-01  -1.2374606330940055e-01  -1.2880734300279453e-01  -1.3407665867251320e-01 
 -1.3956248406930044e-01  -1.4527361940347577e-01  -1.5121920138400319e-01  -1.5740871325642644e-01 
 -1.6385199479529189e-01  -1.7055925220057447e-01  -1.7754106784091428e-01  -1.8480840977907739e-01 
 -1.9237264100695933e-01  -2.0024552830856227e-01  -2.0843925065966287e-01  -2.1696640706226883e-01 
 -2.2584002370038445e-01  -2.3507356029099669e-01  -2.4468091549048138e-01  -2.5467643120175631e-01 
 -2.6507489561138697e-01  -2.7589154476841732e-01  -2.8714206249789126e-01  -2.9884257842175516e-01 
 -3.1100966383805057e-01  -3.2366032518593929e-01  -3.3681199479908791e-01  -3.5048251862326357e-01 
 -3.6469014054555798e-01  -3.7945348295250769e-01  -3.9479152310245103e-01  -4.1072356486380018e-01 
 -4.2726920533553325e-01  -4.4444829582919565e-01  -4.6228089665313427e-01  -4.8078722509972249e-01 
 -4.9998759599514431e-01  -5.1990235412912034e-01  -5.4055179783911433e-01  -5.6195609298037774e-01 
 -5.8413517647015412e-01  -6.0710864855202418e-01  -6.3089565288531280e-01  -6.5551474352555883e-01 
 -6.8098373782602506e-01  -7.0731955425822868e-01  -7.3453803412261987e-01  -7.6265374610017533e-01 
 -7.9167977258334832e-01  -8.2162747672221503e-01  -8.5250624913073103e-01  -8.8432323322087369e-01 
 -9.1708302817148013e-01  -9.5078736859643020e-01  -9.8543478005623664e-01  -1.0210202096612713e+00 
 -1.0575346311470359e+00  -1.0949646239656252e+00  -1.1332919261366179e+00  -1.1724929608389607e+00 
 -1.2125383370069884e+00  -1.2533923245228884e+00  -1.2950123049785445e+00  -1.3373481994161398e+00 
 -1.3803418749529723e+00  -1.4239265327552966e+00  -1.4680260804519070e+00  -1.5125544927732149e+00 
 -1.5574151649675843e+00  -1.6025002643845507e+00  -1.6476900865237400e+00  -1.6928524228270059e+00 
 -1.7378419485356915e+00  -1.7824996400390662e+00  -1.8266522322956902e+00  -1.8701117281053485e+00 
 -1.9126749722311229e+00  -1.9541233046011899e+00  -1.9942223080361885e+00  -2.0327216671252391e+00 
 -2.0693551559806260e+00  -2.1038407736040265e+00  -2.1358810464556117e+00  -2.1651635184874674e+00 
 -2.1913614493357896e+00  -2.2141347415089632e+00  -2.2331311172045130e+00  -2.2479875647770835e+00 
 -2.2583320738005876e+00  -2.2637856760579091e+00  -2.2639648075899306e+00  -2.2584840040830954e+00 
 -2.2469589383179094e+00  -2.2290098040937947e+00  -2.2042650459524662e+00  -2.1723654281219229e+00 
 -2.1329684293902398e+00  -2.0857529431117530e+00  -2.0304242532869097e+00  -1.9667192487153333e+00 
 -1.8944118277027222e+00  -1.8133184358497485e+00  -1.7233036692509052e+00  -1.6242858652141594e+00 
 -1.5162425926586371e+00  -1.3992159449893027e+00  -1.2733175298656987e+00  -1.1387330433054081e+00 
 -9.9572631045877946e-01  -8.4464267264909298e-01  -6.8591160037856780e-01  -5.2004841540325819e-01 
 -3.4765501203677235e-01  -1.6941947876266494e-01  1.3885463993468404e-02  2.0140527574989839e-01 
 3.9220770206089239e-01  5.8528819609931748e-01  7.7957665296965073e-01  9.7394543050434668e-01 
 1.1672186086183134e+00  1.3581824203306698e+00  1.5455967716102526e+00  1.7282077537719154e+00 
 1.9047610399132471e+00  2.0740160437795403e+00  2.2347607029998224e+00  2.3858267264161110e+00 
 2.5261051154727139e+00  2.6545617319979304e+00  2.7702526410199200e+00  2.8723389119996003e+00 
 2.9601005220241898e+00  3.0329489783838204e+00  3.0904382730051365e+00  3.1322738016472416e+00 
 3.1583189260371722e+00  3.1685989222030120e+00  3.1633021355416795e+00  3.1427782449788468e+00 
 3.1075336191853933e+00  3.0582238240916531e+00  2.9956434121212903e+00  2.9207131904685268e+00 
 2.8344652299341280e+00  2.7380259387457611e+00  2.6325975875667398e+00  2.5194387300345076e+00 
 2.3998440114712305e+00  2.2751238874374367e+00  2.1465847736685437e+00  2.0155101139027911e+00 
 1.8831427845993183e+00  1.7506691667302787e+00  1.6192051225172768e+00  1.4897840354046372e+00 
 1.3633469352889196e+00  1.2407348850243636e+00  1.1226834836413750e+00  1.0098195174611351e+00 
 9.0265969178398686e-01  8.0161134557636859e-01  7.0697501935090834e-01  6.1894871173905563e-01 
 5.3763362820883021e-01  4.6304119883178052e-01  3.9510112295801253e-01  3.3367018821509931e-01 
 2.7854160964071401e-01  2.2945464152368392e-01  1.8610422869444010e-01  1.4815048429722860e-01 
 1.1522780606025540e-01  8.6953471295265664e-02  6.2935580899362714e-02  4.2780253213598983e-02 
 2.6097998588306987e-02  1.2509233970902213e-02  1.6489230174058156e-03  -6.8296494225561300e-03 
 -1.3251939459174498e-02  -1.7919997240974126e-02  -2.1111051986321464e-02  -2.3076760129168081e-02 
 -2.4043041086865353e-02  -2.4210421458797191e-02  -2.3754807402289344e-02  -2.2828606153235127e-02 
 -2.1562120789312324e-02  -2.0065146998630098e-02  -1.8428706450826466e-02  -1.6726858027505221e-02 
 -1.5018535339199685e-02  -1.3349366357081656e-02  -1.1753438377173455e-02  -1.0254978710253259e-02 
 -8.8699282892396297e-03  -7.6073916821552011e-03  -6.4709527032352013e-03  -5.4598498691209247e-03 
 -4.5700103220073507e-03  -3.7949445311319884e-03  -3.1265071019670079e-03  -2.5555313988409249e-03 
 -2.0723474634453975e-03  -1.6671939395222274e-03  -1.3305354494976482e-03  -1.0532971730420797e-03 
 -8.2702831146573271e-04  -6.4400574832740613e-04  -4.9728859583467839e-04  -3.8073350655381697e-04 
 -2.8897968541167178e-04  -2.1741150832436251e-04  -1.6210558600618575e-04  -1.1976804498419795e-04 
 -8.7666765611890967e-05  -6.3562347050029054e-05  -4.5640682239212041e-05  -3.2449236989559779e-05 
 -2.2838444849973326e-05  -1.5909056602456269e-05  -1.0965818786497951e-05  -7.4774932319542450e-06 
 -5.0429610727696760e-06  -3.3629686739510168e-06  -2.2169572467549315e-06  -1.4443598867723694e-06 
 -9.2973684040308412e-07  -5.9114041175041581e-07  -3.7114465226456446e-07  -2.3003297911580598e-07 
 -1.4070194030391874e-07  -8.4905961044012914e-08  -5.0531897737428382e-08  -2.9651023436768796e-08 
 -1.7148012302352529e-08  -9.7709575523592539e-09  -5.4834605932875838e-09  -3.0297552708585882e-09 
 -1.6475234328989722e-09  -8.8137189043157473e-10  -4.6367820528781471e-10  -2.3978770986717438e-10 
 -1.2184533428322274e-10  -6.0809401425566064e-11  -2.9793843593175337e-11  -1.4323964050968234e-11 
 -6.7540921986246277e-12  -3.1225305102241579e-12  -1.4147180487952075e-12  -6.2726969564474387e-13 
 -2.7231798686397666e-13  -1.1542370931889162e-13  -4.7842760403411542e-14  -1.9763138145458386e-14 
 -7.7292236632352021e-15  -2.9485181818704164e-15  -1.1241057758851256e-15  -5.3536904509663066e-16 
 -2.5481751105096987e-16  0.0000000000000000e+00  0.0000000000000000e+00  0.0000000000000000e+00 
 0.0000000000000000e+00  0.0000000000000000e+00  0.0000000000000000e+00  0.0000000000000000e+00 
 0.0000000000000000e+00  0.0000000000000000e+00  0.0000000000000000e+00  0.0000000000000000e+00 
 0.0000000000000000e+00  0.0000000000000000e+00  0.0000000000000000e+00  0.0000000000000000e+00 
 0.0000000000000000e+00  0.0000000000000000e+00  0.0000000000000000e+00  0.0000000000000000e+00 
 0.0000000000000000e+00  0.0000000000000000e+00  0.0000000000000000e+00  0.0000000000000000e+00 
 0.0000000000000000e+00  0.0000000000000000e+00  0.0000000000000000e+00  0.0000000000000000e+00 
 0.0000000000000000e+00  0.0000000000000000e+00  0.0000000000000000e+00  0.0000000000000000e+00 
 0.0000000000000000e+00  0.0000000000000000e+00  0.0000000000000000e+00  0.0000000000000000e+00 
 0.0000000000000000e+00  0.0000000000000000e+00  0.0000000000000000e+00  0.0000000000000000e+00 
 0.0000000000000000e+00  0.0000000000000000e+00  0.0000000000000000e+00  0.0000000000000000e+00 
 0.0000000000000000e+00  0.0000000000000000e+00  0.0000000000000000e+00  0.0000000000000000e+00 
 0.0000000000000000e+00  0.0000000000000000e+00  0.0000000000000000e+00  0.0000000000000000e+00 
 0.0000000000000000e+00  0.0000000000000000e+00  0.0000000000000000e+00  0.0000000000000000e+00 
 0.0000000000000000e+00  0.0000000000000000e+00  0.0000000000000000e+00  0.0000000000000000e+00 
 0.0000000000000000e+00  0.0000000000000000e+00  0.0000000000000000e+00  0.0000000000000000e+00 
 0.0000000000000000e+00  0.0000000000000000e+00  0.0000000000000000e+00  0.0000000000000000e+00 
 0.0000000000000000e+00  0.0000000000000000e+00  0.0000000000000000e+00  0.0000000000000000e+00 
 0.0000000000000000e+00  0.0000000000000000e+00  0.0000000000000000e+00  0.0000000000000000e+00 
 0.0000000000000000e+00  0.0000000000000000e+00  0.0000000000000000e+00  0.0000000000000000e+00 
 0.0000000000000000e+00  0.0000000000000000e+00  0.0000000000000000e+00  0.0000000000000000e+00 
 0.0000000000000000e+00  0.0000000000000000e+00  0.0000000000000000e+00  0.0000000000000000e+00 
 0.0000000000000000e+00  0.0000000000000000e+00  0.0000000000000000e+00  0.0000000000000000e+00 
 0.0000000000000000e+00  0.0000000000000000e+00  0.0000000000000000e+00  0.0000000000000000e+00 
 0.0000000000000000e+00  0.0000000000000000e+00  0.0000000000000000e+00  0.0000000000000000e+00 
 0.0000000000000000e+00  0.0000000000000000e+00  0.0000000000000000e+00  0.0000000000000000e+00 
 0.0000000000000000e+00  0.0000000000000000e+00  0.0000000000000000e+00  0.0000000000000000e+00 
 0.0000000000000000e+00  0.0000000000000000e+00  0.0000000000000000e+00  0.0000000000000000e+00 
 0.0000000000000000e+00  0.0000000000000000e+00  0.0000000000000000e+00  0.0000000000000000e+00 
 0.0000000000000000e+00  0.0000000000000000e+00  0.0000000000000000e+00  0.0000000000000000e+00 
 0.0000000000000000e+00  0.0000000000000000e+00  0.0000000000000000e+00  0.0000000000000000e+00 
 0.0000000000000000e+00  0.0000000000000000e+00  0.0000000000000000e+00  0.0000000000000000e+00 
 0.0000000000000000e+00  0.0000000000000000e+00  0.0000000000000000e+00  0.0000000000000000e+00 
 0.0000000000000000e+00  0.0000000000000000e+00  0.0000000000000000e+00  0.0000000000000000e+00 
 0.0000000000000000e+00  0.0000000000000000e+00  0.0000000000000000e+00  0.0000000000000000e+00 
 0.0000000000000000e+00  0.0000000000000000e+00  0.0000000000000000e+00  0.0000000000000000e+00 
 0.0000000000000000e+00  0.0000000000000000e+00  0.0000000000000000e+00  0.0000000000000000e+00 
 0.0000000000000000e+00  0.0000000000000000e+00  0.0000000000000000e+00  0.0000000000000000e+00 
 0.0000000000000000e+00  0.0000000000000000e+00  0.0000000000000000e+00  0.0000000000000000e+00 
 0.0000000000000000e+00  0.0000000000000000e+00  0.0000000000000000e+00  0.0000000000000000e+00 
 0.0000000000000000e+00  0.0000000000000000e+00  0.0000000000000000e+00  0.0000000000000000e+00 
 0.0000000000000000e+00  0.0000000000000000e+00  0.0000000000000000e+00  0.0000000000000000e+00 
 0.0000000000000000e+00  0.0000000000000000e+00  0.0000000000000000e+00  0.0000000000000000e+00 
 0.0000000000000000e+00  0.0000000000000000e+00  0.0000000000000000e+00  0.0000000000000000e+00 
 0.0000000000000000e+00  0.0000000000000000e+00  0.0000000000000000e+00  0.0000000000000000e+00 
 0.0000000000000000e+00  0.0000000000000000e+00  0.0000000000000000e+00  0.0000000000000000e+00 
 0.0000000000000000e+00  0.0000000000000000e+00  0.0000000000000000e+00  0.0000000000000000e+00 
 0.0000000000000000e+00  0.0000000000000000e+00  0.0000000000000000e+00  0.0000000000000000e+00 
 0.0000000000000000e+00  0.0000000000000000e+00  0.0000000000000000e+00  0.0000000000000000e+00 
 0.0000000000000000e+00  0.0000000000000000e+00  0.0000000000000000e+00  0.0000000000000000e+00 
 0.0000000000000000e+00  0.0000000000000000e+00  0.0000000000000000e+00  0.0000000000000000e+00 
 0.0000000000000000e+00  0.0000000000000000e+00  0.0000000000000000e+00  0.0000000000000000e+00 
 0.0000000000000000e+00  0.0000000000000000e+00  0.0000000000000000e+00  0.0000000000000000e+00 
 0.0000000000000000e+00  0.0000000000000000e+00  0.0000000000000000e+00  0.0000000000000000e+00 
 0.0000000000000000e+00  0.0000000000000000e+00  0.0000000000000000e+00  0.0000000000000000e+00 
 0.0000000000000000e+00  0.0000000000000000e+00  0.0000000000000000e+00  0.0000000000000000e+00 
 0.0000000000000000e+00  0.0000000000000000e+00  0.0000000000000000e+00  0.0000000000000000e+00 
 0.0000000000000000e+00  0.0000000000000000e+00  0.0000000000000000e+00  0.0000000000000000e+00 
 0.0000000000000000e+00  0.0000000000000000e+00  0.0000000000000000e+00  0.0000000000000000e+00 
 0.0000000000000000e+00  0.0000000000000000e+00  0.0000000000000000e+00  0.0000000000000000e+00 
 0.0000000000000000e+00  0.0000000000000000e+00  0.0000000000000000e+00  0.0000000000000000e+00 
 0.0000000000000000e+00  0.0000000000000000e+00  0.0000000000000000e+00  0.0000000000000000e+00 
 0.0000000000000000e+00  0.0000000000000000e+00  0.0000000000000000e+00  0.0000000000000000e+00 
 0.0000000000000000e+00  0.0000000000000000e+00  0.0000000000000000e+00  0.0000000000000000e+00 
 0.0000000000000000e+00  0.0000000000000000e+00  0.0000000000000000e+00  0.0000000000000000e+00 
 0.0000000000000000e+00  0.0000000000000000e+00  0.0000000000000000e+00  0.0000000000000000e+00 
 0.0000000000000000e+00  0.0000000000000000e+00  0.0000000000000000e+00  0.0000000000000000e+00 
 0.0000000000000000e+00  0.0000000000000000e+00  0.0000000000000000e+00  0.0000000000000000e+00 
 0.0000000000000000e+00  0.0000000000000000e+00  0.0000000000000000e+00 
  </PP_BETA>
  <PP_DIJ>
 2   Number of nonzero Dij
 1 1 1.8262997355611001e+00 
 2 2 3.0402094553366465e+00 
  </PP_DIJ>
</PP_NONLOCAL>
<PP_PSWFC>
S    0   2.00          Wavefunction
 1.0098811005565446e-08  1.0230952632332014e-08  1.0364823315722647e-08  1.0500445680252310e-08 
 1.0637842646476271e-08  1.0777037434863818e-08  1.0918053569722635e-08  1.1060914883174585e-08 
 1.1205645519183459e-08  1.1352269937635472e-08  1.1500812918473133e-08  1.1651299565883213e-08 
 1.1803755312539526e-08  1.1958205923901223e-08  1.2114677502567313e-08  1.2273196492688205e-08 
 1.2433789684434944e-08  1.2596484218526943e-08  1.2761307590818963e-08  1.2928287656948122e-08 
 1.3097452637041699e-08  1.3268831120486556e-08  1.3442452070760978e-08  1.3618344830329716e-08 
 1.3796539125603117e-08  1.3977065071961121e-08  1.4159953178843022e-08  1.4345234354903833e-08 
 1.4532939913238097e-08  1.4723101576672099e-08  1.4915751483125308e-08  1.5110922191041975e-08 
 1.5308646684893826e-08  1.5508958380754760e-08  1.5711891131948490e-08  1.5917479234770084e-08 
 1.6125757434282412e-08  1.6336760930188401e-08  1.6550525382780179e-08  1.6767086918966037e-08 
 1.6986482138376291e-08  1.7208748119549020e-08  1.7433922426196781e-08  1.7662043113555302e-08 
 1.7893148734815314e-08  1.8127278347638452e-08  1.8364471520758555e-08  1.8604768340669252e-08 
 1.8848209418399112e-08  1.9094835896375462e-08  1.9344689455378007e-08  1.9597812321583464e-08 
 1.9854247273702418e-08  2.0114037650209502e-08  2.0377227356668290e-08  2.0643860873151970e-08 
 2.0913983261761201e-08  2.1187640174240307e-08  2.1464877859693176e-08  2.1745743172400115e-08 
 2.2030283579737050e-08  2.2318547170198305e-08  2.2610582661524449e-08  2.2906439408936444e-08 
 2.3206167413477634e-08  2.3509817330464857e-08  2.3817440478050184e-08  2.4129088845894712e-08 
 2.4444815103955886e-08  2.4764672611389809e-08  2.5088715425570091e-08  2.5416998311224735e-08 
 2.5749576749692585e-08  2.6086506948300959e-08  2.6427845849866005e-08  2.6773651142317394e-08 
 2.7123981268449029e-08  2.7478895435797330e-08  2.7838453626648805e-08  2.8202716608178692e-08 
 2.8571745942722230e-08  2.8945603998180411e-08  2.9324353958561910e-08  2.9708059834663003e-08 
 3.0096786474887340e-08  3.0490599576207264e-08  3.0889565695268669e-08  3.1293752259641184e-08 
 3.1703227579215654e-08  3.2118060857750795e-08  3.2538322204571017e-08  3.2964082646417366e-08 
 3.3395414139453581e-08  3.3832389581429392e-08  3.4275082824002943e-08  3.4723568685224649e-08 
 3.5177922962184384e-08  3.5638222443824256e-08  3.6104544923919225e-08  3.6576969214227487e-08 
 3.7055575157813188e-08  3.7540443642543454e-08  3.8031656614762175e-08  3.8529297093142826e-08 
 3.9033449182722580e-08  3.9544198089120350e-08  4.0061630132940742e-08  4.0585832764366823e-08 
 4.1116894577943844e-08  4.1654905327556598e-08  4.2199955941602829e-08  4.2752138538365389e-08 
 4.3311546441585697e-08  4.3878274196241035e-08  4.4452417584528593e-08  4.5034073642058688e-08 
 4.5623340674260176e-08  4.6220318273000587e-08  4.6825107333424053e-08  4.7437810071009614e-08 
 4.8058530038853080e-08  4.8687372145175118e-08  4.9324442671058697e-08  4.9969849288418926e-08 
 5.0623701078208092e-08  5.1286108548859392e-08  5.1957183654972007e-08  5.2637039816241195e-08 
 5.3325791936636123e-08  5.4023556423829113e-08  5.4730451208879320e-08  5.5446595766174289e-08 
 5.6172111133632881e-08  5.6907119933172720e-08  5.7651746391445964e-08  5.8406116360846641e-08 
 5.9170357340793388e-08  5.9944598499290965e-08  6.0728970694774339e-08  6.1523606498239049e-08 
 6.2328640215661556e-08  6.3144207910713476e-08  6.3970447427773453e-08  6.4807498415240723e-08 
 6.5655502349154150e-08  6.6514602557120988e-08  6.7384944242559213e-08  6.8266674509257642e-08 
 6.9159942386258188e-08  7.0064898853064152e-08  7.0981696865179055e-08  7.1910491379980510e-08 
 7.2851439382933060e-08  7.3804699914145086e-08  7.4770434095273736e-08  7.5748805156782787e-08 
 7.6739978465558064e-08  7.7744121552885020e-08  7.8761404142793274e-08  7.9791998180773107e-08 
 8.0836077862868491e-08  8.1893819665151968e-08  8.2965402373586308e-08  8.4051007114277730e-08 
 8.5150817384126560e-08  8.6265019081879593e-08  8.7393800539590584e-08  8.8537352554493258e-08 
 8.9695868421292915e-08  9.0869543964881927e-08  9.2058577573484654e-08  9.3263170232237694e-08 
 9.4483525557211147e-08  9.5719849829876382e-08  9.6972352032026802e-08  9.8241243881157172e-08 
 9.9526739866307772e-08  1.0082905728437933e-07  1.0214841627692526e-07  1.0348503986742721e-07 
 1.0483915399906085e-07  1.0621098757295751e-07  1.0760077248696924e-07  1.0900874367494324e-07 
 1.1043513914651285e-07  1.1188020002741170e-07  1.1334417060031808e-07  1.1482729834623654e-07 
 1.1632983398642406e-07  1.1785203152486755e-07  1.1939414829132057e-07  1.2095644498490642e-07 
 1.2253918571829497e-07  1.2414263806246152e-07  1.2576707309203449e-07  1.2741276543124078e-07 
 1.2907999330045602e-07  1.3076903856336808e-07  1.3248018677476239e-07  1.3421372722893641e-07 
 1.3596995300875280e-07  1.3774916103533877e-07  1.3955165211844142e-07  1.4137773100744676e-07 
 1.4322770644307177e-07  1.4510189120973883e-07  1.4700060218864079e-07  1.4892416041150726e-07 
 1.5087289111508013e-07  1.5284712379630903e-07  1.5484719226827531e-07  1.5687343471685578e-07 
 1.5892619375813447e-07  1.6100581649657386e-07  1.6311265458395526e-07  1.6524706427909875e-07 
 1.6740940650837306e-07  1.6960004692700672e-07  1.7181935598121038e-07  1.7406770897112192e-07 
 1.7634548611458585e-07  1.7865307261177688e-07  1.8099085871068107e-07  1.8335923977344462e-07 
 1.8575861634360254e-07  1.8818939421420044e-07  1.9065198449681902e-07  1.9314680369151654e-07 
 1.9567427375769900e-07  1.9823482218593370e-07  2.0082888207071600e-07  2.0345689218420476e-07 
 2.0611929705093832e-07  2.0881654702354549e-07  2.1154909835946447e-07  2.1431741329868406e-07 
 2.1712196014252083e-07  2.1996321333344709e-07  2.2284165353598386e-07  2.2575776771867376e-07 
 2.2871204923714838e-07  2.3170499791830604e-07  2.3473712014561463e-07  2.3780892894555597e-07 
 2.4092094407522706e-07  2.4407369211111440e-07  2.4726770653905807e-07  2.5050352784542253e-07 
 2.5378170360948978e-07  2.5710278859709427e-07  2.6046734485551461e-07  2.6387594180964158e-07 
 2.6732915635944008e-07  2.7082757297872304e-07  2.7437178381525587e-07  2.7796238879221061e-07 
 2.8159999571099000e-07  2.8528522035543859e-07  2.8901868659746345e-07  2.9280102650408269e-07 
 2.9663288044592335e-07  3.0051489720719009e-07  3.0444773409712380e-07  3.0843205706297442e-07 
 3.1246854080450728e-07  3.1655786889006790e-07  3.2070073387422579e-07  3.2489783741702205e-07 
 3.2914989040484234e-07  3.3345761307294118e-07  3.3782173512964129e-07  3.4224299588223112e-07 
 3.4672214436458862e-07  3.5125993946655398e-07  3.5585715006508024e-07  3.6051455515718591e-07 
 3.6523294399473774e-07  3.7001311622109216e-07  3.7485588200962092e-07  3.7976206220415185e-07 
 3.8473248846135339e-07  3.8976800339509104e-07  3.9486946072278739e-07  4.0003772541381666e-07 
 4.0527367383996383e-07  4.1057819392798116e-07  4.1595218531427458e-07  4.2139655950175274e-07 
 4.2691224001887346e-07  4.3250016258092102e-07  4.3816127525354949e-07  4.4389653861862870e-07 
 4.4970692594242949e-07  4.5559342334618474e-07  4.6155702997906482e-07  4.6759875819360656e-07 
 4.7371963372363383e-07  4.7992069586471344e-07  4.8620299765718456e-07  4.9256760607180369e-07 
 4.9901560219805214e-07  5.0554808143514486e-07  5.1216615368579015e-07  5.1887094355274201e-07 
 5.2566359053819654e-07  5.3254524924607473e-07  5.3951708958724670e-07  5.4658029698774310e-07 
 5.5373607260000582e-07  5.6098563351723134e-07  5.6833021299086034e-07  5.7577106065126543e-07 
 5.8330944273169833e-07  5.9094664229554719e-07  5.9868395946696929e-07  6.0652271166495331e-07 
 6.1446423384087657e-07  6.2250987871961909e-07  6.3066101704429738e-07  6.3891903782468616e-07 
 6.4728534858939298e-07  6.5576137564185849e-07  6.6434856432024941e-07  6.7304837926131930e-07 
 6.8186230466831062e-07  6.9079184458297495e-07  6.9983852316178958e-07  7.0900388495645056e-07 
 7.1828949519872471e-07  7.2769694008974351e-07  7.3722782709383055e-07  7.4688378523694333e-07 
 7.5666646540982969e-07  7.6657754067598507e-07  7.7661870658451181e-07  7.8679168148797687e-07 
 7.9709820686537038e-07  8.0754004765026878e-07  8.1811899256430925e-07  8.2883685445608931e-07 
 8.3969547064559799e-07  8.5069670327430036e-07  8.6184243966099365e-07  8.7313459266355626e-07 
 8.8457510104671891e-07  8.9616592985598647e-07  9.0790907079784309e-07  9.1980654262638084e-07 
 9.3186039153649492e-07  9.4407269156378495e-07  9.5644554499132025e-07  9.6898108276341930e-07 
 9.8168146490660240e-07  9.9454888095788778e-07  1.0075855504005892e-06  1.0207937231078036e-06 
 1.0341756797937514e-06  1.0477337324731737e-06  1.0614702249289604e-06  1.0753875331882157e-06 
 1.0894880660069595e-06  1.1037742653636775e-06  1.1182486069619326e-06  1.1329136007422615e-06 
 1.1477717914035891e-06  1.1628257589343880e-06  1.1780781191538446e-06  1.1935315242632670e-06 
 1.2091886634080078e-06  1.2250522632501639e-06  1.2411250885523356e-06  1.2574099427727319e-06 
 1.2739096686719158e-06  1.2906271489314997e-06  1.3075653067851044e-06  1.3247271066619169e-06 
 1.3421155548431715e-06  1.3597337001319192e-06  1.3775846345364356e-06  1.3956714939676501e-06 
 1.4139974589509754e-06  1.4325657553529436e-06  1.4513796551230610e-06  1.4704424770513028e-06 
 1.4897575875417080e-06  1.5093284014025106e-06  1.5291583826532989e-06  1.5492510453496858e-06 
 1.5696099544260003e-06  1.5902387265565264e-06  1.6111410310358325e-06  1.6323205906787616e-06 
 1.6537811827406525e-06  1.6755266398584190e-06  1.6975608510130920e-06  1.7198877625144856e-06 
 1.7425113790086600e-06  1.7654357645088741e-06  1.7886650434507525e-06  1.8122034017724146e-06 
 1.8360550880203449e-06  1.8602244144818040e-06  1.8847157583446212e-06  1.9095335628852232e-06 
 1.9346823386858078e-06  1.9601666648815848e-06  1.9859911904390457e-06  2.0121606354662743e-06 
 2.0386797925563245e-06  2.0655535281647481e-06  2.0927867840223786e-06  2.1203845785845559e-06 
 2.1483520085179615e-06  2.1766942502263344e-06  2.2054165614163552e-06  2.2345242827050458e-06 
 2.2640228392700779e-06  2.2939177425444405e-06  2.3242145919569704e-06  2.3549190767203082e-06 
 2.3860369776679040e-06  2.4175741691417515e-06  2.4495366209326086e-06  2.4819304002745116e-06 
 2.5147616738954835e-06  2.5480367101263870e-06  2.5817618810699633e-06  2.6159436648321792e-06 
 2.6505886478180679e-06  2.6857035270943762e-06  2.7212951128213646e-06  2.7573703307562439e-06 
 2.7939362248308260e-06  2.8309999598060379e-06  2.8685688240060871e-06  2.9066502321351584e-06 
 2.9452517281796415e-06  2.9843809883990104e-06  3.0240458244086036e-06  3.0642541863576652e-06 
 3.1050141662061740e-06  3.1463340011040959e-06  3.1882220768768700e-06  3.2306869316210708e-06 
 3.2737372594143650e-06  3.3173819141440401e-06  3.3616299134585431e-06  3.4064904428466952e-06 
 3.4519728598493695e-06  3.4980866984086763e-06  3.5448416733598736e-06  3.5922476850714461e-06 
 3.6403148242390176e-06  3.6890533768389923e-06  3.7384738292480927e-06  3.7885868735351340e-06 
 3.8394034129317948e-06  3.8909345674892166e-06  3.9431916799277617e-06  3.9961863216873890e-06 
 4.0499302991865606e-06  4.1044356602978136e-06  4.1597147010485503e-06  4.2157799725559282e-06 
 4.2726442882050998e-06  4.3303207310804959e-06  4.3888226616601624e-06  4.4481637257837101e-06 
 4.5083578629047732e-06  4.5694193146394305e-06  4.6313626336224732e-06  4.6942026926839451e-06 
 4.7579546943589279e-06  4.8226341807440550e-06  4.8882570437149072e-06  4.9548395355189800e-06 
 5.0223982797595808e-06  5.0909502827867283e-06  5.1605129455117568e-06  5.2311040756631390e-06 
 5.3027419005017518e-06  5.3754450800146751e-06  5.4492327206073840e-06  5.5241243893152017e-06 
 5.6001401285556662e-06  5.6773004714445572e-06  5.7556264576992826e-06  5.8351396501544157e-06 
 5.9158621519153123e-06  5.9978166241768805e-06  6.0810263047358196e-06  6.1655150272259631e-06 
 6.2513072411077012e-06  6.3384280324438607e-06  6.4269031454959515e-06  6.5167590051762407e-06 
 6.6080227403927734e-06  6.7007222083261637e-06  6.7948860196788301e-06  6.8905435649392414e-06 
 6.9877250417057179e-06  7.0864614831165356e-06  7.1867847874351381e-06  7.2887277488417632e-06 
 7.3923240894850907e-06  7.4976084928502287e-06  7.6046166385019132e-06  7.7133852382648068e-06 
 7.8239520739056646e-06  7.9363560363853120e-06  8.0506371667517951e-06  8.1668366987494042e-06 
 8.2849971032221247e-06  8.4051621343938065e-06  8.5273768781115840e-06  8.6516878021432385e-06 
 8.7781428086238653e-06  8.9067912887519338e-06  9.0376841798399325e-06  9.1708740248300791e-06 
 9.3064150343912357e-06  9.4443631517190941e-06  9.5847761201680114e-06  9.7277135538494271e-06 
 9.8732370113388406e-06  1.0021410072640711e-05  1.0172298419568430e-05  1.0325969919704757e-05 
 1.0482494714116958e-05  1.0641945309009847e-05  1.0804396671509997e-05  1.0969926329784478e-05 
 1.1138614477708544e-05  1.1310544084308164e-05  1.1485801008215571e-05  1.1664474117388987e-05 
 1.1846655414361357e-05  1.2032440167297584e-05  1.2221927047155001e-05  1.2415218271258339e-05 
 1.2612419753617698e-05  1.2813641262336423e-05  1.3018996584475264e-05  1.3228603698760012e-05 
 1.3442584956541567e-05  1.3661067271440927e-05  1.3884182318136285e-05  1.4112066740775653e-05 
 1.4344862371526496e-05  1.4582716459803611e-05  1.4825781912747914e-05  1.5074217547562604e-05 
 1.5328188356348754e-05  1.5587865784120532e-05  1.5853428020720584e-05  1.6125060307399383e-05 
 1.6402955258868080e-05  1.6687313201683313e-05  1.6978342529874509e-05  1.7276260078779773e-05 
 1.7581291518115410e-05  1.7893671765367521e-05  1.8213645420661069e-05  1.8541467224333845e-05 
 1.8877402538519311e-05  1.9221727854123948e-05  1.9574731324672302e-05  1.9936713328586026e-05 
 2.0307987061562890e-05  2.0688879160828426e-05  2.1079730363146382e-05  2.1480896198596333e-05 
 2.1892747722256690e-05  2.2315672286070874e-05  2.2750074353323449e-05  2.3196376358312760e-05 
 2.3655019613977424e-05  2.4126465270417309e-05  2.4611195327445762e-05  2.5109713704520064e-05 
 2.5622547371622735e-05  2.6150247544907890e-05  2.6693390951186389e-05  2.7252581165601584e-05 
 2.7828450027146464e-05  2.8421659136993414e-05  2.9032901444952530e-05  2.9662902929744233e-05 
 3.0312424379169552e-05  3.0982263276689121e-05  3.1673255801381108e-05  3.2386278948743110e-05 
 3.3122252780334200e-05  3.3882142810826395e-05  3.4666962541650202e-05  3.5477776151083040e-05 
 3.6315701351343457e-05  3.7181912424024344e-05  3.8077643446028313e-05  3.9004191719062990e-05 
 3.9962921416719211e-05  4.0955267464195672e-05  4.1982739666857134e-05  4.3046927105025773e-05 
 4.4149502813714073e-05  4.5292228767421950e-05  4.6476961191647915e-05  4.7705656224415144e-05 
 4.8980375952897505e-05  5.0303294852160492e-05  5.1676706655118364e-05  5.3103031685067835e-05 
 5.4584824684601347e-05  5.6124783177349463e-05  5.7725756401866015e-05  5.9390754860073048e-05 
 6.1122960526044975e-05  6.2925737764554701e-05  6.4802645012755454e-05  6.6757447282655410e-05 
 6.8794129546688920e-05  7.0916911073729450e-05  7.3130260788361459e-05  7.5438913732166392e-05 
 7.7847888712229705e-05  8.0362507229078849e-05  8.2988413783873660e-05  8.5731597672940310e-05 
 8.8598416386728693e-05  9.1595620740046786e-05  9.4730381871052720e-05  9.8010320258045986e-05 
 1.0144353691567602e-04  1.0503864694587261e-04  1.0880481563369999e-04  1.1275179729455373e-04 
 1.1688997709677858e-04  1.2123041610301823e-04  1.2578489979455759e-04  1.3056599036574191e-04 
 1.3558708310043083e-04  1.4086246716954633e-04  1.4640739121832459e-04  1.5223813414408626e-04 
 1.5837208150045910e-04  1.6482780800227960e-04  1.7162516664715922e-04  1.7878538501524591e-04 
 1.8633116935838764e-04  1.9428681714409157e-04  2.0267833877878077e-04  2.1153358929933171e-04 
 2.2088241089221662e-04  2.3075678717630961e-04  2.4119101026912382e-04  2.5222186174755652e-04 
 2.6388880871381509e-04  2.7623421628582490e-04  2.8930357794988227e-04  3.0314576534248248e-04 
 3.1781329916908123e-04  3.3336264312104635e-04  3.4985452281933744e-04  3.6735427199570501e-04 
 3.8593220832070885e-04  4.0566404150399975e-04  4.2663131652756947e-04  4.4892189512864484e-04 
 4.7263047892726870e-04  4.9785917789620430e-04  5.2471812819952562e-04  5.5332616378318193e-04 
 5.8381154648809430e-04  6.1631275987624791e-04  6.5097937241517312e-04  6.8797297615864525e-04 
 7.2746820759401023e-04  7.6965385790186774e-04  8.1473408049474196e-04  8.6292970437054954e-04 
 9.1447966253697195e-04  9.6964254553701796e-04  1.0286982909367972e-03  1.0919500205264247e-03 
 1.1597260379363741e-03  1.2323820003866239e-03  1.3103032793662999e-03  1.3939075261884652e-03 
 1.4836474595788466e-03  1.5800138937384655e-03  1.6835390266672532e-03  1.7948000099464625e-03 
 1.9144228226484086e-03  2.0430864735673337e-03  2.1815275575377746e-03  2.3305451932168339e-03 
 2.4910063713420353e-03  2.6638517441212118e-03  2.8501018880460116e-03  3.0508640740226803e-03 
 3.2673395802546566e-03  3.5008315847575942e-03  3.7527536756992385e-03  4.0246390188875894e-03 
 4.3181502226272385e-03  4.6350899407634509e-03  4.9774122549651276e-03  5.3472348770802558e-03 
 5.7468522116389661e-03  6.1787493171768437e-03  6.6456168028898024e-03  7.1503666940840403e-03 
 7.6961492958105776e-03  8.2863710788203242e-03  8.9247136053777192e-03  9.6151535043508488e-03 
 1.0361983495165905e-02  1.1169834448476284e-02  1.2043698457547375e-02  1.2988952878189384e-02 
 1.4011385276373944e-02  1.5117219201243906e-02  1.6313140676877037e-02  1.7606325278721704e-02 
 1.9004465629939210e-02  2.0515799118856062e-02  2.2149135601289990e-02  2.3913884810669597e-02 
 2.5820083154697335e-02  2.7878419529981841e-02  3.0100259735868648e-02  3.2497669016035950e-02 
 3.5083432201849611e-02  3.7871070875705008e-02  4.0874856916523969e-02  4.4109821734319953e-02 
 4.7591760447605401e-02  5.1337230207924467e-02  5.5363541831716857e-02  5.9688743863046539e-02 
 6.4331598163678338e-02  6.9311546111980621e-02  7.4648664491772029e-02  8.0363610169261801e-02 
 8.6477552693482326e-02  9.3012094015926888e-02  9.9989174611258030e-02  1.0743096539552864e-01 
 1.1535974498363757e-01  1.2379776200550552e-01  1.3276708241184004e-01  1.4228942194557012e-01 
 1.5238596423313860e-01  1.6307716525843055e-01  1.7438254531695851e-01  1.8632046990260109e-01 
 1.9890792134467850e-01  2.1216026337746927e-01  2.2609100117218320e-01  2.4071153967431874e-01 
 2.5603094334553678e-01  2.7205570058464706e-01  2.8878949617219468e-01  3.0623299502444240e-01 
 3.2438364033776601e-01  3.4323546884652684e-01  3.6277894541529282e-01  3.8300081857035989e-01 
 4.0388399790179497e-01  4.2540745361811561e-01  4.4754613801489895e-01  4.7027092834064993e-01 
 4.9354859061558731e-01  5.1734176445993318e-01  5.4160896994358754e-01  5.6630463883169579e-01 
 5.9137917423716990e-01  6.1677904437739406e-01  6.4244691755947214e-01  6.6832184631564506e-01 
 6.9433950839246317e-01  7.2043251074848580e-01  7.4653075971252991e-01  7.7256189619810900e-01 
 7.9845178995438981e-01  8.2412508217698066e-01  8.4950576239388420e-01  8.7451776409361692e-01 
 8.9908556421704589e-01  9.2313477390784426e-01  9.4659271089831831e-01  9.6938894659918950e-01 
 9.9145582257252274e-01  1.0127289311618120e+00  1.0331475535805685e+00  1.0526550460506214e+00 
 1.0711991613835479e+00  1.0887322909272639e+00  1.1052116116434871e+00  1.1205991268105933e+00 
 1.1348615972756282e+00  1.1479703725491113e+00  1.1599011446622125e+00  1.1706336586143182e+00 
 1.1801514177503378e+00  1.1884414188665038e+00  1.1954939427334736e+00  1.2013024172656193e+00 
 1.2058632995588383e+00  1.2091760711233397e+00  1.2112432270269673e+00  1.2120702817681850e+00 
 1.2116657743278514e+00  1.2100412593271892e+00  1.2072112775869011e+00  1.2031933034757742e+00 
 1.1980076693789736e+00  1.1916774694716170e+00  1.1842284459139412e+00  1.1756888608368810e+00 
 1.1660893573078592e+00  1.1554628120590573e+00  1.1438441822703200e+00  1.1312703482183311e+00 
 1.1177799531829073e+00  1.1034132416608000e+00  1.0882118966794629e+00  1.0722188768199703e+00 
 1.0554782534371696e+00  1.0380350484927729e+00  1.0199350733807377e+00  1.0012247691129785e+00 
 9.8195104823825741e-01  9.6216113888094212e-01  9.4190243130385365e-01  9.2122232741654908e-01 
 9.0016809284953458e-01  8.7878671611758952e-01  8.5712476718678066e-01  8.3522826400910521e-01 
 8.1314254342126047e-01  7.9091213763896862e-01  7.6858065675336407e-01  7.4619067760967839e-01 
 7.2378363941752288e-01  7.0139974640656044e-01  6.7907787780452911e-01  6.5685550537074677e-01 
 6.3476861867142542e-01  6.1285165824301713e-01  5.9113745674134377e-01  5.6965718812414401e-01 
 5.4844032487008776e-01  5.2751460319084020e-01  5.0690599614799536e-01  4.8663869454387620e-01 
 4.6673509541468905e-01  4.4721579791667043e-01  4.2809960636103533e-01  4.0940354012194258e-01 
 3.9114285011331562e-01  3.7333104150501079e-01  3.5597990232967996e-01  3.3909953761204681e-01 
 3.2269840863861082e-01  3.0678337697509234e-01  2.9135975283116311e-01  2.7643134736722308e-01 
 2.6200052853596861e-01  2.4806828005198986e-01  2.3463426308535712e-01  2.2169688028047263e-01 
 2.0925334170774740e-01  1.9729973236357565e-01  1.8583108084555222e-01  1.7484142883967330e-01 
 1.6432390106972011e-01  1.5427077537274486e-01  1.4467355257911721e-01  1.3552302589159404e-01 
 1.2680934947470265e-01  1.1852210598335912e-01  1.1065037277801783e-01  1.0318278659265601e-01 
 9.6107606441404633e-02  8.9412774569509371e-02  8.3085975274403534e-02  7.7114691442762187e-02 
 7.1486258669351002e-02  6.6187916843257338e-02  6.1206859106440553e-02  5.6530278108283614e-02 
 5.2145409497943856e-02  4.8039572613681351e-02  4.4200208344919202e-02  4.0614914158495892e-02 
 3.7271476295383146e-02  3.4157899158037033e-02  3.1262431921518979e-02  2.8573592413563702e-02 
 2.6080188319888890e-02  2.3771335781241167e-02  2.1636475457967111e-02  1.9665386146292239e-02 
 1.7848196037975730e-02  1.6175391721595222e-02  1.4637825029673297e-02  1.3226717840420683e-02 
 1.1933664947108437e-02  1.0750635111246879e-02  9.6699704181183559e-03  8.6843840548033267e-03 
 7.7869566316654260e-03  6.9711311683906124e-03  6.2307068650352283e-03  5.5598317772664078e-03 
 4.9529945132837866e-03  4.4050150673583463e-03  3.9110349020472102e-03  3.4665063877759653e-03 
 3.0671817046722086e-03  2.7091013073543922e-03  2.3885820488656270e-03  2.1022050551316122e-03 
 1.8468034362533036e-03  1.6194499156553820e-03  1.4174444526381164e-03  1.2383019282601329e-03 
 1.0797399587485022e-03  9.3966689484282844e-04  8.1617005964027933e-04  7.0750427171164967e-04 
 6.1208069449158185e-04  5.2845604729129768e-04  4.5532220776337408e-04  3.9149623030574802e-04 
 3.3591079977081980e-04  2.8760513497516974e-04  2.4571635190524598e-04  2.0947129222762651e-04 
 1.7817881875257390e-04  1.5122257587414309e-04  1.2805420973791066e-04  1.0818703996973931e-04 
 9.1190172236033879e-05  7.6683038692937564e-05  6.4330351509985184e-05  5.3837453110379058e-05 
 4.4946045539609308e-05  3.7430280438375964e-05  3.1093190434422309e-05  2.5763442359173486e-05 
 2.1292392516180202e-05  1.7551424255934717e-05  1.4429548322146946e-05  1.1831246804764252e-05 
 9.6745420421667877e-06  7.8892724371815012e-06  6.4155578680017924e-06  5.2024381661923672e-06 
 4.2066689815047325e-06  3.3916602405219140e-06  2.7265433180427534e-06  2.1853539630512373e-06 
 1.7463189430762833e-06  1.3912352814611928e-06  1.1049318524324894e-06  8.7480396166600501e-07 
 6.9041236910788930e-07  5.4313900139151828e-07  4.2589234969107646e-07  3.3285625274046693e-07 
 2.5927642245250339e-07  2.0127968037415842e-07  1.5572143712161476e-07  1.2005746459584082e-07 
 9.2236483354513806e-08  7.0610516609635911e-08  5.3860349874508713e-08  4.0933783501589705e-08 
 3.0994676623451967e-08  2.3381057842611258e-08  1.7570822985244089e-08  1.3153755924488126e-08 
 9.8087974471565264e-09  7.2856518744381311e-09  5.3899640501632870e-09  3.9714226613804348e-09 
 2.9142518048196664e-09  2.1296432649496649e-09  1.5497589795689097e-09  1.1229983381839175e-09 
 8.1027983433711008e-10  5.8213257284304118e-10  4.1643146919483554e-10  2.9664178663409759e-10 
 2.1046492376962236e-10  1.4879896151983869e-10  1.0494516544011458e-10  0.0000000000000000e+00 
 0.0000000000000000e+00  0.0000000000000000e+00  0.0000000000000000e+00  0.0000000000000000e+00 
 0.0000000000000000e+00  0.0000000000000000e+00  0.0000000000000000e+00  0.0000000000000000e+00 
 0.0000000000000000e+00  0.0000000000000000e+00  0.0000000000000000e+00  0.0000000000000000e+00 
 0.0000000000000000e+00  0.0000000000000000e+00  0.0000000000000000e+00  0.0000000000000000e+00 
 0.0000000000000000e+00  0.0000000000000000e+00  0.0000000000000000e+00  0.0000000000000000e+00 
 0.0000000000000000e+00  0.0000000000000000e+00  0.0000000000000000e+00  0.0000000000000000e+00 
 0.0000000000000000e+00  0.0000000000000000e+00  0.0000000000000000e+00  0.0000000000000000e+00 
 0.0000000000000000e+00  0.0000000000000000e+00  0.0000000000000000e+00  0.0000000000000000e+00 
 0.0000000000000000e+00  0.0000000000000000e+00  0.0000000000000000e+00  0.0000000000000000e+00 
 0.0000000000000000e+00  0.0000000000000000e+00  0.0000000000000000e+00  0.0000000000000000e+00 
 0.0000000000000000e+00  0.0000000000000000e+00  0.0000000000000000e+00  0.0000000000000000e+00 
 0.0000000000000000e+00  0.0000000000000000e+00  0.0000000000000000e+00  0.0000000000000000e+00 
 0.0000000000000000e+00  0.0000000000000000e+00  0.0000000000000000e+00  0.0000000000000000e+00 
 0.0000000000000000e+00  0.0000000000000000e+00  0.0000000000000000e+00  0.0000000000000000e+00 
 0.0000000000000000e+00  0.0000000000000000e+00  0.0000000000000000e+00  0.0000000000000000e+00 
 0.0000000000000000e+00  0.0000000000000000e+00  0.0000000000000000e+00  0.0000000000000000e+00 
 0.0000000000000000e+00  0.0000000000000000e+00  0.0000000000000000e+00  0.0000000000000000e+00 
 0.0000000000000000e+00  0.0000000000000000e+00  0.0000000000000000e+00  0.0000000000000000e+00 
 0.0000000000000000e+00  0.0000000000000000e+00  0.0000000000000000e+00  0.0000000000000000e+00 
 0.0000000000000000e+00  0.0000000000000000e+00  0.0000000000000000e+00  0.0000000000000000e+00 
 0.0000000000000000e+00  0.0000000000000000e+00  0.0000000000000000e+00  0.0000000000000000e+00 
 0.0000000000000000e+00  0.0000000000000000e+00  0.0000000000000000e+00  0.0000000000000000e+00 
 0.0000000000000000e+00  0.0000000000000000e+00  0.0000000000000000e+00  0.0000000000000000e+00 
 0.0000000000000000e+00  0.0000000000000000e+00  0.0000000000000000e+00  0.0000000000000000e+00 
 0.0000000000000000e+00  0.0000000000000000e+00  0.0000000000000000e+00  0.0000000000000000e+00 
 0.0000000000000000e+00  0.0000000000000000e+00  0.0000000000000000e+00  0.0000000000000000e+00 
 0.0000000000000000e+00  0.0000000000000000e+00  0.0000000000000000e+00  0.0000000000000000e+00 
 0.0000000000000000e+00  0.0000000000000000e+00  0.0000000000000000e+00  0.0000000000000000e+00 
 0.0000000000000000e+00  0.0000000000000000e+00  0.0000000000000000e+00  0.0000000000000000e+00 
 0.0000000000000000e+00  0.0000000000000000e+00  0.0000000000000000e+00  0.0000000000000000e+00 
 0.0000000000000000e+00  0.0000000000000000e+00  0.0000000000000000e+00  0.0000000000000000e+00 
 0.0000000000000000e+00  0.0000000000000000e+00  0.0000000000000000e+00  0.0000000000000000e+00 
 0.0000000000000000e+00  0.0000000000000000e+00  0.0000000000000000e+00  0.0000000000000000e+00 
 0.0000000000000000e+00  0.0000000000000000e+00  0.0000000000000000e+00  0.0000000000000000e+00 
 0.0000000000000000e+00  0.0000000000000000e+00  0.0000000000000000e+00  0.0000000000000000e+00 
 0.0000000000000000e+00  0.0000000000000000e+00  0.0000000000000000e+00  0.0000000000000000e+00 
 0.0000000000000000e+00  0.0000000000000000e+00  0.0000000000000000e+00  0.0000000000000000e+00 
 0.0000000000000000e+00  0.0000000000000000e+00  0.0000000000000000e+00  0.0000000000000000e+00 
 0.0000000000000000e+00  0.0000000000000000e+00  0.0000000000000000e+00  0.0000000000000000e+00 
 0.0000000000000000e+00  0.0000000000000000e+00  0.0000000000000000e+00  0.0000000000000000e+00 
 0.0000000000000000e+00  0.0000000000000000e+00  0.0000000000000000e+00  0.0000000000000000e+00 
 0.0000000000000000e+00  0.0000000000000000e+00  0.0000000000000000e+00  0.0000000000000000e+00 
 0.0000000000000000e+00  0.0000000000000000e+00  0.0000000000000000e+00  0.0000000000000000e+00 
 0.0000000000000000e+00  0.0000000000000000e+00  0.0000000000000000e+00  0.0000000000000000e+00 
 0.0000000000000000e+00  0.0000000000000000e+00  0.0000000000000000e+00  0.0000000000000000e+00 
 0.0000000000000000e+00  0.0000000000000000e+00  0.0000000000000000e+00  0.0000000000000000e+00 
 0.0000000000000000e+00  0.0000000000000000e+00  0.0000000000000000e+00 
P    1   6.00          Wavefunction
 5.4589456296200689e-12  5.6027394402386348e-12  5.7503209164853782e-12  5.9017898290799104e-12 
 6.0572485767979904e-12  6.2168022556970728e-12  6.3805587301652923e-12  6.5486287058419899e-12 
 6.7211258044589826e-12  6.8981666406532839e-12  7.0798709008030990e-12  7.2663614239404674e-12 
 7.4577642847952082e-12  7.6542088790263417e-12  7.8558280106985631e-12  8.0627579820629648e-12 
 8.2751386857026527e-12  8.4931136991055678e-12  8.7168303817284648e-12  8.9464399746176337e-12 
 9.1820977026537522e-12  9.4239628794899386e-12  9.6721990152540152e-12  9.9269739270877250e-12 
 1.0188459852597669e-11  1.0456833566294676e-11  1.0732276499100275e-11  1.1014974861001100e-11 
 1.1305119766934140e-11  1.1602907365987910e-11  1.1908538974006953e-11  1.2222221209689229e-11 
 1.2544166134268484e-11  1.2874591394875987e-11  1.3213720371678536e-11  1.3561782328892263e-11 
 1.3919012569774282e-11  1.4285652595696957e-11  1.4661950269412388e-11  1.5048159982617404e-11 
 1.5444542827932431e-11  1.5851366775410443e-11  1.6268906853695323e-11  1.6697445335952155e-11 
 1.7137271930695099e-11  1.7588683977641848e-11  1.8051986648727140e-11  1.8527493154411126e-11 
 1.9015524955422146e-11  1.9516411980077036e-11  2.0030492847325857e-11  2.0558115095671851e-11 
 2.1099635418121446e-11  2.1655419903323019e-11  2.2225844283057550e-11  2.2811294186248440e-11 
 2.3412165399662203e-11  2.4028864135476310e-11  2.4661807305895063e-11  2.5311422804999110e-11 
 2.5978149798019198e-11  2.6662439018229753e-11  2.7364753071662880e-11  2.8085566749848909e-11 
 2.8825367350794877e-11  2.9584655008417909e-11  3.0363943030656238e-11  3.1163758246486455e-11 
 3.1984641362081601e-11  3.2827147326350765e-11  3.3691845706107544e-11  3.4579321071120725e-11 
 3.5490173389307736e-11  3.6425018432337874e-11  3.7384488191919632e-11  3.8369231307053451e-11 
 3.9379913502538872e-11  4.0417218039032376e-11  4.1481846174960359e-11  4.2574517640599354e-11 
 4.3695971124644204e-11  4.4846964773592826e-11  4.6028276704285486e-11  4.7240705529944953e-11 
 4.8485070900073122e-11  4.9762214054569263e-11  5.1072998392444251e-11  5.2418310055515599e-11 
 5.3799058527477538e-11  5.5216177248751519e-11  5.6670624247532527e-11  5.8163382787457955e-11 
 5.9695462032336845e-11  6.1267897728389055e-11  6.2881752904455292e-11  6.4538118590651758e-11 
 6.6238114555954855e-11  6.7982890065215044e-11  6.9773624656111293e-11  7.1611528936571515e-11 
 7.3497845403198250e-11  7.5433849281252495e-11  7.7420849386764136e-11  7.9460189011351363e-11 
 8.1553246830347298e-11  8.3701437834848320e-11  8.5906214288313353e-11  8.8169066708361618e-11 
 9.0491524874432223e-11  9.2875158861986864e-11  9.5321580103955039e-11  9.7832442480139042e-11 
 1.0040944343531574e-10  1.0305432512679049e-10  1.0576887560217957e-10  1.0855493000821693e-10 
 1.1141437183140298e-10  1.1434913417133364e-10  1.1736120104757114e-10  1.2045260874093958e-10 
 1.2362544717015253e-10  1.2688186130470287e-10  1.3022405261497082e-10  1.3365428056052962e-10 
 1.3717486411765620e-10  1.4078818334707855e-10  1.4449668100302030e-10  1.4830286418463043e-10 
 1.5220930603091413e-10  1.5621864746031136e-10  1.6033359895609880e-10  1.6455694239882222e-10 
 1.6889153294699918e-10  1.7334030096736155e-10  1.7790625401594570e-10  1.8259247887136685e-10 
 1.8740214362165461e-10  1.9233849980605951e-10  1.9740488461327857e-10  2.0260472313758694e-10 
 2.0794153069440011e-10  2.1341891519683272e-10  2.1904057959486092e-10  2.2481032437873742e-10 
 2.3073205014835125e-10  2.3680976025027052e-10  2.4304756348425022e-10  2.4944967688103524e-10 
 2.5602042855333743e-10  2.6276426062191314e-10  2.6968573221872069e-10  2.7678952256918831e-10 
 2.8408043415567580e-10  2.9156339596426905e-10  2.9924346681710453e-10  3.0712583879247361e-10 
 3.1521584073502168e-10  3.2351894185841600e-10  3.3204075544291544e-10  3.4078704263034508e-10 
 3.4976371631904045e-10  3.5897684516139482e-10  3.6843265766671364e-10  3.7813754641214937e-10 
 3.8809807236456456e-10  3.9832096931624522e-10  4.0881314843746469e-10  4.1958170294897513e-10 
 4.3063391291758765e-10  4.4197725017808238e-10  4.5361938338477769e-10  4.6556818319617443e-10 
 4.7783172759618082e-10  4.9041830735551637e-10  5.0333643163698770e-10  5.1659483374842776e-10 
 5.3020247704718770e-10  5.4416856100017436e-10  5.5850252740353236e-10  5.7321406676617520e-10 
 5.8831312486148506e-10  6.0380990945160812e-10  6.1971489718889683e-10  6.3603884069916284e-10 
 6.5279277585153398e-10  6.6998802921982950e-10  6.8763622574050062e-10  7.0574929657231621e-10 
 7.2433948716310655e-10  7.4341936552902467e-10  7.6300183075192148e-10  7.8310012170058287e-10 
 8.0372782598172763e-10  8.2489888912682022e-10  8.4662762402091094e-10  8.6892872057988132e-10 
 8.9181725568264114e-10  9.1530870336499256e-10  9.3941894528206115e-10  9.6416428144636206e-10 
 9.8956144124877601e-10  1.0156275947698776e-09  1.0423803643892803e-09  1.0698378367008375e-09 
 1.0980185747417719e-09  1.1269416305439970e-09  1.1566265580161233e-09  1.1870934261648704e-09 
 1.2183628326648171e-09  1.2504559177856810e-09  1.2833943786865409e-09  1.3172004840866796e-09 
 1.3518970893229666e-09  1.3875076518039715e-09  1.4240562468712631e-09  1.4615675840786238e-09 
 1.5000670239001979e-09  1.5395805948788743e-09  1.5801350112265089e-09  1.6217576908878949e-09 
 1.6644767740807077e-09  1.7083211423239623e-09  1.7533204379678685e-09  1.7995050842382922e-09 
 1.8469063058093923e-09  1.8955561499183561e-09  1.9454875080365180e-09  1.9967341381115324e-09 
 2.0493306873956520e-09  2.1033127158755674e-09  2.1587167203196557e-09  2.2155801589589281e-09 
 2.2739414768183694e-09  2.3338401317158276e-09  2.3953166209460475e-09  2.4584125086679127e-09 
 2.5231704540134367e-09  2.5896342399375315e-09  2.6578488028280915e-09  2.7278602628964354e-09 
 2.7997159553686804e-09  2.8734644624991791e-09  2.9491556464276791e-09  3.0268406829024796e-09 
 3.1065720958923979e-09  3.1884037931109998e-09  3.2723911024771479e-09  3.3585908095365710e-09 
 3.4470611958697812e-09  3.5378620785123812e-09  3.6310548504144428e-09  3.7267025219663721e-09 
 3.8248697636194007e-09  3.9256229496295700e-09  4.0290302029548461e-09  4.1351614413357890e-09 
 4.2440884245910157e-09  4.3558848031594742e-09  4.4706261679224569e-09  4.5883901013391125e-09 
 4.7092562299300977e-09  4.8333062781449760e-09  4.9606241236498479e-09  5.0912958540727188e-09 
 5.2254098252450556e-09  5.3630567209790462e-09  5.5043296144210759e-09  5.6493240310230273e-09 
 5.7981380131741361e-09  5.9508721865372050e-09  6.1076298281341938e-09  6.2685169362273729e-09 
 6.4336423020434463e-09  6.6031175833892909e-09  6.7770573802093136e-09  6.9555793121356423e-09 
 7.1388040980838227e-09  7.3268556379480491e-09  7.5198610964513497e-09  7.7179509892077093e-09 
 7.9212592710545071e-09  8.1299234267153061e-09  8.3440845638545223e-09  8.5638875085872071e-09 
 8.7894809035088303e-09  9.0210173083116191e-09  9.2586533030558855e-09  9.5025495941664637e-09 
 9.7528711232263482e-09  1.0009787178641454e-08  1.0273471510252417e-08  1.0544102446971389e-08 
 1.0821863017523818e-08  1.1106941074377327e-08  1.1399529420942019e-08  1.1699825942128747e-08 
 1.2008033738354156e-08  1.2324361263083815e-08  1.2649022464006927e-08  1.2982236927938837e-08 
 1.3324230029549993e-08  1.3675233084022646e-08  1.4035483503739316e-08  1.4405224959109782e-08 
 1.4784707543646161e-08  1.5174187943398692e-08  1.5573929610867696e-08  1.5984202943510312e-08 
 1.6405285466963800e-08  1.6837462023110423e-08  1.7281024963112250e-08  1.7736274345547629e-08 
 1.8203518139784687e-08  1.8683072434730686e-08  1.9175261653099885e-08  1.9680418771346311e-08 
 2.0198885545411791e-08  2.0731012742443598e-08  2.1277160378640202e-08  2.1837697963387791e-08 
 2.2413004749854715e-08  2.3003469992215428e-08  2.3609493209679954e-08  2.4231484457509854e-08 
 2.4869864605206417e-08  2.5525065622061711e-08  2.6197530870268411e-08  2.6887715405789352e-08 
 2.7596086287193455e-08  2.8323122892669895e-08  2.9069317245438440e-08  2.9835174347779312e-08 
 3.0621212523912438e-08  3.1427963771961668e-08  3.2255974125246328e-08  3.3105804023148559e-08 
 3.3978028691812125e-08  3.4873238534934652e-08  3.5792039534922968e-08  3.6735053664688100e-08 
 3.7702919310363970e-08  3.8696291705241843e-08  3.9715843375220047e-08  4.0762264596077033e-08 
 4.1836263862883884e-08  4.2938568371881146e-08  4.4069924515153559e-08  4.5231098388445360e-08 
 4.6422876312468474e-08  4.7646065368064773e-08  4.8901493945594228e-08  5.0190012308930451e-08 
 5.1512493174455620e-08  5.2869832305457685e-08  5.4262949122343362e-08  5.5692787329092413e-08 
 5.7160315556389375e-08  5.8666528021882263e-08  6.0212445208028496e-08  6.1799114558002330e-08 
 6.3427611190150303e-08  6.5099038631494970e-08  6.6814529570800870e-08  6.8575246631730919e-08 
 7.0382383166636051e-08  7.2237164071535492e-08  7.4140846622861799e-08  7.6094721336558775e-08 
 7.8100112850138462e-08  8.0158380828319419e-08  8.2270920892885802e-08  8.4439165577425109e-08 
 8.6664585307619952e-08  8.8948689407789594e-08  9.1293027134394153e-08  9.3699188737237378e-08 
 9.6168806549121550e-08  9.8703556104731388e-08  1.0130515728954496e-07  1.0397537551959194e-07 
 1.0671602295290324e-07  1.0952895973351941e-07  1.1241609526895050e-07  1.1537938954200430e-07 
 1.1842085445792782e-07  1.2154255522783158e-07  1.2474661178939571e-07  1.2803520026588484e-07 
 1.3141055446452828e-07  1.3487496741535188e-07  1.3843079295158026e-07  1.4208044733275977e-07 
 1.4582641091178475e-07  1.4967122984704724e-07  1.5361751786096099e-07  1.5766795804615156e-07 
 1.6182530472063861e-07  1.6609238533337753e-07  1.7047210242156657e-07  1.7496743562116624e-07 
 1.7958144373212270e-07  1.8431726683982817e-07  1.8917812849439883e-07  1.9416733794939593e-07 
 1.9928829246166629e-07  2.0454447965402606e-07  2.0993947994256432e-07  2.1547696903039716e-07 
 2.2116072046975663e-07  2.2699460829435590e-07  2.3298260972403095e-07  2.3912880794372235e-07 
 2.4543739495891692e-07  2.5191267452974155e-07  2.5855906518596344e-07  2.6538110332522168e-07 
 2.7238344639688800e-07  2.7957087617402536e-07  2.8694830211599496e-07  2.9452076482433515e-07 
 3.0229343959462372e-07  3.1027164006711503e-07  3.1846082197903469e-07  3.2686658702150471e-07 
 3.3549468680416339e-07  3.4435102693064685e-07  3.5344167118819510e-07  3.6277284585475234e-07 
 3.7235094412703991e-07  3.8218253067319232e-07  3.9227434631366085e-07  4.0263331283421156e-07 
 4.1326653793497268e-07  4.2418132031960729e-07  4.3538515492883111e-07  4.4688573832262733e-07 
 4.5869097421565959e-07  4.7080897917052888e-07  4.8324808845368508e-07  4.9601686205895113e-07 
 5.0912409090380063e-07  5.2257880320369073e-07  5.3639027102994296e-07  5.5056801705684363e-07 
 5.6512182150383887e-07  5.8006172927889316e-07  5.9539805732929675e-07  6.1114140220642660e-07 
 6.2730264785118551e-07  6.4389297360709002e-07  6.6092386246821572e-07  6.7840710956947041e-07 
 6.9635483092692632e-07  7.1477947243622185e-07  7.3369381913733568e-07  7.5311100475432216e-07 
 7.7304452151893239e-07  7.9350823028734153e-07  8.1451637095956941e-07  8.3608357321151254e-07 
 8.5822486754988880e-07  8.8095569670076679e-07  9.0429192734276142e-07  9.2824986219638585e-07 
 9.5284625248148717e-07  9.7809831075514873e-07  1.0040237241429058e-06  1.0306406679766226e-06 
 1.0579678198528903e-06  1.0860243741263375e-06  1.1148300568528102e-06  1.1444051411979636e-06 
 1.1747704633274139e-06  1.2059474387952374e-06  1.2379580794482805e-06  1.2708250108644226e-06 
 1.3045714903436767e-06  1.3392214254717687e-06  1.3747993932766342e-06  1.4113306599990937e-06 
 1.4488412014998550e-06  1.4873577243258835e-06  1.5269076874601434e-06  1.5675193247797197e-06 
 1.6092216682483425e-06  1.6520445718704685e-06  1.6960187364351845e-06  1.7411757350794150e-06 
 1.7875480397011670e-06  1.8351690482548550e-06  1.8840731129621320e-06  1.9342955694730926e-06 
 1.9858727670142411e-06  2.0388420995611761e-06  2.0932420380756451e-06  2.1491121638483341e-06 
 2.2064932029906187e-06  2.2654270621203948e-06  2.3259568652891563e-06  2.3881269921995751e-06 
 2.4519831177650766e-06  2.5175722530652477e-06  2.5849427877533315e-06  2.6541445339746772e-06 
 2.7252287718576861e-06  2.7982482966416690e-06  2.8732574675089767e-06  2.9503122581919442e-06 
 3.0294703094284773e-06  3.1107909833435514e-06  3.1943354198376189e-06  3.2801665950666594e-06 
 3.3683493821027487e-06  3.4589506138682013e-06  3.5520391484408516e-06  3.6476859368327546e-06 
 3.7459640933495157e-06  3.8469489686427211e-06  3.9507182255734088e-06  4.0573519180103598e-06 
 4.1669325726930337e-06  4.2795452742954620e-06  4.3952777538341929e-06  4.5142204805704823e-06 
 4.6364667575645348e-06  4.7621128210475130e-06  4.8912579437854042e-06  5.0240045426177338e-06 
 5.1604582903634230e-06  5.3007282322959294e-06  5.4449269074002396e-06  5.5931704746352640e-06 
 5.7455788444367654e-06  5.9022758157082215e-06  6.0633892185599395e-06  6.2290510630704598e-06 
 6.3993976943586502e-06  6.5745699542703083e-06  6.7547133499990414e-06  6.9399782299784706e-06 
 7.1305199674007083e-06  7.3264991517352382e-06  7.5280817886425283e-06  7.7354395086980748e-06 
 7.9487497853652045e-06  8.1681961626789658e-06  8.3939684931288299e-06  8.6262631862546587e-06 
 8.8652834684990797e-06  9.1112396548894102e-06  9.3643494331542908e-06  9.6248381609140901e-06 
 9.8929391766200370e-06  1.0168894124955161e-05  1.0452953297450456e-05  1.0745375989112667e-05 
 1.1046430871905455e-05  1.1356396385974021e-05  1.1675561149554542e-05  1.2004224388564130e-05 
 1.2342696386924810e-05  1.2691298958736467e-05  1.3050365943478801e-05  1.3420243725491770e-05 
 1.3801291779057625e-05  1.4193883240485901e-05  1.4598405508686210e-05  1.5015260875802075e-05 
 1.5444867189573527e-05  1.5887658549196436e-05  1.6344086036553263e-05  1.6814618484803891e-05 
 1.7299743286445940e-05  1.7799967243083398e-05  1.8315817459279450e-05  1.8847842283016152e-05 
 1.9396612295439667e-05  1.9962721352736251e-05  2.0546787683161873e-05  2.1149455042437596e-05 
 2.1771393930925310e-05  2.2413302876213791e-05  2.3075909784975798e-05  2.3759973368202500e-05 
 2.4466284644184551e-05  2.5195668523889752e-05  2.5948985483687100e-05  2.6727133330687863e-05 
 2.7531049066316976e-05  2.8361710854094970e-05  2.9220140098002608e-05  3.0107403638220482e-05 
 3.1024616071484673e-05  3.1972942203780923e-05  3.2953599643614522e-05  3.3967861544645042e-05 
 3.5017059507065915e-05  3.6102586647742518e-05  3.7225900849801510e-05  3.8388528203092084e-05 
 3.9592066647721375e-05  4.0838189833703245e-05  4.2128651210659664e-05  4.3465288362478411e-05 
 4.4850027602867318e-05  4.6284888848857817e-05  4.7771990790506260e-05  4.9313556376325532e-05 
 5.0911918635360226e-05  5.2569526858302731e-05  5.4288953161642970e-05  5.6072899460561670e-05 
 5.7924204878123096e-05  5.9845853620310837e-05  6.1840983348589328e-05  6.3912894083976228e-05 
 6.6065057679092471e-05  6.8301127897326717e-05  7.0624951141131412e-05  7.3040577874568623e-05 
 7.5552274788569216e-05  7.8164537760974144e-05  8.0882105667316289e-05  8.3709975102495447e-05 
 8.6653416078026239e-05  8.9717988764423265e-05  9.2909561353561156e-05  9.6234329121539633e-05 
 9.9698834778732935e-05  1.0330999020034262e-04  1.0707509963794803e-04  1.1100188452030115e-04 
 1.1509850995999056e-04  1.1937361309165769e-04  1.2383633337724009e-04  1.2849634502430689e-04 
 1.3336389167500399e-04  1.3844982353551630e-04  1.4376563712935889e-04  1.4932351787231156e-04 
 1.5513638568251202e-04  1.6121794385620723e-04  1.6758273145806024e-04  1.7424617949481785e-04 
 1.8122467116270526e-04  1.8853560648226028e-04  1.9619747165960325e-04  2.0422991354051957e-04 
 2.1265381955339220e-04  2.2149140356914589e-04  2.3076629814116375e-04  2.4050365362583232e-04 
 2.5073024472520490e-04  2.6147458503750698e-04  2.7276705024912342e-04  2.8464001065360735e-04 
 2.9712797373946986e-04  3.1026773764939364e-04  3.2409855637945470e-04  3.3866231765833095e-04 
 3.5400373452378449e-04  3.7017055169738598e-04  3.8721376794901836e-04  4.0518787574070765e-04 
 4.2415111954534931e-04  4.4416577435057341e-04  4.6529844598197428e-04  4.8762039501393608e-04 
 5.1120788618107564e-04  5.3614256535969198e-04  5.6251186635741920e-04  5.9040944993141273e-04 
 6.1993567765181179e-04  6.5119812343890989e-04  6.8431212583045127e-04  7.1940138428086119e-04 
 7.5659860305812517e-04  7.9604618658758698e-04  8.3789699039639183e-04  8.8231513213878575e-04 
 9.2947686753228303e-04  9.7957153640900428e-04  1.0328025844864930e-03  1.0893886668891870e-03 
 1.1495648399065758e-03  1.2135838479579125e-03  1.2817175132470923e-03  1.3542582361356968e-03 
 1.4315206148377737e-03  1.5138431936469856e-03  1.6015903495452967e-03  1.6951543277119840e-03 
 1.7949574371516118e-03  1.9014544183883033e-03  2.0151349959291682e-03  2.1365266289792334e-03 
 2.2661974746901173e-03  2.4047595790401407e-03  2.5528723112688023e-03  2.7112460586161901e-03 
 2.8806461989392710e-03  3.0618973695813677e-03  3.2558880516460448e-03  3.4635754895571929e-03 
 3.6859909664559974e-03  3.9242454565726701e-03  4.1795356761929747e-03  4.4531505551903055e-03 
 4.7464781512829455e-03  5.0610130291690253e-03  5.3983641264499661e-03  5.7602631277337054e-03 
 6.1485733674638780e-03  6.5652992807969622e-03  7.0125964201884564e-03  7.4927820531871855e-03 
 8.0083463542053243e-03  8.5619641996563800e-03  9.1565075717549779e-03  9.7950585713676083e-03 
 1.0480923034504671e-02  1.1217644740261604e-02  1.2009020190157609e-02  1.2859113929793839e-02 
 1.3772274373466838e-02  1.4753150080743037e-02  1.5806706420945504e-02  1.6938242546957260e-02 
 1.8153408583650183e-02  1.9458222918570113e-02  2.0859089463233824e-02  2.2362814732538885e-02 
 2.3976624567406967e-02  2.5708180301968624e-02  2.7565594151498795e-02  2.9557443571130299e-02 
 3.1692784308375486e-02  3.3981161845017663e-02  3.6432620896418549e-02  3.9057712609241527e-02 
 4.1867499072625602e-02  4.4873554733677989e-02  4.8087964286605688e-02  5.1523316586813174e-02 
 5.5192694127889991e-02  5.9109657611739364e-02  6.3288225141383048e-02  6.7742845573507682e-02 
 7.2488365584922262e-02  7.7539990035079470e-02  8.2913235246915074e-02  8.8623874881536169e-02 
 9.4687878149526630e-02  1.0112134018318061e-01  1.0794040448954602e-01  1.1516117751263427e-01 
 1.2279963545228927e-01  1.3087152361337809e-01  1.3939224868687705e-01  1.4837676448693077e-01 
 1.5783945177601899e-01  1.6779399289327521e-01  1.7825324194706962e-01  1.8922909133078911e-01 
 2.0073233526114989e-01  2.1277253091720599e-01  2.2535785757962418e-01  2.3849497394975672e-01 
 2.5218887359708025e-01  2.6644273828811055e-01  2.8125778885002967e-01  2.9663313328646385e-01 
 3.1256561215793899e-01  3.2904964181767088e-01  3.4607705697740682e-01  3.6363695524784123e-01 
 3.8171554767964339e-01  4.0029602079007270e-01  4.1935841690160164e-01  4.3887954059652984e-01 
 4.5883289943325256e-01  4.7918868653014929e-01  4.9991381106438321e-01  5.2097198021995383e-01 
 5.4232383298215392e-01  5.6392712298275893e-01  5.8573694501095441e-01  6.0770599833718875e-01 
 6.2978487982100095e-01  6.5192240064344187e-01  6.7406592186371439e-01  6.9616170519232423e-01 
 7.1815527584280658e-01  7.3999179372695600e-01  7.6161642749898695e-01  7.8297472320696293e-01 
 8.0401295607404966e-01  8.2467845109519888e-01  8.4491985694163130e-01  8.6468735945025765e-01 
 8.8393282659953643e-01  9.0260988603875558e-01  9.2067394709653605e-01  9.3808218870457138e-01 
 9.5479353975507819e-01  9.7076867735343897e-01  9.8597006276605714e-01  1.0003620292686926e+00 
 1.0139108782202935e+00  1.0265850618011345e+00  1.0383553543602804e+00  1.0491950307549442e+00 
 1.0590800363503101e+00  1.0679891366741658e+00  1.0759040398895960e+00  1.0828094887476849e+00 
 1.0886933213715662e+00  1.0935465020867872e+00  1.0973631246259630e+00  1.1001403905620692e+00 
 1.1018785659466446e+00  1.1025809190065456e+00  1.1022536415074566e+00  1.1009057561060858e+00 
 1.0985490117349936e+00  1.0951977688189833e+00  1.0908688759185134e+00  1.0855815392327710e+00 
 1.0793571862668758e+00  1.0722193248664693e+00  1.0641933987406957e+00  1.0553066405243381e+00 
 1.0455879233658512e+00  1.0350676119659856e+00  1.0237774139285902e+00  1.0117502322190550e+00 
 9.9902001945898500e-01  9.8562163471114472e-01  9.7159070333078545e-01  9.5696348038994650e-01 
 9.4177671810369390e-01  9.2606753760961236e-01  9.0987330538381117e-01  8.9323151451021465e-01 
 8.7617967095966443e-01  8.5875518498169734e-01  8.4099526732168772e-01  8.2293683201209633e-01 
 8.0461640227314668e-01  7.8607002293376649e-01  7.6733317760806763e-01  7.4844071090713760e-01 
 7.2942675562113213e-01  7.1032466480474787e-01  6.9116694870049289e-01  6.7198521643738118e-01 
 6.5281012244676240e-01  6.3367131754103190e-01  6.1459740460435519e-01  5.9561589884669430e-01 
 5.7675319257268498e-01  5.5803452441463097e-01  5.3948395297855645e-01  5.2112433484429244e-01 
 5.0297730685445585e-01  4.8506327261915155e-01  4.6740139315368839e-01  4.5000958155621729e-01 
 4.3290450162125221e-01  4.1610157027380062e-01  3.9961496369744631e-01  3.8345762701945857e-01 
 3.6764128740464652e-01  3.5217647039877731e-01  3.3707251935573362e-01  3.2233761777157671e-01 
 3.0797881434277902e-01  2.9400205055953799e-01  2.8041219063941297e-01  2.6721305360292619e-01 
 2.5440744729032860e-01  2.4199720411757558e-01  2.2998321836979438e-01  2.1836548483211818e-01 
 2.0714313856067626e-01  1.9631449560067643e-01  1.8587709446383069e-01  1.7582773818353462e-01 
 1.6616253677311366e-01  1.5687694992019222e-01  1.4796582975843153e-01  1.3942346356622365e-01 
 1.3124361625044689e-01  1.2341957248193805e-01  1.1594417835779829e-01  1.0880988247392429e-01 
 1.0200877629921497e-01  9.5532633750705268e-02  8.9372949876424607e-02  8.3520978560071152e-02 
 7.7967769168656442e-02  7.2704202071131374e-02  6.7721022962685215e-02  6.3008875935931116e-02 
 5.8558335246514839e-02  5.4359935726812580e-02  5.0404201808182808e-02  4.6681675117189174e-02 
 4.3182940617692900e-02  3.9898651276287458e-02  3.6819551234006202e-02  3.3936497472551140e-02 
 3.1240479968402048e-02  2.8722640333210425e-02  2.6374288943440044e-02  2.4186920566647993e-02 
 2.2152228496849481e-02  2.0262117215122760e-02  1.8508713595986093e-02  1.6884376684310868e-02 
 1.5381706071653071e-02  1.3993548905009494e-02  1.2713005565122962e-02  1.1533434055557642e-02 
 1.0448453147816445e-02  9.4519443317373532e-03  8.5380526242342918e-03  7.7011862930797320e-03 
 6.9360155557787288e-03  6.2374703166692457e-03  5.6007370079408378e-03  5.0212546025502304e-03 
 4.4947098686366690e-03  4.0170319362150446e-03  3.5843862475174620e-03  3.1931679623557027e-03 
 2.8399948893459226e-03  2.5217000127668700e-03  2.2353236831528650e-03  1.9781055376309610e-03 
 1.7474762134990819e-03  1.5410489155918779e-03  1.3566108947244222e-03  1.1921148909698213e-03 
 1.0456705917762067e-03  9.1553615101810937e-04  8.0010981106161025e-04  6.9792166585391346e-04 
 6.0762559897363261e-04  5.2799142654181089e-04  4.5789727093466199e-04  3.9632218739173560e-04 
 3.4233906190744612e-04  2.9510779525497777e-04  2.5386878464035527e-04  2.1793671133756986e-04 
 1.8669463972575446e-04  1.5958843044550479e-04  1.3612146791906421e-04  1.1584970024061786e-04 
 9.8376987437898261e-05  8.3350752331628751e-05  7.0457926669723154e-05  5.9421183881475773e-05 
 4.9995448673029311e-05  4.1964672762177510e-05  3.5138865311169419e-05  2.9351366053603533e-05 
 2.4456348709512083e-05  2.0326542029252775e-05  1.6851155688175902e-05  1.3933998256796898e-05 
 1.1491774582156989e-05  9.4525501222686874e-06  7.7543700645184092e-06  6.3440214186425873e-06 
 5.1759266939889381e-06  4.2111582384333666e-06  3.4165628224275230e-06  2.7639865867863121e-06 
 2.2295910282958193e-06  1.7932512650767181e-06  1.4380283966698869e-06  1.1497083455628952e-06 
 9.1640013163718241e-07  7.2818708380960110e-07  5.7682502971049481e-07  4.5548202102008995e-07 
 3.5851464617763786e-07  2.8127645131534113e-07  2.1995443277316801e-07  1.7142997928732879e-07 
 1.3316102827673512e-07  1.0308255838554635e-07  7.9522869775816963e-08  6.1133405141695320e-08 
 4.6830138862056024e-08  3.5744810184463539e-08  2.7184500090013233e-08  2.0598251917791983e-08 
 1.5549614421152265e-08  1.1694144239635079e-08  8.7610443801006987e-09  6.5382377913186833e-09 
 4.8602820384858344e-09  3.5986239460703624e-09  2.6537733210614621e-09  1.9490438602129241e-09 
 1.4255683644649998e-09  1.0383456197985124e-09  7.5311884958203797e-10  5.4392149630455571e-10 
 3.9115615295289963e-10  2.8009754682886456e-10  1.9973130435037656e-10  1.4185743522372665e-10 
 1.0040163338324273e-10  7.0889096745529997e-11  0.0000000000000000e+00  0.0000000000000000e+00 
 0.0000000000000000e+00  0.0000000000000000e+00  0.0000000000000000e+00  0.0000000000000000e+00 
 0.0000000000000000e+00  0.0000000000000000e+00  0.0000000000000000e+00  0.0000000000000000e+00 
 0.0000000000000000e+00  0.0000000000000000e+00  0.0000000000000000e+00  0.0000000000000000e+00 
 0.0000000000000000e+00  0.0000000000000000e+00  0.0000000000000000e+00  0.0000000000000000e+00 
 0.0000000000000000e+00  0.0000000000000000e+00  0.0000000000000000e+00  0.0000000000000000e+00 
 0.0000000000000000e+00  0.0000000000000000e+00  0.0000000000000000e+00  0.0000000000000000e+00 
 0.0000000000000000e+00  0.0000000000000000e+00  0.0000000000000000e+00  0.0000000000000000e+00 
 0.0000000000000000e+00  0.0000000000000000e+00  0.0000000000000000e+00  0.0000000000000000e+00 
 0.0000000000000000e+00  0.0000000000000000e+00  0.0000000000000000e+00  0.0000000000000000e+00 
 0.0000000000000000e+00  0.0000000000000000e+00  0.0000000000000000e+00  0.0000000000000000e+00 
 0.0000000000000000e+00  0.0000000000000000e+00  0.0000000000000000e+00  0.0000000000000000e+00 
 0.0000000000000000e+00  0.0000000000000000e+00  0.0000000000000000e+00  0.0000000000000000e+00 
 0.0000000000000000e+00  0.0000000000000000e+00  0.0000000000000000e+00  0.0000000000000000e+00 
 0.0000000000000000e+00  0.0000000000000000e+00  0.0000000000000000e+00  0.0000000000000000e+00 
 0.0000000000000000e+00  0.0000000000000000e+00  0.0000000000000000e+00  0.0000000000000000e+00 
 0.0000000000000000e+00  0.0000000000000000e+00  0.0000000000000000e+00  0.0000000000000000e+00 
 0.0000000000000000e+00  0.0000000000000000e+00  0.0000000000000000e+00  0.0000000000000000e+00 
 0.0000000000000000e+00  0.0000000000000000e+00  0.0000000000000000e+00  0.0000000000000000e+00 
 0.0000000000000000e+00  0.0000000000000000e+00  0.0000000000000000e+00  0.0000000000000000e+00 
 0.0000000000000000e+00  0.0000000000000000e+00  0.0000000000000000e+00  0.0000000000000000e+00 
 0.0000000000000000e+00  0.0000000000000000e+00  0.0000000000000000e+00  0.0000000000000000e+00 
 0.0000000000000000e+00  0.0000000000000000e+00  0.0000000000000000e+00  0.0000000000000000e+00 
 0.0000000000000000e+00  0.0000000000000000e+00  0.0000000000000000e+00  0.0000000000000000e+00 
 0.0000000000000000e+00  0.0000000000000000e+00  0.0000000000000000e+00  0.0000000000000000e+00 
 0.0000000000000000e+00  0.0000000000000000e+00  0.0000000000000000e+00  0.0000000000000000e+00 
 0.0000000000000000e+00  0.0000000000000000e+00  0.0000000000000000e+00  0.0000000000000000e+00 
 0.0000000000000000e+00  0.0000000000000000e+00  0.0000000000000000e+00  0.0000000000000000e+00 
 0.0000000000000000e+00  0.0000000000000000e+00  0.0000000000000000e+00  0.0000000000000000e+00 
 0.0000000000000000e+00  0.0000000000000000e+00  0.0000000000000000e+00  0.0000000000000000e+00 
 0.0000000000000000e+00  0.0000000000000000e+00  0.0000000000000000e+00  0.0000000000000000e+00 
 0.0000000000000000e+00  0.0000000000000000e+00  0.0000000000000000e+00  0.0000000000000000e+00 
 0.0000000000000000e+00  0.0000000000000000e+00  0.0000000000000000e+00  0.0000000000000000e+00 
 0.0000000000000000e+00  0.0000000000000000e+00  0.0000000000000000e+00  0.0000000000000000e+00 
 0.0000000000000000e+00  0.0000000000000000e+00  0.0000000000000000e+00  0.0000000000000000e+00 
 0.0000000000000000e+00  0.0000000000000000e+00  0.0000000000000000e+00  0.0000000000000000e+00 
 0.0000000000000000e+00  0.0000000000000000e+00  0.0000000000000000e+00  0.0000000000000000e+00 
 0.0000000000000000e+00  0.0000000000000000e+00  0.0000000000000000e+00  0.0000000000000000e+00 
 0.0000000000000000e+00  0.0000000000000000e+00  0.0000000000000000e+00  0.0000000000000000e+00 
 0.0000000000000000e+00  0.0000000000000000e+00  0.0000000000000000e+00  0.0000000000000000e+00 
 0.0000000000000000e+00  0.0000000000000000e+00  0.0000000000000000e+00  0.0000000000000000e+00 
 0.0000000000000000e+00  0.0000000000000000e+00  0.0000000000000000e+00  0.0000000000000000e+00 
 0.0000000000000000e+00  0.0000000000000000e+00  0.0000000000000000e+00 
D    2   5.50          Wavefunction
 1.4563960544547268e-15  1.5143176303459906e-15  1.5745427753598823e-15  1.6371631035565271e-15 
 1.7022738725316675e-15  1.7699741283218447e-15  1.8403668560725303e-15  1.9135591366984073e-15 
 1.9896623097740959e-15  2.0687921429031381e-15  2.1510690078228577e-15  2.2366180635129980e-15 
 2.3255694465866889e-15  2.4180584692533423e-15  2.5142258251546390e-15  2.6142178033867066e-15 
 2.7181865110340708e-15  2.8262901045538834e-15  2.9386930303624180e-15  3.0555662749898106e-15 
 3.1770876251835716e-15  3.3034419383565447e-15  3.4348214237907159e-15  3.5714259350246303e-15 
 3.7134632738691998e-15  3.8611495065143796e-15  4.0147092922075431e-15  4.1743762250035788e-15 
 4.3403931891065390e-15  4.5130127283434054e-15  4.6924974303320104e-15  4.8791203259275074e-15 
 5.0731653045550134e-15  5.2749275460602507e-15  5.4847139697350816e-15  5.7028437012010284e-15 
 5.9296485578609696e-15  6.1654735536574902e-15  6.4106774239057229e-15  6.6656331709990509e-15 
 6.9307286318177990e-15  7.2063670677040307e-15  7.4929677778999580e-15  7.7909667373830852e-15 
 8.1008172600683890e-15  8.4229906883863313e-15  8.7579771102857997e-15  9.1062861047525476e-15 
 9.4684475169773168e-15  9.8450122643527473e-15  1.0236553174525215e-14  1.0643665856776369e-14 
 1.1066969608059999e-14  1.1507108355072371e-14  1.1964751633789233e-14  1.2440595607959460e-14 
 1.2935364128104705e-14  1.3449809832635990e-14  1.3984715292762284e-14  1.4540894202932607e-14 
 1.5119192618622664e-14  1.5720490243348871e-14  1.6345701766867528e-14  1.6995778256594882e-14 
 1.7671708604364670e-14  1.8374521030723912e-14  1.9105284649055306e-14  1.9865111091905563e-14 
 2.0655156201993655e-14  2.1476621790471289e-14  2.2330757465110282e-14  2.3218862531197919e-14 
 2.4142287968031819e-14  2.5102438484021043e-14  2.6100774653519593e-14  2.7138815138642895e-14 
 2.8218138999447008e-14  2.9340388095984894e-14  3.0507269585893602e-14  3.1720558521311828e-14 
 3.2982100549078286e-14  3.4293814718318148e-14  3.5657696399688868e-14  3.7075820320725676e-14 
 3.8550343721904593e-14  4.0083509638223426e-14  4.1677650311293076e-14  4.3335190737129518e-14 
 4.5058652355043147e-14  4.6850656883237326e-14  4.8713930306950550e-14  5.0651307025209232e-14 
 5.2665734162498842e-14  5.4760276051912619e-14  5.6938118896597286e-14  5.9202575616587100e-14 
 6.1557090888398855e-14  6.4005246385054286e-14  6.6550766224501072e-14  6.9197522634720099e-14 
 7.1949541844137360e-14  7.4811010206300449e-14  7.7786280568136819e-14  8.0879878891481083e-14 
 8.4096511137943720e-14  8.7441070427595188e-14  9.0918644482354223e-14  9.4534523365404059e-14 
 9.8294207528409311e-14  1.0220341617877502e-13  1.0626809597967591e-13  1.1049443009609116e-13 
 1.1488884760060412e-13  1.1945803325327637e-13  1.2420893767047277e-13  1.2914878789810583e-13 
 1.3428509840538437e-13  1.3962568251578921e-13  1.4517866429266556e-13  1.5095249089751174e-13 
 1.5695594543976399e-13  1.6319816033762475e-13  1.6968863121025812e-13  1.7643723132248627e-13 
 1.8345422660395941e-13  1.9075029126564675e-13  1.9833652403740419e-13  2.0622446505131976e-13 
 2.1442611339651889e-13  2.2295394537213516e-13  2.3182093346621169e-13  2.4104056608940499e-13 
 2.5062686809350952e-13  2.6059442210601662e-13  2.7095839071316089e-13  2.8173453952519976e-13 
 2.9293926115901344e-13  3.0458960017450677e-13  3.1670327900274726e-13  3.2929872490528084e-13 
 3.4239509800563633e-13  3.5601232043565963e-13  3.7017110664101612e-13  3.8489299489196176e-13 
 4.0020038004731652e-13  4.1611654762148322e-13  4.3266570920633206e-13  4.4987303930183618e-13 
 4.6776471361148610e-13  4.8636794886073653e-13  5.0571104419905978e-13  5.2582342424858470e-13 
 5.4673568386480958e-13  5.6847963467747750e-13  5.9108835348241444e-13  6.1459623255794185e-13 
 6.3903903198240867e-13  6.6445393403242647e-13  6.9087959974456078e-13  7.1835622772651839e-13 
 7.4692561530729936e-13  7.7663122211933079e-13  8.0751823620931104e-13  8.3963364277832532e-13 
 8.7302629565580974e-13  9.0774699161608326e-13  9.4384854765050599e-13  9.8138588131280672e-13 
 1.0204160942598060e-12  1.0609985591146159e-12  1.1031950097844550e-12  1.1470696353704747e-12 
 1.1926891778124518e-12  1.2401230334168862e-12  1.2894433584229525e-12  1.3407251787668956e-12 
 1.3940465042118446e-12  1.4494884470166617e-12  1.5071353453243512e-12  1.5670748914577296e-12 
 1.6293982653175229e-12  1.6942002730858190e-12  1.7615794914458779e-12  1.8316384175376927e-12 
 1.9044836248774133e-12  1.9802259254778236e-12  2.0589805384165065e-12  2.1408672651081101e-12 
 2.2260106715473616e-12  2.3145402778000550e-12  2.4065907550302777e-12  2.5023021303636034e-12 
 2.6018199998978871e-12  2.7052957501857232e-12  2.8128867885254736e-12  2.9247567824112135e-12 
 3.0410759085058436e-12  3.1620211115161253e-12  3.2877763733634606e-12  3.4185329930598703e-12 
 3.5544898777149615e-12  3.6958538451165519e-12  3.8428399383452855e-12  3.9956717529018101e-12 
 4.1545817768442033e-12  4.3198117444530582e-12  4.4916130039622422e-12  4.6702468999147847e-12 
 4.8559851707255044e-12  5.0491103620552211e-12  5.2499162566253699e-12  5.4587083211269260e-12 
 5.6758041709034669e-12  5.9015340531153154e-12  6.1362413491197789e-12  6.3802830968317409e-12 
 6.6340305338592862e-12  6.8978696622406007e-12  7.1722018356412851e-12  7.4574443699053767e-12 
 7.7540311778889256e-12  8.0624134295418603e-12  8.3830602382423661e-12  8.7164593744278566e-12 
 9.0631180076082303e-12  9.4235634778902218e-12  9.7983440981865680e-12  1.0188029988330433e-11 
 1.0593213942363993e-11  1.1014512330320693e-11  1.1452566035872967e-11  1.1908041431271987e-11 
 1.2381631391062606e-11  1.2874056346115675e-11  1.3386065379581339e-11  1.3918437366430582e-11 
 1.4471982158318644e-11  1.5047541815572966e-11  1.5645991888179908e-11  1.6268242747719096e-11 
 1.6915240972271750e-11  1.7587970786409958e-11  1.8287455558457623e-11  1.9014759357301084e-11 
 1.9770988571117740e-11  2.0557293590485607e-11  2.1374870558434252e-11  2.2224963190099851e-11 
 2.3108864664752624e-11  2.4027919593075294e-11  2.4983526062685586e-11  2.5977137765014848e-11 
 2.7010266206778736e-11  2.8084483009404525e-11  2.9201422299913499e-11  3.0362783196895982e-11 
 3.1570332395361422e-11  3.2825906854396108e-11  3.4131416591717802e-11  3.5488847589379161e-11 
 3.6900264815040723e-11  3.8367815363410652e-11  3.9893731722630534e-11  4.1480335170577277e-11 
 4.3130039306248578e-11  4.4845353721605094e-11  4.6628887819455975e-11  4.8483354783196997e-11 
 5.0411575704441312e-11  5.2416483874823299e-11  5.4501129248505824e-11  5.6668683082180845e-11 
 5.8922442759623650e-11  6.1265836808141525e-11  6.3702430114550353e-11  6.6235929348615429e-11 
 6.8870188602209027e-11  7.1609215252765966e-11  7.4457176059958451e-11  7.7418403504868257e-11 
 8.0497402381301718e-11  8.3698856649277732e-11  8.7027636561117685e-11  9.0488806070981478e-11 
 9.4087630539124487e-11  9.7829584742599642e-11  1.0172036120459518e-10  1.0576587885508285e-10 
 1.0997229203595706e-10  1.1434599986436827e-10  1.1889365596850045e-10  1.2362217861060856e-10 
 1.2853876121272232e-10  1.3365088330103431e-10  1.3896632188562922e-10  1.4449316329287333e-10 
 1.5023981546847084e-10  1.5621502076991381e-10  1.6242786926779363e-10  1.6888781257621903e-10 
 1.7560467823339110e-10  1.8258868465422196e-10  1.8985045667775700e-10  1.9740104173306404e-10 
 2.0525192664819569e-10  2.1341505512781041e-10  2.2190284592605587e-10  2.3072821174237635e-10 
 2.3990457886900748e-10  2.4944590762006689e-10  2.5936671357333761e-10  2.6968208965708137e-10 
 2.8040772911550403e-10  2.9155994938783481e-10  3.0315571693737105e-10  3.1521267306828953e-10 
 3.2774916076952727e-10  3.4078425262660155e-10  3.5433777984386441e-10  3.6843036242137886e-10 
 3.8308344053236218e-10  3.9831930714897396e-10  4.1416114196612369e-10  4.3063304667495348e-10 
 4.4776008163970809e-10  4.6556830403384180e-10  4.8408480749343519e-10  5.0333776334830779e-10 
 5.2335646349361747e-10  5.4417136496723463e-10  5.6581413630078427e-10  5.8831770571494730e-10 
 6.1171631123242615e-10  6.3604555278490207e-10  6.6134244639335384e-10  6.8764548050426225e-10 
 7.1499467456752151e-10  7.4343163994528474e-10  7.7299964324453310e-10  8.0374367216985622e-10 
 8.3571050399676338e-10  8.6894877676985322e-10  9.0350906333432107e-10  9.3944394831360148e-10 
 9.7680810815044412e-10  1.0156583943333902e-09  1.0560539199354762e-09  1.0980561495970456e-09 
 1.1417289930898110e-09  1.1871389026047580e-09  1.2343549739121871e-09  1.2834490515480787e-09 
 1.3344958381871243e-09  1.3875730083691590e-09  1.4427613267523649e-09  1.5001447710735420e-09 
 1.5598106600029128e-09  1.6218497860884234e-09  1.6863565539922539e-09  1.7534291242303473e-09 
 1.8231695626341766e-09  1.8956839957626911e-09  1.9710827725015058e-09  2.0494806320958175e-09 
 2.1309968788733944e-09  2.2157555639241865e-09  2.3038856740137652e-09  2.3955213280188230e-09 
 2.4908019811845109e-09  2.5898726375153033e-09  2.6928840706235747e-09  2.7999930533729502e-09 
 2.9113625966670053e-09  3.0271621977478333e-09  3.1475680983835893e-09  3.2727635533392455e-09 
 3.4029391095405101e-09  3.5382928963572776e-09  3.6790309274499685e-09  3.8253674146398494e-09 
 3.9775250942828338e-09  4.1357355666454289e-09  4.3002396488014020e-09  4.4712877415884863e-09 
 4.6491402111859998e-09  4.8340677858966323e-09  5.0263519687390434e-09  5.2262854664820849e-09 
 5.4341726357767829e-09  5.6503299470683514e-09  5.8750864669979064e-09  6.1087843600318473e-09 
 6.3517794100864638e-09  6.6044415629460392e-09  6.8671554903046155e-09  7.1403211762948991e-09 
 7.4243545274022931e-09  7.7196880066980574e-09  8.0267712933629588e-09  8.3460719685117195e-09 
 8.6780762283690387e-09  9.0232896258900952e-09  9.3822378419622130e-09  9.7554674873699782e-09 
 1.0143546936753459e-08  1.0547067195838598e-08  1.0966642803270024e-08  1.1402912768430020e-08 
 1.1856541546682905e-08  1.2328220053541803e-08  1.2818666719314914e-08  1.3328628585851104e-08 
 1.3858882447069359e-08  1.4410236035024700e-08  1.4983529253333439e-08  1.5579635459853913e-08 
 1.6199462800595236e-08  1.6843955596905796e-08  1.7514095788076037e-08  1.8210904431575641e-08 
 1.8935443263235039e-08  1.9688816319773853e-08  2.0472171626175973e-08  2.1286702950511523e-08 
 2.2133651628910975e-08  2.3014308463505676e-08  2.3930015696262699e-08  2.4882169061760076e-08 
 2.5872219922071400e-08  2.6901677487057115e-08  2.7972111123492546e-08  2.9085152756601891e-08 
 3.0242499367711552e-08  3.1445915591886386e-08  3.2697236419569063e-08  3.3998370006405266e-08 
 3.5351300595607270e-08  3.6758091557384581e-08  3.8220888550154337e-08  3.9741922808434961e-08 
 4.1323514562526151e-08  4.2968076595285123e-08  4.4678117941525189e-08  4.6456247735787351e-08 
 4.8305179214469340e-08  5.0227733878540736e-08  5.2226845823325801e-08  5.4305566242100695e-08 
 5.6467068110526048e-08  5.8714651059223020e-08  6.1051746442099359e-08  6.3481922608342326e-08 
 6.6008890386319978e-08  6.8636508787968503e-08  7.1368790942595775e-08  7.4209910269395737e-08 
 7.7164206898351532e-08  8.0236194349599886e-08  8.3430566481745596e-08  8.6752204720044187e-08 
 9.0206185575820995e-08  9.3797788468963023e-08  9.7532503865807288e-08  1.0141604174525789e-07 
 1.0545434040649406e-07  1.0965357563218360e-07  1.1402017022169108e-07  1.1856080390937077e-07 
 1.2328242368365978e-07  1.2819225452333765e-07  1.3329781056799992e-07  1.3860690674050063e-07 
 1.4412767083985842e-07  1.4986855612389065e-07  1.5583835440164469e-07  1.6204620965653220e-07 
 1.6850163222194682e-07  1.7521451353205779e-07  1.8219514147142249e-07  1.8945421634805305e-07 
 1.9700286751560696e-07  2.0485267067145261e-07  2.1301566585848579e-07  2.2150437619975150e-07 
 2.3033182739615004e-07  2.3951156801878928e-07  2.4905769062888143e-07  2.5898485375947789e-07 
 2.6930830479479405e-07  2.8004390378439564e-07  2.9120814823110990e-07  3.0281819889317860e-07 
 3.1489190664291104e-07  3.2744784042589466e-07  3.4050531636672077e-07  3.5408442806915233e-07 
 3.6820607816072673e-07  3.8289201113394232e-07  3.9816484753843081e-07  4.1404811958087369e-07 
 4.3056630819188263e-07  4.4774488162163693e-07  4.6561033562876409e-07  4.8419023532975988e-07 
 5.0351325877919106e-07  5.2360924235400103e-07  5.4450922801845256e-07  5.6624551254962020e-07 
 5.8885169880686093e-07  6.1236274913237815e-07  6.3681504097386725e-07  6.6224642482424950e-07 
 6.8869628457775232e-07  7.1620560040600439e-07  7.4481701426246464e-07  7.7457489812834970e-07 
 8.0552542511831871e-07  8.3771664356950055e-07  8.7119855424303118e-07  9.0602319077312545e-07 
 9.4224470350482964e-07  9.7991944686804355e-07  1.0191060704421295e-06  1.0598656138724982e-06 
 1.1022616058079743e-06  1.1463601670355135e-06  1.1922301179970100e-06  1.2399430908814712e-06 
 1.2895736464948528e-06  1.3411993961192270e-06  1.3949011285829012e-06  1.4507629427734603e-06 
 1.5088723858366400e-06  1.5693205973153900e-06  1.6322024594955307e-06  1.6976167542370653e-06 
 1.7656663265834932e-06  1.8364582554554735e-06  1.9101040317498440e-06  1.9867197441804951e-06 
 2.0664262732138150e-06  2.1493494934685432e-06  2.2356204849678313e-06  2.3253757536502632e-06 
 2.4187574615664865e-06  2.5159136672090863e-06  2.6169985764454314e-06  2.7221728045464506e-06 
 2.8316036498288113e-06  2.9454653794537944e-06  3.0639395279533313e-06  3.1872152090823597e-06 
 3.3154894416268675e-06  3.4489674898288764e-06  3.5878632191231887e-06  3.7323994679162371e-06 
 3.8828084361747336e-06  4.0393320916313056e-06  4.2022225944560033e-06  4.3717427412865190e-06 
 4.5481664295564515e-06  4.7317791431099978e-06  4.9228784601432969e-06  5.1217745845674434e-06 
 5.3287909019460600e-06  5.5442645612215450e-06  5.7685470835087904e-06  6.0020049993036328e-06 
 6.2450205155256639e-06  6.4979922138916656e-06  6.7613357821969118e-06  7.0354847801674754e-06 
 7.3208914416374070e-06  7.6180275149009646e-06  7.9273851431917857e-06  8.2494777873490254e-06 
 8.5848411928446772e-06  8.9340344034676044e-06  9.2976408240883138e-06  9.6762693350646695e-06 
 1.0070555460993348e-05  1.0481162596665044e-05  1.0908783293244141e-05  1.1354140607866022e-05 
 1.1817989520028571e-05  1.2301118418348770e-05  1.2804350661461919e-05  1.3328546217060360e-05 
 1.3874603383301603e-05  1.4443460597063510e-05  1.5036098333787219e-05  1.5653541103928511e-05 
 1.6296859551335539e-05  1.6967172659187493e-05  1.7665650069465046e-05  1.8393514522281695e-05 
 1.9152044421785978e-05  1.9942576535750029e-05  2.0766508836391920e-05  2.1625303490438439e-05 
 2.2520490006925170e-05  2.3453668551751561e-05  2.4426513438564793e-05  2.5440776806138135e-05 
 2.6498292493040550e-05  2.7600980121067189e-05  2.8750849399617710e-05  2.9950004663974345e-05 
 3.1200649661247805e-05  3.2505092598629795e-05  3.3865751469519608e-05  3.5285159674084249e-05 
 3.6765971951869613e-05  3.8310970645210554e-05  3.9923072313394263e-05  4.1605334718820083e-05 
 4.3360964207776228e-05  4.5193323509924042e-05  4.7105939982153167e-05  4.9102514324150372e-05 
 5.1186929794820964e-05  5.3363261960621520e-05  5.5635789008916252e-05  5.8009002661663939e-05 
 6.0487619727092125e-05  6.3076594329526827e-05  6.5781130860234676e-05  6.8606697695010910e-05 
 7.1559041727325151e-05  7.4644203769132588e-05  7.7868534874985605e-05  8.1238713648858579e-05 
 8.4761764597142013e-05  8.8445077595594485e-05  9.2296428542679138e-05  9.6324001276680362e-05 
 1.0053641083931952e-04  1.0494272817429095e-04  1.0955250635525000e-04  1.1437580844433089e-04 
 1.1942323708929026e-04  1.2470596597488807e-04  1.3023577325217800e-04  1.3602507707801510e-04 
 1.4208697340634507e-04  1.4843527618276206e-04  1.5508456010445776e-04  1.6205020611908351e-04 
 1.6934844984826768e-04  1.7699643313462933e-04  1.8501225892516776e-04  1.9341504971895685e-04 
 2.0222500982320138e-04  2.1146349167899665e-04  2.2115306653665894e-04  2.3131759978034083e-04 
 2.4198233122291334e-04  2.5317396071488035e-04  2.6492073943549708e-04  2.7725256726039661e-04 
 2.9020109662802196e-04  3.0379984335711954e-04  3.1808430489962459e-04  3.3309208654758377e-04 
 3.4886303614947896e-04  3.6543938793057721e-04  3.8286591605391591e-04  4.0119009860339617e-04 
 4.2046229271839290e-04  4.4073592166047780e-04  4.6206767464749215e-04  4.8451772034850151e-04 
 5.0814993499532569e-04  5.3303214613258554e-04  5.5923639309876400e-04  5.8683920540587311e-04 
 6.1592190026519156e-04  6.4657090059141011e-04  6.7887807490764893e-04  7.1294110066942617e-04 
 7.4886385262697142e-04  7.8675681795255866e-04  8.2673753997295233e-04  8.6893109246686032e-04 
 9.1347058661361933e-04  9.6049771281239260e-04  1.0101633197310350e-03  1.0626280330906003e-03 
 1.1180629168452646e-03  1.1766501795781872e-03  1.2385839291015163e-03  1.3040709784231451e-03 
 1.3733317064237738e-03  1.4466009767749102e-03  1.5241291188212980e-03  1.6061829743491299e-03 
 1.6930470143637216e-03  1.7850245302059886e-03  1.8824389035449990e-03  1.9856349599927286e-03 
 2.0949804112952337e-03  2.2108673912598475e-03  2.3337140907785329e-03  2.4639664975004681e-03 
 2.6021002458893818e-03  2.7486225835696297e-03  2.9040744600155703e-03  3.0690327437670624e-03 
 3.2441125744548530e-03  3.4299698559876416e-03  3.6273038972814437e-03  3.8368602068945953e-03 
 4.0594334478606759e-03  4.2958705588782087e-03  4.5470740478112150e-03  4.8140054631681415e-03 
 5.0976890488477504e-03  5.3992155869572013e-03  5.7197464329073171e-03  6.0605177462594575e-03 
 6.4228449199231399e-03  6.8081272092689969e-03  7.2178525615118555e-03  7.6536026443182028e-03 
 8.1170580709843156e-03  8.6100038176999284e-03  9.1343348263410052e-03  9.6920617839086360e-03 
 1.0285317067134240e-02  1.0916360837891092e-02  1.1587587271877281e-02  1.2301530899556191e-02 
 1.3060873034553210e-02  1.3868448260608934e-02  1.4727250943784883e-02  1.5640441731917126e-02 
 1.6611353998334764e-02  1.7643500181630554e-02  1.8740577967827802e-02  1.9906476255681156e-02 
 2.1145280840142649e-02  2.2461279743298951e-02  2.3858968116438402e-02  2.5343052631455493e-02 
 2.6918455274683051e-02  2.8590316451618747e-02  3.0363997307063063e-02  3.2245081162108051e-02 
 3.4239373967423735e-02  3.6352903671594126e-02  3.8591918404065735e-02  4.0962883374755801e-02 
 4.3472476396633791e-02  4.6127581943631916e-02  4.8935283663888329e-02  5.1902855277165261e-02 
 5.5037749794569102e-02  5.8347587007260560e-02  6.1840139196984431e-02  6.5523315022683534e-02 
 6.9405141531292083e-02  7.3493744223609991e-02  7.7797325074244042e-02  8.2324138354474538e-02 
 8.7082464036025209e-02  9.2080578461553472e-02  9.7326721857010065e-02  1.0282906213929377e-01 
 1.0859565435308020e-01  1.1463439497296501e-01  1.2095297025635515e-01  1.2755879785779098e-01 
 1.3445896104535643e-01  1.4166013511816383e-01  1.4916850602328516e-01  1.5698968170709632e-01 
 1.6512859738462241e-01  1.7358941662118743e-01  1.8237543081730445e-01  1.9148896026986251e-01 
 2.0093126033437725e-01  2.1070243622316337e-01  2.2080136957010496e-01  2.3122565908177692e-01 
 2.4197157649594370e-01  2.5303403790716250e-01  2.6440658956948160e-01  2.7608140677401982e-01 
 2.8804930441024412e-01  3.0029975826209454e-01  3.1282093673101630e-01  3.2559974322891877e-01 
 3.3862186968549651e-01  3.5187186128704823e-01  3.6533319163029992e-01  3.7898834597662401e-01 
 3.9281890842817241e-01  4.0680564702129957e-01  4.2092858955976803e-01  4.3516708320942554e-01 
 4.4949983300102903e-01  4.6390491846323828e-01  4.7835979287236191e-01  4.9284127460699556e-01 
 5.0732554321424295e-01  5.2178815296110226e-01  5.3620407441826579e-01  5.5054777225353813e-01 
 5.6479329624011554e-01  5.7891442875994537e-01  5.9288483578178852e-01  6.0667823095351581e-01 
 6.2026854364850392e-01  6.3363008316156544e-01  6.4673769380052748e-01  6.5956689742331032e-01 
 6.7209402146701047e-01  6.8429631165614524e-01  6.9615202936366638e-01  7.0764053408866201e-01 
 7.1874235178636292e-01  7.2943922991302024e-01  7.3971418008977841e-01  7.4955150928766534e-01 
 7.5893684041656573e-01  7.6785712317878396e-01  7.7630063602857091e-01  7.8425698006386024e-01 
 7.9171706566385025e-01  7.9867309267343845e-01  8.0511852492026736e-01  8.1104805983018002e-01 
 8.1645759388082373e-01  8.2134418460034220e-01  8.2570600977855069e-01  8.2954232451206744e-01 
 8.3285341665597523e-01  8.3564056119837249e-01  8.3790597401461908e-01  8.3965276540561562e-01 
 8.4088489376582254e-01  8.4160711966812274e-01  8.4182496060221812e-01  8.4154464655397854e-01 
 8.4077307656861833e-01  8.3951777640071190e-01  8.3778685732214431e-01  8.3558897612806082e-01 
 8.3293329635381264e-01  8.2982945070401148e-01  8.2628750467907397e-01  8.2231792137092630e-01 
 8.1793152739620900e-01  8.1313947993173263e-01  8.0795323481635872e-01  8.0238451568501978e-01 
 7.9644528410372717e-01  7.9014771067860623e-01  7.8350414711692440e-01  7.7652709922337781e-01 
 7.6922920081987467e-01  7.6162318858085354e-01  7.5372187778466815e-01  7.4553813898207677e-01 
 7.3708487558726277e-01  7.2837500240000319e-01  7.1942142506970663e-01  7.1023702051342963e-01 
 7.0083461830070570e-01  6.9122698301795504e-01  6.8142679762423619e-01  6.7144664769424678e-01 
 6.6129900713251399e-01  6.5099622421267689e-01  6.4055050909150724e-01  6.2997392222016080e-01 
 6.1927836375768341e-01  6.0847556397142810e-01  5.9757707460106946e-01  5.8659426115604707e-01 
 5.7553829610895280e-01  5.6442015293997649e-01  5.5325060098047107e-01  5.4204020099721495e-01 
 5.3079930145329646e-01  5.1953803537694465e-01  5.0826631776635922e-01  4.9699384345631331e-01 
 4.8573008537113060e-01  4.7448429308931178e-01  4.6326549164698877e-01  4.5208248051001443e-01 
 4.4094383264816966e-01  4.2985789364947208e-01  4.1883278081772357e-01  4.0787638220200195e-01 
 3.9699635551271861e-01  3.8620012688499078e-01  3.7549488945636467e-01  3.6488760173234885e-01 
 3.5438498571975113e-01  3.4399352481452661e-01  3.3371946143777614e-01  3.2356879442073871e-01 
 3.1354727614683264e-01  3.0366040946596029e-01  2.9391344440800071e-01  2.8431137472553686e-01 
 2.7485893430766117e-01  2.6556059351478406e-01  2.5642055549244419e-01  2.4744275252992071e-01 
 2.3863084253632941e-01  2.2998820571354708e-01  2.2151794150833098e-01  2.1322286592717948e-01 
 2.0510550930282931e-01  1.9716811459488245e-01  1.8941263630389868e-01  1.8184074007229944e-01 
 1.7445380303656458e-01  1.6725291498456354e-01  1.6023888035967360e-01  1.5341222113997155e-01 
 1.4677318060672082e-01  1.4032172800207990e-01  1.3405756406192862e-01  1.2798012739637543e-01 
 1.2208860167800925e-01  1.1638192358784857e-01  1.1085879145831364e-01  1.0551767454667879e-01 
 1.0035682286577274e-01  9.5374277495320806e-02  9.0567881295387342e-02  8.5935289942604978e-02 
 8.1473983211302295e-02  7.7181276424808265e-02  7.3054332004421241e-02  6.9090171048004911e-02 
 6.5285684876007458e-02  6.1637646487551830e-02  5.8142721875062815e-02  5.4797481151759933e-02 
 5.1598409452211690e-02  4.8541917571898914e-02  4.5624352317288848e-02  4.2842006543221789e-02 
 4.0191128859397206e-02  3.7667932992374538e-02  3.5268606793746271e-02  3.2989320888972523e-02 
 3.0826236964764480e-02  2.8775515695850691e-02  2.6833324314445732e-02  2.4995843827748943e-02 
 2.3259275890328286e-02  2.1619849339292254e-02  2.0073826400730174e-02  1.8617508576029056e-02 
 1.7247242216385326e-02  1.5959423793166717e-02  1.4750504870804183e-02  1.3616996787709707e-02 
 1.2555475049160587e-02  1.1562583434922575e-02  1.0635037822609342e-02  9.7696297265472704e-03 
 8.9632295506433014e-03  8.2127895527557993e-03  7.5153465173508375e-03  6.8680241328269520e-03 
 6.2680350698380216e-03  5.7126827572408579e-03  5.1993628529329577e-03  4.7255644078036015e-03 
 4.2888707222634576e-03  3.8869598962998192e-03  3.5176050756759425e-03  3.1786743986989920e-03 
 2.8681306498659219e-03  2.5840306286052900e-03  2.3245242432136212e-03  2.0878533418898790e-03 
 1.8723502944592858e-03  1.6764363399125108e-03  1.4986197162396881e-03  1.3374935901890686e-03 
 1.1917338055124006e-03  1.0600964689647847e-03  9.4141539380297040e-04  8.3459942077541657e-04 
 7.3862963662682600e-04  6.5255650996026932e-04  5.7549696392537582e-04  5.0663140464789723e-04 
 4.4520072360254825e-04  3.9050329127695839e-04  3.4189195850009595e-04  2.9877108073405836e-04 
 2.6059357947364912e-04  2.2685805368978317e-04  1.9710595298716720e-04  1.7091882288199352e-04 
 1.4791563131732332e-04  1.2775018426189371e-04  1.1010863698916469e-04  9.4707106420401083e-05 
 8.1289388749463258e-05  6.9624785457023352e-05  5.9506039775826109e-05  5.0747384692565103e-05 
 4.3182702670657107e-05  3.6663796455006802e-05  3.1058769576787936e-05  2.6250514514154746e-05 
 2.2135305883365800e-05  1.8621495532791368e-05  1.5628305987550080e-05  1.3084718342183565e-05 
 1.0928450419288824e-05  9.1050207993116444e-06  7.5668941762613448e-06  6.2727034011201881e-06 
 5.1865435341502230e-06  4.2773332339792957e-06  3.5182388600657031e-06  2.8861567507194186e-06 
 2.3612492562213893e-06  1.9265302508164491e-06  1.5674960137581655e-06  1.2717975537112762e-06 
 1.0289506485052765e-06  8.3008007965310904e-07  6.6769475468103239e-07  5.3549062700565340e-07 
 4.2817854002684751e-07  3.4133433681691183e-07  2.7126878715400934e-07  2.1491508787922972e-07 
 1.6973188917363910e-07  1.3361998717323585e-07  1.0485100145996500e-07  8.2006523732745774e-08 
 6.3926380949394406e-08  4.9664802217892302e-08  3.8453413662353391e-08  2.9670109508639925e-08 
 2.2812960971124837e-08  1.7478427528076484e-08  1.3343228287872469e-08  1.0149314878118490e-08 
 7.6914621901139386e-09  5.8070599700353546e-09  4.3677472720752497e-09  3.2725837897327781e-09 
 2.4424976667539538e-09  1.8157891522781451e-09  1.3445039779478780e-09  9.9152014368756363e-10 
 7.2821741820690785e-10  5.3262077072434716e-10  3.8792759685313300e-10  2.8134439235461583e-10 
 2.0317183524404290e-10  1.4608839534881756e-10  1.0459191687345685e-10  7.4566423906678980e-11 
 5.2947191297492149e-11  3.7463793988476739e-11  2.6443612394382102e-11  0.0000000000000000e+00 
 0.0000000000000000e+00  0.0000000000000000e+00  0.0000000000000000e+00  0.0000000000000000e+00 
 0.0000000000000000e+00  0.0000000000000000e+00  0.0000000000000000e+00  0.0000000000000000e+00 
 0.0000000000000000e+00  0.0000000000000000e+00  0.0000000000000000e+00  0.0000000000000000e+00 
 0.0000000000000000e+00  0.0000000000000000e+00  0.0000000000000000e+00  0.0000000000000000e+00 
 0.0000000000000000e+00  0.0000000000000000e+00  0.0000000000000000e+00  0.0000000000000000e+00 
 0.0000000000000000e+00  0.0000000000000000e+00  0.0000000000000000e+00  0.0000000000000000e+00 
 0.0000000000000000e+00  0.0000000000000000e+00  0.0000000000000000e+00  0.0000000000000000e+00 
 0.0000000000000000e+00  0.0000000000000000e+00  0.0000000000000000e+00  0.0000000000000000e+00 
 0.0000000000000000e+00  0.0000000000000000e+00  0.0000000000000000e+00  0.0000000000000000e+00 
 0.0000000000000000e+00  0.0000000000000000e+00  0.0000000000000000e+00  0.0000000000000000e+00 
 0.0000000000000000e+00  0.0000000000000000e+00  0.0000000000000000e+00  0.0000000000000000e+00 
 0.0000000000000000e+00  0.0000000000000000e+00  0.0000000000000000e+00  0.0000000000000000e+00 
 0.0000000000000000e+00  0.0000000000000000e+00  0.0000000000000000e+00  0.0000000000000000e+00 
 0.0000000000000000e+00  0.0000000000000000e+00  0.0000000000000000e+00  0.0000000000000000e+00 
 0.0000000000000000e+00  0.0000000000000000e+00  0.0000000000000000e+00  0.0000000000000000e+00 
 0.0000000000000000e+00  0.0000000000000000e+00  0.0000000000000000e+00  0.0000000000000000e+00 
 0.0000000000000000e+00  0.0000000000000000e+00  0.0000000000000000e+00  0.0000000000000000e+00 
 0.0000000000000000e+00  0.0000000000000000e+00  0.0000000000000000e+00  0.0000000000000000e+00 
 0.0000000000000000e+00  0.0000000000000000e+00  0.0000000000000000e+00  0.0000000000000000e+00 
 0.0000000000000000e+00  0.0000000000000000e+00  0.0000000000000000e+00  0.0000000000000000e+00 
 0.0000000000000000e+00  0.0000000000000000e+00  0.0000000000000000e+00  0.0000000000000000e+00 
 0.0000000000000000e+00  0.0000000000000000e+00  0.0000000000000000e+00  0.0000000000000000e+00 
 0.0000000000000000e+00  0.0000000000000000e+00  0.0000000000000000e+00  0.0000000000000000e+00 
 0.0000000000000000e+00  0.0000000000000000e+00  0.0000000000000000e+00  0.0000000000000000e+00 
 0.0000000000000000e+00  0.0000000000000000e+00  0.0000000000000000e+00  0.0000000000000000e+00 
 0.0000000000000000e+00  0.0000000000000000e+00  0.0000000000000000e+00  0.0000000000000000e+00 
 0.0000000000000000e+00  0.0000000000000000e+00  0.0000000000000000e+00  0.0000000000000000e+00 
 0.0000000000000000e+00  0.0000000000000000e+00  0.0000000000000000e+00  0.0000000000000000e+00 
 0.0000000000000000e+00  0.0000000000000000e+00  0.0000000000000000e+00 
</PP_PSWFC>


<PP_RHOATOM>
 2.0397214625279552e-16  2.0934497187419078e-16  2.1485932312945312e-16  2.2051892795461265e-16 
 2.2632761248395640e-16  2.3228930363671114e-16  2.3840803177186321e-16  2.4468793341291378e-16 
 2.5113325404440694e-16  2.5774835098212571e-16  2.6453769631889431e-16  2.7150587994797827e-16 
 2.7865761266612869e-16  2.8599772935836616e-16  2.9353119226665834e-16  3.0126309434470333e-16 
 3.0919866270108387e-16  3.1734326213312244e-16  3.2570239875382628e-16  3.3428172371437501e-16 
 3.4308703702466596e-16  3.5212429147450316e-16  3.6139959665807981e-16  3.7091922310447449e-16 
 3.8068960651695610e-16  3.9071735212396248e-16  4.0100923914469499e-16  4.1157222537234934e-16 
 4.2241345187807918e-16  4.3354024783887699e-16  4.4496013549263379e-16  4.5668083522372835e-16 
 4.6871027078258702e-16  4.8105657464274106e-16  4.9372809349900506e-16  5.0673339391049211e-16 
 5.2008126809228774e-16  5.3378073985968998e-16  5.4784107072904222e-16  5.6227176617928152e-16 
 5.7708258207843671e-16  5.9228353127942144e-16  6.0788489038958432e-16  6.2389720671859092e-16 
 6.4033130540934195e-16  6.5719829675673823e-16  6.7450958371925776e-16  6.9227686962840939e-16 
 7.1051216610128699e-16  7.2922780116157039e-16  7.4843642757446466e-16  7.6815103140121821e-16 
 7.8838494077900202e-16  8.0915183493208628e-16  8.3046575342041306e-16  8.5234110563181562e-16 
 8.7479268052430789e-16  8.9783565662502842e-16  9.2148561229260582e-16  9.4575853624988194e-16 
 9.7067083839412266e-16  9.9623936089201917e-16  1.0224813895669936e-15  1.0494146655864999e-15 
 1.0770573974572373e-15  1.1054282733363801e-15  1.1345464736671526e-15  1.1644316841472999e-15 
 1.1951041090392245e-15  1.2265844848307874e-15  1.2588940942560224e-15  1.2920547806852415e-15 
 1.3260889628942668e-15  1.3610196502227809e-15  1.3968704581320508e-15  1.4336656241725444e-15 
 1.4714300243722518e-15  1.5101891900567855e-15  1.5499693251126434e-15  1.5907973237053245e-15 
 1.6327007884642666e-15  1.6757080491469202e-15  1.7198481817945823e-15  1.7651510283929486e-15 
 1.8116472170506982e-15  1.8593681827097435e-15  1.9083461884011803e-15  1.9586143470612984e-15 
 2.0102066439224375e-15  2.0631579594938197e-15  2.1175040931479260e-15  2.1732817873283634e-15 
 2.2305287523956110e-15  2.2892836921274692e-15  2.3495863298914435e-15  2.4114774355068123e-15 
 2.4749988528145192e-15  2.5401935279735797e-15  2.6071055385031482e-15  2.6757801230898864e-15 
 2.7462637121808291e-15  2.8186039593824483e-15  2.8928497736871644e-15  2.9690513525491332e-15 
 3.0472602158316808e-15  3.1275292406494056e-15  3.2099126971284757e-15  3.2944662851094008e-15 
 3.3812471718170799e-15  3.4703140305236583e-15  3.5617270802303522e-15  3.6555481263951332e-15 
 3.7518406027338524e-15  3.8506696141230738e-15  3.9521019806337433e-15  4.0562062827254414e-15 
 4.1630529076318884e-15  4.2727140969690828e-15  4.3852639955983564e-15  4.5007787017774038e-15 
 4.6193363186333092e-15  4.7410170069924019e-15  4.8659030396027571e-15  4.9940788567860910e-15 
 5.1256311235567129e-15  5.2606487882463190e-15  5.3992231426742618e-15  5.5414478839041812e-15 
 5.6874191776287486e-15  5.8372357232255782e-15  5.9909988205283395e-15  6.1488124383583767e-15 
 6.3107832848632894e-15  6.4770208797101460e-15  6.6476376281823143e-15  6.8227488972301162e-15 
 7.0024730935269417e-15  7.1869317435837011e-15  7.3762495759759913e-15  7.5705546057397574e-15 
 7.7699782209926809e-15  7.9746552718400995e-15  8.1847241616257566e-15  8.4003269405893252e-15 
 8.6216094019942477e-15  8.8487211807911720e-15  9.0818158548839188e-15  9.3210510490667540e-15 
 9.5665885417035445e-15  9.8185943742212279e-15  1.0077238963491904e-14  1.0342697217180025e-14 
 1.0615148652132820e-14  1.0894777515894643e-14  1.1181772911427561e-14  1.1476328925123115e-14 
 1.1778644758192171e-14  1.2088924861522214e-14  1.2407379074093706e-14  1.2734222765049743e-14 
 1.3069676979515434e-14  1.3413968588266393e-14  1.3767330441348045e-14  1.4130001525750186e-14 
 1.4502227127244341e-14  1.4884258996493708e-14  1.5276355519549174e-14  1.5678781892847115e-14 
 1.6091810302828382e-14  1.6515720110300715e-14  1.6950798039670191e-14  1.7397338373170651e-14 
 1.7855643150223518e-14  1.8326022372063787e-14  1.8808794211771796e-14  1.9304285229854026e-14 
 1.9812830595519906e-14  2.0334774313805570e-14  2.0870469458699728e-14  2.1420278412430513e-14 
 2.1984573111077060e-14  2.2563735296673109e-14  2.3158156775975213e-14  2.3768239686072169e-14 
 2.4394396767017351e-14  2.5037051641670212e-14  2.5696639102938428e-14  2.6373605408617128e-14 
 2.7068408584027126e-14  2.7781518732659041e-14  2.8513418355036310e-14  2.9264602676015367e-14 
 3.0035579980747185e-14  3.0826871959530768e-14  3.1639014061794654e-14  3.2472555859449574e-14 
 3.3328061419861527e-14  3.4206109688701104e-14  3.5107294882932489e-14  3.6032226894211419e-14 
 3.6981531702970114e-14  3.7955851803473278e-14  3.8955846640138179e-14  3.9982193055418627e-14 
 4.1035585749561383e-14  4.2116737752551943e-14  4.3226380908574528e-14  4.4365266373320994e-14 
 4.5534165124491020e-14  4.6733868485836716e-14  4.7965188665112823e-14  4.9228959306305122e-14 
 5.0526036056518067e-14  5.1857297147914298e-14  5.3223643995108936e-14  5.4626001808432232e-14 
 5.6065320223485542e-14  5.7542573947427852e-14  5.9058763422440661e-14  6.0614915506832250e-14 
 6.2212084174255396e-14  6.3851351231523321e-14  6.5533827055524964e-14  6.7260651349751957e-14 
 6.9032993920964670e-14  7.0852055476539953e-14  7.2719068443055696e-14  7.4635297806685999e-14 
 7.6602041975992661e-14  7.8620633667719237e-14  8.0692440816205624e-14  8.2818867507062854e-14 
 8.5001354935762255e-14  8.7241382391812905e-14  8.9540468269219339e-14  9.1900171103930511e-14 
 9.4322090639011322e-14  9.6807868918287886e-14  9.9359191409238943e-14  1.0197778815592712e-13 
 1.0466543496278561e-13  1.0742395461009983e-13  1.1025521810204523e-13  1.1316114594816893e-13 
 1.1614370947922518e-13  1.1920493219830242e-13  1.2234689116820493e-13  1.2557171843607965e-13 
 1.2888160249630620e-13  1.3227878979269884e-13  1.3576558626109462e-13  1.3934435891343835e-13 
 1.4301753746450148e-13  1.4678761600240707e-13  1.5065715470416578e-13  1.5462878159746187e-13 
 1.5870519436996605e-13  1.6288916222748354e-13  1.6718352780229027e-13  1.7159120911304216e-13 
 1.7611520157768823e-13  1.8075858008085711e-13  1.8552450109722691e-13  1.9041620487243814e-13 
 1.9543701766314826e-13  2.0059035403787909e-13  2.0587971924035164e-13  2.1130871161705664e-13 
 2.1688102511085663e-13  2.2260045182247250e-13  2.2847088464176013e-13  2.3449631995073637e-13 
 2.4068086040037956e-13  2.4702871776327988e-13  2.5354421586428775e-13  2.6023179359136259e-13 
 2.6709600798889724e-13  2.7414153743586135e-13  2.8137318491117208e-13  2.8879588134878168e-13 
 2.9641468908504125e-13  3.0423480540097923e-13  3.1226156616221475e-13  3.2050044955931090e-13 
 3.2895707995145389e-13  3.3763723181643907e-13  3.4654683381003374e-13  3.5569197293788225e-13 
 3.6507889884321964e-13  3.7471402821375862e-13  3.8460394931122321e-13  3.9475542662710956e-13 
 4.0517540566837209e-13  4.1587101787684226e-13  4.2684958568631665e-13  4.3811862772137087e-13 
 4.4968586414208812e-13  4.6155922213902951e-13  4.7374684158290400e-13  4.8625708083354679e-13 
 4.9909852271296801e-13  5.1227998064737853e-13  5.2581050498327260e-13  5.3969938948280298e-13 
 5.5395617800386803e-13  5.6859067137049888e-13  5.8361293443933364e-13  5.9903330336814719e-13 
 6.1486239309261147e-13  6.3111110501767139e-13  6.4779063493013429e-13  6.6491248113929165e-13 
 6.8248845285264176e-13  7.0053067879399356e-13  7.1905161607152241e-13  7.3806405930357046e-13 
 7.5758115001028891e-13  7.7761638627948148e-13  7.9818363271530755e-13  8.1929713067881221e-13 
 8.4097150882955917e-13  8.6322179397798919e-13  8.8606342225844408e-13  9.0951225063317961e-13 
 9.3358456873804683e-13  9.5829711108091271e-13  9.8366706960429613e-13  1.0097121066241081e-12 
 1.0364503681568322e-12  1.0639004976479206e-12  1.0920816501146801e-12  1.1210135067173792e-12 
 1.1507162897728676e-12  1.1812107782254921e-12  1.2125183235906844e-12  1.2446608663871585e-12 
 1.2776609530742828e-12  1.3115417535118014e-12  1.3463270789597640e-12  1.3820414006372122e-12 
 1.4187098688588634e-12  1.4563583327698207e-12  1.4950133606991085e-12  1.5347022611536384e-12 
 1.5754531044750959e-12  1.6172947451831067e-12  1.6602568450289838e-12  1.7043698967853359e-12 
 1.7496652487978509e-12  1.7961751303265837e-12  1.8439326777052624e-12  1.8929719613482343e-12 
 1.9433280136359173e-12  1.9950368577109116e-12  2.0481355372181932e-12  2.1026621470243218e-12 
 2.1586558649518942e-12  2.2161569845671972e-12  2.2752069490604042e-12  2.3358483862595052e-12 
 2.3981251448208009e-12  2.4620823316406860e-12  2.5277663505353383e-12  2.5952249422369463e-12 
 2.6645072257572369e-12  2.7356637411712136e-12  2.8087464938764426e-12  2.8838090003855080e-12 
 2.9609063357119171e-12  3.0400951824123368e-12  3.1214338813508647e-12  3.2049824842539649e-12 
 3.2908028081277621e-12  3.3789584916126264e-12  3.4695150533533526e-12  3.5625399524668245e-12 
 3.6581026511926897e-12  3.7562746798166113e-12  3.8571297039596352e-12  3.9607435943316386e-12 
 4.0671944990512541e-12  4.1765629186394660e-12  4.2889317837990815e-12  4.4043865360974305e-12 
 4.5230152116753214e-12  4.6449085281108520e-12  4.7701599745729360e-12  4.8988659054057143e-12 
 5.0311256372917251e-12  5.1670415501488075e-12  5.3067191919231009e-12  5.4502673874483506e-12 
 5.5977983515498280e-12  5.7494278065800259e-12  5.9052751045820661e-12  6.0654633542865782e-12 
 6.2301195531577057e-12  6.3993747247145164e-12  6.5733640613652157e-12  6.7522270730032738e-12 
 6.9361077416269139e-12  7.1251546822563669e-12  7.3195213104370179e-12  7.5193660166308340e-12 
 7.7248523478138132e-12  7.9361491966129917e-12  8.1534309983333818e-12  8.3768779362430657e-12 
 8.6066761555031733e-12  8.8430179861492121e-12  9.0861021755509159e-12  9.3361341307998113e-12 
 9.5933261714963853e-12  9.8578977934333509e-12  1.0130075943696987e-11  1.0410095307735510e-11 
 1.0698198608972022e-11  1.0994636921569465e-11  1.1299669996986934e-11  1.1613566604999914e-11 
 1.1936604889892526e-11  1.2269072742566890e-11  1.2611268189354262e-11  1.2963499798353884e-11 
 1.3326087104169535e-11  1.3699361051959843e-11  1.4083664461767384e-11  1.4479352514143259e-11 
 1.4886793258138144e-11  1.5306368142788835e-11  1.5738472573289623e-11  1.6183516493102519e-11 
 1.6641924993328439e-11  1.7114138950732852e-11  1.7600615695895868e-11  1.8101829713036706e-11 
 1.8618273373147699e-11  1.9150457702162656e-11  1.9698913185979663e-11  2.0264190614258618e-11 
 2.0846861965020670e-11  2.1447521332188869e-11  2.2066785898328963e-11  2.2705296954975058e-11 
 2.3363720973058837e-11  2.4042750726102224e-11  2.4743106468983179e-11  2.5465537175243582e-11 
 2.6210821836075416e-11  2.6979770824300444e-11  2.7773227326847055e-11  2.8592068849428029e-11 
 2.9437208797335491e-11  3.0309598136493871e-11  3.1210227139151111e-11  3.2140127218839886e-11 
 3.3100372859511622e-11  3.4092083644027873e-11  3.5116426387498983e-11  3.6174617381278388e-11 
 3.7267924753763604e-11  3.8397670954515074e-11  3.9565235368589407e-11  4.0772057068390999e-11 
 4.2019637710779535e-11  4.3309544587632570e-11  4.4643413838549938e-11  4.6022953834909825e-11 
 4.7449948745037497e-11  4.8926262290837550e-11  5.0453841706865847e-11  5.2034721913483324e-11 
 5.3671029916442836e-11  5.5364989446013151e-11  5.7118925849548822e-11  5.8935271252267516e-11 
 6.0816570001907156e-11  6.2765484413905873e-11  6.4784800834778525e-11  6.6877436042466172e-11 
 6.9046444003606675e-11  7.1295023008925930e-11  7.3626523209281837e-11  7.6044454576317337e-11 
 7.8552495313192890e-11  8.1154500742490758e-11  8.3854512700108836e-11  8.6656769465806939e-11 
 8.9565716263038009e-11  9.2586016362798316e-11  9.5722562828477928e-11  9.8980490941092755e-11 
 1.0236519134684459e-10  1.0588232397169615e-10  1.0953783275058099e-10  1.1333796122200230e-10 
 1.1728926904212859e-10  1.2139864947608166e-10  1.2567334792795235e-10  1.3012098157519085e-10 
 1.3474956017741696e-10  1.3956750813441362e-10  1.4458368787310984e-10  1.4980742464877557e-10 
 1.5524853285144429e-10  1.6091734391479969e-10  1.6682473593142173e-10  1.7298216508544296e-10 
 1.7940169902133002e-10  1.8609605227573570e-10  1.9307862390820384e-10  2.0036353747598610e-10 
 2.0796568350842140e-10  2.1590076464726123e-10  2.2418534363108428e-10  2.3283689431457092e-10 
 2.4187385592698918e-10  2.5131569078884586e-10  2.6118294572135873e-10  2.7149731740030311e-10 
 2.8228172192396357e-10  2.9356036888449252e-10  3.0535884025305039e-10  3.1770417441178503e-10 
 3.3062495569015927e-10  3.4415140978947128e-10  3.5831550550779707e-10  3.7315106320819247e-10 
 3.8869387050600055e-10  4.0498180568669630e-10  4.2205496940412961e-10  4.3995582525047340e-10 
 4.5872934983394461e-10  4.7842319304869247e-10  4.9908784927345306e-10  5.2077684029197565e-10 
 5.4354691078918101e-10  5.6745823734292407e-10  5.9257465190247817e-10  6.1896388082196577e-10 
 6.4669780060034894e-10  6.7585271156986821e-10  7.0650963087254783e-10  7.3875460617021179e-10 
 7.7267905164809509e-10  8.0838010799636127e-10  8.4596102818847930e-10  8.8553159102137459e-10 
 9.2720854454061313e-10  9.7111608164561499e-10  1.0173863503562808e-09  1.0661600014247499e-09 
 1.1175867761956981e-09  1.1718261378572275e-09  1.2290479494836726e-09  1.2894332025534862e-09 
 1.3531747999317347e-09  1.4204783976399852e-09  1.4915633100988760e-09  1.5666634839232190e-09 
 1.6460285457789477e-09  1.7299249302790130e-09  1.8186370944047894e-09  1.9124688254948651e-09 
 2.0117446504483391e-09  2.1168113544497828e-09  2.2280396182430709e-09  2.3458257837669559e-09 
 2.4705937588229510e-09  2.6027970723827311e-09  2.7429210931653327e-09  2.8914854252326182e-09 
 3.0490464955736582e-09  3.2162003499855101e-09  3.3935856750201046e-09  3.5818870653674985e-09 
 3.7818385577979170e-09  3.9942274547041412e-09  4.2198984623886160e-09  4.4597581715443804e-09 
 4.7147799099064777e-09  4.9860089998228000e-09  5.2745684565361039e-09  5.5816651663091139e-09 
 5.9085965871936185e-09  6.2567580192755714e-09  6.6276504956595179e-09  7.0228893503287817e-09 
 7.4442135243790464e-09  7.8934956780239824e-09  8.3727531822690964e-09  8.8841600713080808e-09 
 9.4300600445846231e-09  1.0012980616161100e-08  1.0635648518630490e-08  1.1301006479397396e-08 
 1.2012231498845658e-08  1.2772754772825531e-08  1.3586283416166932e-08  1.4456824159707052e-08 
 1.5388709210779506e-08  1.6386624486433921e-08  1.7455640450050818e-08  1.8601245805719763e-08 
 1.9829384331021066e-08  2.1146495157987211e-08  2.2559556844346422e-08  2.4076135613036846e-08 
 2.5704438177837175e-08  2.7453369617251904e-08  2.9332596808034676e-08  3.1352617984517098e-08 
 3.3524839050885156e-08  3.5861657341451025e-08  3.8376553599630962e-08  4.1084193030693765e-08 
 4.4000536377442073e-08  4.7142962073008491e-08  5.0530400642233779e-08  5.4183482654142228e-08 
 5.8124701674547671e-08  6.2378593831727563e-08  6.6971935791566584e-08  7.1933963144046065e-08 
 7.7296611433223801e-08  8.3094782321050905e-08  8.9366637665075992e-08  9.6153924615327062e-08 
 1.0350233520102667e-07  1.1146190428848112e-07  1.2008745025340258e-07  1.2943906323078592e-07 
 1.3958264639090179e-07  1.5059051634967907e-07  1.6254206956561690e-07  1.7552452241466314e-07 
 1.8963373358207247e-07  2.0497511848076266e-07  2.2166466661586074e-07  2.3983007418406778e-07 
 2.5961200574603163e-07  2.8116550056503684e-07  3.0466154119463706e-07  3.3028880415402704e-07 
 3.5825561509052480e-07  3.8879213373646559e-07  4.2215279727241769e-07  4.5861905446651401e-07 
 4.9850242723587029e-07  5.4214794114524203e-07  5.8993797190617453e-07  6.4229656126578866e-07 
 6.9969426289184924e-07  7.6265358710098603e-07  8.3175512269105158e-07  9.0764442490087989e-07 
 9.9103977083234812e-07  1.0827408977628544e-06  1.1836388559194646e-06  1.2947271257890763e-06 
 1.4171141712607743e-06  1.5520376242519398e-06  1.7008803244390755e-06  1.8651884698540186e-06 
 2.0466921710609168e-06  2.2473287441462963e-06  2.4692691267004588e-06  2.7149478573487856e-06 
 2.9870971243734220e-06  3.2887854639043077e-06  3.6234617746276431e-06  3.9950054157883036e-06 
 4.4077832705759528e-06  4.8667147902536067e-06  5.3773461884852876e-06  5.9459351335881648e-06 
 6.5795474927616878e-06  7.2861679212540224e-06  8.0748263661779475e-06  8.9557428754071157e-06 
 9.9404934737954261e-06  1.1042200300158794e-05  1.2275749698687360e-05  1.3658042538941001e-05 
 1.5208281712377049e-05  1.6948302535647983e-05  1.8902952699337161e-05  2.1100529455882895e-05 
 2.3573282965997611e-05  2.6357996146578594e-05  2.9496653017020226e-05  3.3037209462181895e-05 
 3.7034482562148089e-05  4.1551177231231694e-05  4.6659071919118571e-05  5.2440388622265979e-05 
 5.8989376510536928e-05  6.6414143181131236e-05  7.4838773011032725e-05  8.4405778407394764e-05 
 9.5278937086586067e-05  1.0764657700031719e-04  1.2172538034629767e-04  1.3776478945029899e-04 
 1.5605211041223933e-04  1.7691842552651995e-04  2.0074544290440429e-04  2.2797343176720648e-04 
 2.5911041490502603e-04  2.9474281620894978e-04  3.3554779142993635e-04  3.8230750488398534e-04 
 4.3592565424418296e-04  4.9744659041291964e-04  5.6807743037019852e-04  6.4921361850061449e-04 
 7.4246845689474603e-04  8.4970719819934875e-04  9.7308637645445340e-04  1.1150991426827730e-03 
 1.2786274734168444e-03  1.4670022324059669e-03  1.6840721888513167e-03  1.9342832299009481e-03 
 2.2227691507699138e-03  2.5554555623745201e-03  2.9391786229948061e-03  3.3818204758803293e-03 
 3.8924634569037909e-03  4.4815653225586819e-03  5.1611579350532124e-03  5.9450720231228422e-03 
 6.8491908083378114e-03  7.8917354395410377e-03  9.0935853034301520e-03  1.0478636366262502e-02 
 1.2074200737426741e-02  1.3911450615492156e-02  1.6025909664722726e-02  1.8457994656542364e-02 
 2.1253609876110569e-02  2.4464796317871820e-02  2.8150437053886208e-02  3.2377019333248006e-02 
 3.7219452939340071e-02  4.2761943075737947e-02  4.9098914556707965e-02  5.6335982335337341e-02 
 6.4590961409665859e-02  7.3994906912444008e-02  8.4693172732549712e-02  9.6846474368374208e-02 
 1.1063193892359177e-01  1.2624412228792178e-01  1.4389597068060170e-01  1.6381970096860393e-01 
 1.8626757161408519e-01  2.1151251387275027e-01  2.3984859107344861e-01  2.7159125256601302e-01 
 3.0707734831291900e-01  3.4666487016764691e-01  3.9073238662451515e-01  4.3967813917547371e-01 
 4.9391877023815128e-01  5.5388765474004908e-01  6.2003280964140806e-01  6.9281435775935929e-01 
 7.7270152411331416e-01  8.6016914471599548e-01  9.5569366961304025e-01  1.0597486446749098e+00 
 1.1727996611489497e+00  1.2952987695403895e+00  1.4276783663842714e+00  1.5703445801498424e+00 
 1.7236702066932645e+00  1.8879872753242439e+00  2.0635793624325252e+00  2.2506738079296134e+00 
 2.4494340260309135e+00  2.6599521303447413e+00  2.8822421077736164e+00  3.1162337717581465e+00 
 3.3617677017610972e+00  3.6185913362279187e+00  3.8863563385281279e+00  4.1646173093353642e+00 
 4.4528318824156230e+00  4.7503622168275221e+00  5.0564778842745168e+00  5.3703601385841377e+00 
 5.6911075360122183e+00  6.0177428419345835e+00  6.3492211057442436e+00  6.6844387101613281e+00 
 7.0222431094100779e+00  7.3614428782864145e+00  7.7008176272470541e+00  8.0391273302751785e+00 
 8.3751206908571980e+00  8.7075423443095730e+00  9.0351389348542028e+00  9.3566643527094051e+00 
 9.6708845963714047e+00  9.9765827828762017e+00  1.0272564774075388e+01  1.0557665805505234e+01 
 1.0830757279414300e+01  1.1090755413679483e+01  1.1336629718359374e+01  1.1567411628777306e+01 
 1.1782202902048766e+01  1.1980183427452767e+01  1.2160618200973852e+01  1.2322863291561392e+01 
 1.2466370695080336e+01  1.2590692027654162e+01  1.2695481051885967e+01  1.2780495058837296e+01 
 1.2845595148391773e+01  1.2890745463595310e+01  1.2916011443168419e+01  1.2921557162395915e+01 
 1.2907641837156891e+01  1.2874615569591455e+01  1.2822914417076756e+01  1.2753054868839985e+01 
 1.2665627816581816e+01  1.2561292106784482e+01  1.2440767762797812e+01  1.2304828964227905e+01 
 1.2154296869534654e+01  1.1990032365063557e+01  1.1812928820028381e+01  1.1623904922296262e+01 
 1.1423897661443144e+01  1.1213855537073110e+01  1.0994732018934478e+01  1.0767479338292702e+01 
 1.0533042637515754e+01  1.0292354515533676e+01  1.0046329996582331e+01  9.7958619425785862e+00 
 9.5418169227494936e+00  9.2850315478264456e+00  9.0263092668512996e+00  8.7664176404114258e+00 
 8.5060860463035084e+00  8.2460038406594514e+00  7.9868189404120518e+00  7.7291368113650076e+00 
 7.4735198400808649e+00  7.2204870657691105e+00  6.9705142467934813e+00  6.7240342352780615e+00 
 6.4814376325381264e+00  6.2430736976561452e+00  6.0092514814332088e+00  5.7802411581379971e+00 
 5.5562755279131499e+00  5.3375516633467779e+00  5.1242326746353672e+00  4.9164495687415659e+00 
 4.7143031791463503e+00  4.5178661441071171e+00  4.3271849127430269e+00  4.1422817597617936e+00 
 3.9631567911977497e+00  3.7897899251284146e+00  3.6221428329550047e+00  3.4601608276176847e+00 
 3.3037746918484623e+00  3.1529024282621130e+00  3.0074509318810208e+00  2.8673175741873203e+00 
 2.7323916944306110e+00  2.6025559943944057e+00  2.4776878340751387e+00  2.3576604269050772e+00 
 2.2423439342330642e+00  2.1316064597641278e+00  2.0253149455510879e+00  1.9233359719279037e+00 
 1.8255364644765883e+00  1.7317843117284686e+00  1.6419488978192476e+00  1.5559015547451820e+00 
 1.4735159392088928e+00  1.3946683393062265e+00  1.3192379164900525e+00  1.2471068883552940e+00 
 1.1781606578298978e+00  1.1122878943337411e+00  1.0493805723871481e+00  9.8933397301820403e-01 
 9.3204665313994894e-01  8.7742038785076604e-01  8.2536009036014002e-01  7.7577371396354289e-01 
 7.2857214019015837e-01  6.8366905693122126e-01  6.4098083002991812e-01  6.0042637148071942e-01 
 5.6192700704971910e-01  5.2540634579172385e-01  4.9079015362348083e-01  4.5800623277092650e-01 
 4.2698430860857450e-01  3.9765592510617520e-01  3.6995434980901132e-01  3.4381448900475914e-01 
 3.1917281347189502e-01  2.9596729496615232e-01  2.7413735337519429e-01  2.5362381426586683e-01 
 2.3436887637860851e-01  2.1631608845067737e-01  1.9941033461564101e-01  1.8359782751440779e-01 
 1.6882610816382990e-01  1.5504405156511339e-01  1.4220187699547124e-01  1.3025116191191846e-01 
 1.1914485840472899e-01  1.0883731116815351e-01  9.9284276005437308e-02  9.0442937951414060e-02 
 8.2271928175800868e-02  7.4731338922497531e-02  6.7782735837113514e-02  6.1389167140854316e-02 
 5.5515169212788935e-02  5.0126768247696782e-02  4.5191477758098661e-02  4.0678291784769290e-02 
 3.6557673769695494e-02  3.2801541127248306e-02  2.9383245620229103e-02  2.6277549710486736e-02 
 2.3460599107594793e-02  2.0909891781980643e-02  1.8604243743204366e-02  1.6523751909527033e-02 
 1.4649754412203547e-02  1.2964788687803428e-02  1.1452547715093344e-02  1.0097834750424748e-02 
 8.8865169079648792e-03  7.8054779192798969e-03  6.8425703914827300e-03  5.9865678651030317e-03 
 5.2271169526747711e-03  4.5546898173617302e-03  3.9605372282858530e-03  3.4366424060543756e-03 
 2.9756758487077782e-03  2.5709513052793579e-03  2.2163830416595206e-03  1.9064445217308356e-03 
 1.6361286059707251e-03  1.4009093500486315e-03  1.1967054674745592e-03  1.0198455031548378e-03 
 8.6703474877410504e-04  7.3532391636613409e-04  6.2207957306670281e-04  5.2495632801279773e-04 
 4.4187075150768098e-04  3.7097699690806653e-04  3.1064408714867229e-04  2.5943482034944480e-04 
 2.1608624250170314e-04  1.7949162975207345e-04  1.4868391825055422e-04  1.2282051585612528e-04 
 1.0116942715590569e-04  8.3096621208030998e-05  6.8054570119527335e-05  5.5571885972276446e-05 
 4.5243983664229999e-05  3.6724697888230322e-05  2.9718783673254707e-05  2.3975231606145768e-05 
 1.9281330977317389e-05  1.5457416591430641e-05  1.2352237792883571e-05  9.8388913156974146e-06 
 7.8112628188193711e-06  6.1809253540215492e-06  4.8744464805751281e-06  3.8310592387045834e-06 
 3.0006556769615938e-06  2.3420650565601597e-06  1.8215821931239571e-06  1.4117146133891929e-06 
 1.0901202767877392e-06  8.3871052040594663e-07  6.4289561651267664e-07  4.9095287530221255e-07 
 3.7349957659663296e-07  2.8305517170205902e-07  2.1367916232692192e-07  1.6067284234100581e-07 
 1.2033468707574682e-07  8.9760602761913433e-08  6.6681515710119113e-08  4.9331898058681094e-08 
 3.6343805990130970e-08  2.6661859131119888e-08  1.9475328237315222e-08  1.4164133794018654e-08 
 1.0256101955601089e-08  7.3932868381886591e-09  5.3055594221713983e-09  3.7899923175389103e-09 
 2.6948447160864105e-09  1.9071805273578802e-09  1.3433417142227153e-09  9.4165419751851260e-10 
 6.5687065711769740e-10  4.5595772065743707e-10  3.1491838111105820e-10  2.1640744377133624e-10 
 1.4795128607399515e-10  1.0062568776977081e-10  6.8079025720620296e-11  4.5814454343477993e-11 
 3.0665239275033354e-11  2.0413353440209893e-11  1.3513740642312564e-11  8.8960795969429262e-12 
 5.8230669038268602e-12  3.7896811625030150e-12  2.4519895698571020e-12  1.5771261638599929e-12 
 1.0083527417673747e-12  6.4080021219632554e-13  4.0472715186203970e-13  2.5403672248975365e-13 
 1.5844902811348881e-13  9.8198655346966418e-14  6.0465528789366701e-14  3.6987884641011677e-14 
 2.2476201997079026e-14  1.3566259186382982e-14  8.1326576225843655e-15  4.8417346904007688e-15 
 2.8623715354853574e-15  1.6802248586982200e-15  9.7922957628254033e-16  5.6654725872358539e-16 
 3.2537224842073763e-16  1.8547070022572859e-16  1.0492468927996432e-16  5.8903925634519630e-17 
 3.2811871686541795e-17  1.8133996350420415e-17  9.9423002069471751e-18  5.4071170743601371e-18 
 2.9166533449896399e-18  1.5602668697384868e-18  8.2768301220135789e-19  4.3535066910163401e-19 
 2.2703337050037881e-19  1.1738000590575831e-19  6.0167079913952586e-20  3.0580833658268007e-20 
 1.5418727864612758e-20  7.7194472300606423e-21  3.8459555005537530e-21  0.0000000000000000e+00 
 0.0000000000000000e+00  0.0000000000000000e+00  0.0000000000000000e+00  0.0000000000000000e+00 
 0.0000000000000000e+00  0.0000000000000000e+00  0.0000000000000000e+00  0.0000000000000000e+00 
 0.0000000000000000e+00  0.0000000000000000e+00  0.0000000000000000e+00  0.0000000000000000e+00 
 0.0000000000000000e+00  0.0000000000000000e+00  0.0000000000000000e+00  0.0000000000000000e+00 
 0.0000000000000000e+00  0.0000000000000000e+00  0.0000000000000000e+00  0.0000000000000000e+00 
 0.0000000000000000e+00  0.0000000000000000e+00  0.0000000000000000e+00  0.0000000000000000e+00 
 0.0000000000000000e+00  0.0000000000000000e+00  0.0000000000000000e+00  0.0000000000000000e+00 
 0.0000000000000000e+00  0.0000000000000000e+00  0.0000000000000000e+00  0.0000000000000000e+00 
 0.0000000000000000e+00  0.0000000000000000e+00  0.0000000000000000e+00  0.0000000000000000e+00 
 0.0000000000000000e+00  0.0000000000000000e+00  0.0000000000000000e+00  0.0000000000000000e+00 
 0.0000000000000000e+00  0.0000000000000000e+00  0.0000000000000000e+00  0.0000000000000000e+00 
 0.0000000000000000e+00  0.0000000000000000e+00  0.0000000000000000e+00  0.0000000000000000e+00 
 0.0000000000000000e+00  0.0000000000000000e+00  0.0000000000000000e+00  0.0000000000000000e+00 
 0.0000000000000000e+00  0.0000000000000000e+00  0.0000000000000000e+00  0.0000000000000000e+00 
 0.0000000000000000e+00  0.0000000000000000e+00  0.0000000000000000e+00  0.0000000000000000e+00 
 0.0000000000000000e+00  0.0000000000000000e+00  0.0000000000000000e+00  0.0000000000000000e+00 
 0.0000000000000000e+00  0.0000000000000000e+00  0.0000000000000000e+00  0.0000000000000000e+00 
 0.0000000000000000e+00  0.0000000000000000e+00  0.0000000000000000e+00  0.0000000000000000e+00 
 0.0000000000000000e+00  0.0000000000000000e+00  0.0000000000000000e+00  0.0000000000000000e+00 
 0.0000000000000000e+00  0.0000000000000000e+00  0.0000000000000000e+00  0.0000000000000000e+00 
 0.0000000000000000e+00  0.0000000000000000e+00  0.0000000000000000e+00  0.0000000000000000e+00 
 0.0000000000000000e+00  0.0000000000000000e+00  0.0000000000000000e+00  0.0000000000000000e+00 
 0.0000000000000000e+00  0.0000000000000000e+00  0.0000000000000000e+00  0.0000000000000000e+00 
 0.0000000000000000e+00  0.0000000000000000e+00  0.0000000000000000e+00  0.0000000000000000e+00 
 0.0000000000000000e+00  0.0000000000000000e+00  0.0000000000000000e+00  0.0000000000000000e+00 
 0.0000000000000000e+00  0.0000000000000000e+00  0.0000000000000000e+00  0.0000000000000000e+00 
 0.0000000000000000e+00  0.0000000000000000e+00  0.0000000000000000e+00  0.0000000000000000e+00 
 0.0000000000000000e+00  0.0000000000000000e+00  0.0000000000000000e+00  0.0000000000000000e+00 
 0.0000000000000000e+00  0.0000000000000000e+00  0.0000000000000000e+00 
</PP_RHOATOM>
