  <PP_INFO>

############################################################
#    Opium Parameter File                                  #
############################################################
#-----------------------------------------------------------
#Command line   : opium Os Os.log ae ps nl tc2 ke upf qmcpack rpt 
 
#Opium version  : 4.1 
#Compile Host   : py-garuda.cos.ncsu.edu 
#Compile OS     : Linux 5.15.0-113-generic x86_64 
#Compile Date   : Sat Jul 13 02:11:52 EDT 2024 
#-----------------------------------------------------------
#Execution Host : Gwaihir 
#Execution Date : Wed Apr  8 10:53:43 2026
 
#-----------------------------------------------------------
############################################################
[Atom]
Os
15
100   2.00  -
200   2.00  -
210   6.00  -
300   2.00  -
310   6.00  -
320   10.00  -
400   2.00  -
410   6.00  -
420   10.00  -
430   14.00  -
500   2.00  -
510   6.00  -
520   5.00  -
600   0.50  -
610   0.50  -

[Pseudo]
5 -1 -1 -1 -1 -1
g

[Gaussinfo]
16 5 3
2 2 2 2 4  4 4 2
2 11.5002463 471.0407297  
2 3.4852399 17.8130491
2 9.8037034 265.2677546
2 4.6481669 48.5100692
2 6.2027583 107.9209763
2 4.0550573 31.4379599
2 2.5029220 16.9056440
2 4.0139760 17.8581420
1 13.9228489 16.0
3 14.5401353 222.76558240
2 3.4987206 -8.8867880
2 4.1385791 -10.8313312
2  10.56029676  -176.55873570
2  9.92179279  176.47766122
2  6.63157508  -23.42520941
2  4.94059077  22.92462656
2  7.02441831  -44.78358869
2  6.73623691  44.76521331
2  3.81203955  -5.56158538
2  3.62700278  5.48639997
2  2.87789898  -5.54350310
2  2.72363909  5.56129329

[KBdesign]
s

[Relativity]
frl

[XC]
pbe

[Configs]
12

500  2.00 -
510  6.00 -
520  6.00 -
600  1.00 -
610  0.00 -

500  2.00 -
510  6.00 -
520  6.00 -
600  1.00 -
610  1.00 -

500  2.00 -
510  6.00 -
520  6.00 -
600  2.00 -
610  0.00 -

500  2.00 -
510  6.00 -
520  7.00 -
600  1.00 -
610  0.00 -

500  2.00 -
510  6.00 -
520  6.00 -
600  1.00 -
610  0.00 -

500  2.00 -
510  6.00 -
520  5.00 -
600  1.00 -
610  0.00 -

500  2.00 -
510  6.00 -
520  6.00 -
600  0.00 -
610  0.00 -

500  2.00 -
510  6.00 -
520  5.00 -
600  0.00 -
610  0.00 -

500  2.00 -
510  6.00 -
520  4.00 -
600  0.00 -
610  0.00 -

500  2.00 -
510  6.00 -
520  3.00 -
600  0.00 -
610  0.00 -

500  2.00 -
510  6.00 -
520  2.00 -
600  0.00 -
610  0.00 -

500  2.00 -
510  6.00 -
520  1.00 -
600  0.00 -
610  0.00 -
############################################################
  </PP_INFO>



<PP_HEADER>
   0         Version Number
   Os        Element
   NC        Norm - Conserving pseudopotential
    F      Nonlinear Core Correction
SLA  PW   PBE  PBE     PBE  Exchange-Correlation functional
 16          Z valence
 0          Total energy
 0.000000   0.000000     Suggested cutoff for wfc and rho
 2           Max angular momentum component
 1187           Number of points in mesh
 5  4     Number of Wavefuncitons, Number of Projectors
 Wavefunctions         nl  l   occ
                      5S  0  2.000000
                      5P  1  2.000000
                      5P  1  4.000000
                      5D  2  2.000000
                      5D  2  3.000000
</PP_HEADER>
<PP_MESH>
  <PP_R>
 2.3608159785434170e-05  2.3917069424835755e-05  2.4230021105895077e-05  2.4547067718191088e-05 
 2.4868262843355869e-05  2.5193660764130068e-05  2.5523316473536738e-05  2.5857285684175392e-05 
 2.6195624837637518e-05  2.6538391114045328e-05  2.6885642441715343e-05  2.7237437506948445e-05 
 2.7593835763947952e-05  2.7954897444867566e-05  2.8320683569990749e-05  2.8691255958043199e-05 
 2.9066677236640525e-05  2.9447010852872350e-05  2.9832321084025045e-05  3.0222673048444746e-05 
 3.0618132716542519e-05  3.1018766921943513e-05  3.1424643372781973e-05  3.1835830663144154e-05 
 3.2252398284660741e-05  3.2674416638251263e-05  3.3101957046021921e-05  3.3535091763319209e-05 
 3.3973893990941268e-05  3.4418437887508949e-05  3.4868798581998827e-05  3.5325052186440178e-05 
 3.5787275808778121e-05  3.6255547565904881e-05  3.6729946596861998e-05  3.7210553076214802e-05 
 3.7697448227602206e-05  3.8190714337463651e-05  3.8690434768945723e-05  3.9196693975990716e-05 
 3.9709577517609624e-05  4.0229172072341602e-05  4.0755565452903120e-05  4.1288846621028378e-05 
 4.1829105702504037e-05  4.2376434002400731e-05  4.2930924020503847e-05  4.3492669466946184e-05 
 4.4061765278045189e-05  4.4638307632347454e-05  4.5222393966883112e-05  4.5814122993632801e-05 
 4.6413594716210466e-05  4.7020910446764014e-05  4.7636172823097382e-05  4.8259485826016555e-05 
 4.8890954796902567e-05  4.9530686455514456e-05  5.0178788918025200e-05  5.0835371715293417e-05 
 5.1500545811374624e-05  5.2174423622274228e-05  5.2857119034946172e-05  5.3548747426540083e-05 
 5.4249425683900274e-05  5.4959272223319929e-05  5.5678407010553710e-05  5.6406951581092266e-05 
 5.7145029060702090e-05  5.7892764186233804e-05  5.8650283326703376e-05  5.9417714504648512e-05 
 6.0195187417764836e-05  6.0982833460825136e-05  6.1780785747885358e-05  6.2589179134781234e-05 
 6.3408150241919220e-05  6.4237837477365575e-05  6.5078381060237878e-05  6.5929923044402196e-05 
 6.6792607342480622e-05  6.7666579750172795e-05  6.8551987970895742e-05  6.9448981640746137e-05 
 7.0357712353789120e-05  7.1278333687678052e-05  7.2211001229609530e-05  7.3155872602618038e-05 
 7.4113107492214389e-05  7.5082867673373279e-05  7.6065317037873464e-05  7.7060621621995859e-05 
 7.8068949634584116e-05  7.9090471485472263e-05  8.0125359814284497e-05  8.1173789519611394e-05 
 8.2235937788568562e-05  8.3311984126741487e-05  8.4402110388522416e-05  8.5506500807844187e-05 
 8.6625342029316238e-05  8.7758823139767945e-05  8.8907135700204743e-05  9.0070473778182468e-05 
 9.1249033980605147e-05  9.2443015486952157e-05  9.3652620082939697e-05  9.4878052194623551e-05 
 9.6119518922947234e-05  9.7377230078742665e-05  9.8651398218188623e-05  9.9942238678733325e-05 
 1.0124996961548701e-04  1.0257481203809036e-04  1.0391698984806613e-04  1.0527672987665868e-04 
 1.0665426192316921e-04  1.0804981879379223e-04  1.0946363634096040e-04  1.1089595350320422e-04 
 1.1234701234553321e-04  1.1381705810034535e-04  1.1530633920887205e-04  1.1681510736316538e-04 
 1.1834361754863427e-04  1.1989212808713813e-04  1.2146090068064356e-04  1.2305020045545273e-04 
 1.2466029600701023e-04  1.2629145944529651e-04  1.2794396644081503e-04  1.2961809627118096e-04 
 1.3131413186832030e-04  1.3303235986628575e-04  1.3477307064969847e-04  1.3653655840282396e-04 
 1.3832312115928975e-04  1.4013306085245385e-04  1.4196668336643225e-04  1.4382429858779403e-04 
 1.4570622045793289e-04  1.4761276702612418e-04  1.4954426050327541e-04  1.5150102731638151e-04 
 1.5348339816369117e-04  1.5549170807059581e-04  1.5752629644624969e-04  1.5958750714093083e-04 
 1.6167568850415266e-04  1.6379119344353530e-04  1.6593437948444879e-04  1.6810560883043503e-04 
 1.7030524842442121e-04  1.7253367001073409e-04  1.7479125019792562e-04  1.7707837052242066e-04 
 1.7939541751299764e-04  1.8174278275611281e-04  1.8412086296207915e-04  1.8653006003211152e-04 
 1.8897078112624908e-04  1.9144343873216558e-04  1.9394845073488170e-04  1.9648624048738809e-04 
 1.9905723688219327e-04  2.0166187442380683e-04  2.0430059330217283e-04  2.0697383946706208e-04 
 2.0968206470343897e-04  2.1242572670781437e-04  2.1520528916559720e-04  2.1802122182945839e-04 
 2.2087400059872032e-04  2.2376410759978501e-04  2.2669203126761419e-04  2.2965826642827665e-04 
 2.3266331438257434e-04  2.3570768299076389e-04  2.3879188675838615e-04  2.4191644692321814e-04 
 2.4508189154336476e-04  2.4828875558650080e-04  2.5153758102028232e-04  2.5482891690393995e-04 
 2.5816331948107181e-04  2.6154135227364960e-04  2.6496358617725545e-04  2.6843059955756430e-04 
 2.7194297834808902e-04  2.7550131614920522e-04  2.7910621432847038e-04  2.8275828212225696e-04 
 2.8645813673871417e-04  2.9020640346207830e-04  2.9400371575834684e-04  2.9785071538233578e-04 
 3.0174805248613806e-04  3.0569638572899984e-04  3.0969638238863685e-04  3.1374871847400488e-04 
 3.1785407883954742e-04  3.2201315730093720e-04  3.2622665675233328e-04  3.3049528928517154e-04 
 3.3481977630850970e-04  3.3920084867094765e-04  3.4363924678414165e-04  3.4813572074793688e-04 
 3.5269103047713511e-04  3.5730594582992299e-04  3.6198124673797862e-04  3.6671772333828344e-04 
 3.7151617610665602e-04  3.7637741599303505e-04  3.8130226455853180e-04  3.8629155411427500e-04 
 3.9134612786207476e-04  3.9646684003692489e-04  4.0165455605137084e-04  4.0691015264176605e-04 
 4.1223451801644326e-04  4.1762855200582318e-04  4.2309316621448844e-04  4.2862928417524695e-04 
 4.3423784150520994e-04  4.3991978606391539e-04  4.4567607811351733e-04  4.5150769048107273e-04 
 4.5741560872295136e-04  4.6340083129139752e-04  4.6946436970327066e-04  4.7560724871099431e-04 
 4.8183050647574165e-04  4.8813519474288631e-04  4.9452237901975152e-04  5.0099313875568222e-04 
 5.0754856752447503e-04  5.1418977320919379e-04  5.2091787818940637e-04  5.2773401953086800e-04 
 5.3463934917768823e-04  5.4163503414701318e-04  5.4872225672625253e-04  5.5590221467289062e-04 
 5.6317612141690949e-04  5.7054520626586170e-04  5.7801071461262548e-04  5.8557390814588004e-04 
 5.9323606506333398e-04  6.0099848028774268e-04  6.0886246568575488e-04  6.1682935028961930e-04 
 6.2490048052179625e-04  6.3307722042250480e-04  6.4136095188025018e-04  6.4975307486536411e-04 
 6.5825500766660547e-04  6.6686818713085317e-04  6.7559406890593668e-04  6.8443412768664483e-04 
 6.9338985746395117e-04  7.0246277177750394e-04  7.1165440397141647e-04  7.2096630745340667e-04 
 7.3040005595732577e-04  7.3995724380912454e-04  7.4963948619629684e-04  7.5944841944085078e-04 
 7.6938570127585123e-04  7.7945301112557945e-04  7.8965205038936147e-04  7.9998454272910743e-04 
 8.1045223436061568e-04  8.2105689434868530e-04  8.3180031490609453e-04  8.4268431169648818e-04 
 8.5371072414122879e-04  8.6488141573026376e-04  8.7619827433705797e-04  8.8766321253765210e-04 
 8.9927816793388923e-04  9.1104510348087662e-04  9.2296600781872744e-04  9.3504289560864809e-04 
 9.4727780787341894e-04  9.5967281234233322e-04  9.7223000380064809e-04  9.8495150444360621e-04 
 9.9783946423509517e-04  1.0108960612709942e-03  1.0241235021472791e-03  1.0375240223329395e-03 
 1.0510998865477816e-03  1.0648533891451696e-03  1.0787868544997773e-03  1.0929026374004128e-03 
 1.1072031234479829e-03  1.1216907294586661e-03  1.1363679038723601e-03  1.1512371271664747e-03 
 1.1663009122751355e-03  1.1815618050138802e-03  1.1970223845099034e-03  1.2126852636379377e-03 
 1.2285530894618358e-03  1.2446285436819276e-03  1.2609143430882379e-03  1.2774132400196283e-03 
 1.2941280228289491e-03  1.3110615163542778e-03  1.3282165823963249e-03  1.3455961202020795e-03 
 1.3632030669547975e-03  1.3810403982703861e-03  1.3991111287002919e-03  1.4174183122409678e-03 
 1.4359650428500052e-03  1.4547544549690203e-03  1.4737897240533811e-03  1.4930740671088704e-03 
 1.5126107432353608e-03  1.5324030541776176e-03  1.5524543448832981e-03  1.5727680040682555e-03 
 1.5933474647892400e-03  1.6141962050240952e-03  1.6353177482595427e-03  1.6567156640866605e-03 
 1.6783935688041540e-03  1.7003551260295127e-03  1.7226040473181804e-03  1.7451440927908090e-03 
 1.7679790717687312e-03  1.7911128434177433e-03  1.8145493174003147e-03  1.8382924545363301e-03 
 1.8623462674724760e-03  1.8867148213603903e-03  1.9114022345436768e-03  1.9364126792539235e-03 
 1.9617503823158135e-03  1.9874196258614705e-03  2.0134247480541496e-03  2.0397701438213947e-03 
 2.0664602655977964e-03  2.0934996240774594e-03  2.1208927889763249e-03  2.1486443898044560e-03 
 2.1767591166484447e-03  2.2052417209640451e-03  2.2340970163791767e-03  2.2633298795074431e-03 
 2.2929452507722907e-03  2.3229481352419500e-03  2.3533436034753070e-03  2.3841367923788386e-03 
 2.4153329060747561e-03  2.4469372167805264e-03  2.4789550656998801e-03  2.5113918639254897e-03 
 2.5442530933534584e-03  2.5775443076097725e-03  2.6112711329888769e-03  2.6454392694045350e-03 
 2.6800544913531256e-03  2.7151226488895419e-03  2.7506496686158753e-03  2.7866415546830164e-03 
 2.8231043898053758e-03  2.8600443362888739e-03  2.8974676370723870e-03  2.9353806167828184e-03 
 2.9737896828039762e-03  3.0127013263594377e-03  3.0521221236095718e-03  3.0920587367629414e-03 
 3.1325179152022235e-03  3.1735064966248701e-03  3.2150314081986989e-03  3.2570996677325991e-03 
 3.2997183848625582e-03  3.3428947622532084e-03  3.3866360968150947e-03  3.4309497809378617e-03 
 3.4758433037395996e-03  3.5213242523325127e-03  3.5674003131051621e-03  3.6140792730214853e-03 
 3.6613690209368064e-03  3.7092775489310781e-03  3.7578129536595590e-03  3.8069834377211700e-03 
 3.8567973110447415e-03  3.9072629922934296e-03  3.9583890102874797e-03  4.0101840054456179e-03 
 4.0626567312453017e-03  4.1158160557020823e-03  4.1696709628683158e-03  4.2242305543514951e-03 
 4.2795040508524411e-03  4.3355007937236102e-03  4.3922302465478312e-03  4.4497019967376511e-03 
 4.5079257571556406e-03  4.5669113677558890e-03  4.6266687972469790e-03  4.6872081447767236e-03 
 4.7485396416389429e-03  4.8106736530025883e-03  4.8736206796634552e-03  4.9373913598188737e-03 
 5.0019964708655712e-03  5.0674469312210800e-03  5.1337538021689793e-03  5.2009282897282757e-03 
 5.2689817465472492e-03  5.3379256738220748e-03  5.4077717232405608e-03  5.4785316989512892e-03 
 5.5502175595585771e-03  5.6228414201434833e-03  5.6964155543113015e-03  5.7709523962658181e-03 
 5.8464645429107285e-03  5.9229647559785421e-03  6.0004659641873445e-03  6.0789812654257914e-03 
 6.1585239289666509e-03  6.2391073977093904e-03  6.3207452904520210e-03  6.4034514041927228e-03 
 6.4872397164615686e-03  6.5721243876827535e-03  6.6581197635677486e-03  6.7452403775397560e-03 
 6.8335009531898978e-03  6.9229164067655174e-03  7.0135018496910893e-03  7.1052725911220724e-03 
 7.1982441405321913e-03  7.2924322103345776e-03  7.3878527185372049e-03  7.4845217914330693e-03 
 7.5824557663255717e-03  7.6816711942895681e-03  7.7821848429685129e-03  7.8840136994082714e-03 
 7.9871749729279479e-03  8.0916860980282963e-03  8.1975647373382070e-03  8.3048287845997257e-03 
 8.4134963676921366e-03  8.5235858516956239e-03  8.6351158419950141e-03  8.7481051874241048e-03 
 8.8625729834512067e-03  8.9785385754062915e-03  9.0960215617504128e-03  9.2150417973878799e-03 
 9.3356193970217972e-03  9.4577747385534879e-03  9.5815284665264136e-03  9.7069014956151552e-03 
 9.8339150141600103e-03  9.9625904877479309e-03  1.0092949662840207e-02  1.0225014570447701e-02 
 1.0358807529854124e-02  1.0494351152388056e-02  1.0631668345244313e-02  1.0770782315355316e-02 
 1.0911716573313126e-02  1.1054494937342760e-02  1.1199141537327571e-02  1.1345680818887229e-02 
 1.1494137547509099e-02  1.1644536812733655e-02  1.1796904032394690e-02  1.1951264956914971e-02 
 1.2107645673658136e-02  1.2266072611337530e-02  1.2426572544482669e-02  1.2589172597964269e-02 
 1.2753900251578376e-02  1.2920783344690512e-02  1.3089850080940619e-02  1.3261129033009513e-02 
 1.3434649147447755e-02  1.3610439749567681e-02  1.3788530548399458e-02  1.3968951641711943e-02 
 1.4151733521099330e-02  1.4336907077134276e-02  1.4524503604588486e-02  1.4714554807721597e-02 
 1.4907092805639274e-02  1.5102150137721426e-02  1.5299759769121435e-02  1.5499955096337345e-02 
 1.5702769952855918e-02  1.5908238614870628e-02  1.6116395807074402e-02  1.6327276708528154e-02 
 1.6540916958606145e-02  1.6757352663019125e-02  1.6976620399916275e-02  1.7198757226067007e-02 
 1.7423800683123668e-02  1.7651788803966090e-02  1.7882760119129350e-02  1.8116753663315440e-02 
 1.8353808981990256e-02  1.8593966138066870e-02  1.8837265718676256e-02  1.9083748842026616e-02 
 1.9333457164352443e-02  1.9586432886954563e-02  1.9842718763332167e-02  2.0102358106408359e-02 
 2.0365394795850096e-02  2.0631873285483941e-02  2.0901838610808885e-02  2.1175336396607455e-02 
 2.1452412864656403e-02  2.1733114841538292e-02  2.2017489766555338e-02  2.2305585699746666e-02 
 2.2597451330010704e-02  2.2893135983333635e-02  2.3192689631125630e-02  2.3496162898666125e-02 
 2.3803607073659638e-02  2.4115074114903490e-02  2.4430616661068966e-02  2.4750288039597418e-02 
 2.5074142275712617e-02  2.5402234101551298e-02  2.5734618965412914e-02  2.6071353041130570e-02 
 2.6412493237564519e-02  2.6758097208219901e-02  2.7108223360990339e-02  2.7462930868028972e-02 
 2.7822279675748761e-02  2.8186330514953443e-02  2.8555144911101348e-02  2.8928785194703238e-02 
 2.9307314511856336e-02  2.9690796834916183e-02  3.0079296973308106e-02  3.0472880584480142e-02 
 3.0871614184999369e-02  3.1275565161793313e-02  3.1684801783538441e-02  3.2099393212197881e-02 
 3.2519409514709850e-02  3.2944921674829139e-02  3.3376001605123579e-02  3.3812722159127395e-02 
 3.4255157143653653e-02  3.4703381331267776e-02  3.5157470472924321e-02  3.5617501310768941e-02 
 3.6083551591108175e-02  3.6555700077548658e-02  3.7034026564308341e-02  3.7518611889701958e-02 
 3.8009537949802864e-02  3.8506887712283666e-02  3.9010745230437960e-02  3.9521195657385572e-02 
 4.0038325260463525e-02  4.0562221435805589e-02  4.1092972723112305e-02  4.1630668820614482e-02 
 4.2175400600232359e-02  4.2727260122933208e-02  4.3286340654289851e-02  4.3852736680242747e-02 
 4.4426543923068391e-02  4.5007859357556475e-02  4.5596781227399047e-02  4.6193409061793790e-02 
 4.6797843692264765e-02  4.7410187269703120e-02  4.8030543281630901e-02  4.8659016569690607e-02 
 4.9295713347363761e-02  4.9940741217921227e-02  5.0594209192608278e-02  5.1256227709067993e-02 
 5.1926908650005314e-02  5.2606365362095557e-02  5.3294712675140223e-02  5.3992066921473569e-02 
 5.4698545955622985e-02  5.5414269174226739e-02  5.6139357536212298e-02  5.6873933583238528e-02 
 5.7618121460405798e-02  5.8372046937236577e-02  5.9135837428930860e-02  5.9909622017899657e-02 
 6.0693531475580167e-02  6.1487698284536534e-02  6.2292256660849650e-02  6.3107342576800105e-02 
 6.3933093783847567e-02  6.4769649835911450e-02  6.5617152112955629e-02  6.6475743844882071e-02 
 6.7345570135736998e-02  6.8226777988233830e-02  6.9119516328597003e-02  7.0023936031730849e-02 
 7.0940189946717802e-02  7.1868432922650272e-02  7.2808821834800475e-02  7.3761515611132825e-02 
 7.4726675259163114e-02  7.5704463893168789e-02  7.6695046761756355e-02  7.7698591275788279e-02 
 7.8715267036676001e-02  7.9745245865042835e-02  8.0788701829762291e-02  8.1845811277375904e-02 
 8.2916752861896328e-02  8.4001707575000306e-02  8.5100858776616647e-02  8.6214392225914524e-02 
 8.7342496112697163e-02  8.8485361089206446e-02  8.9643180302343528e-02  9.0816149426311138e-02 
 9.2004466695683018e-02  9.3208332938905999e-02  9.4427951612240671e-02  9.5663528834145306e-02 
 9.6915273420111372e-02  9.8183396917953164e-02  9.9468113643560063e-02  1.0076964071711646e-01 
 1.0208819809979554e-01  1.0342400863093328e-01  1.0477729806568879e-01  1.0614829511319750e-01 
 1.0753723147522355e-01  1.0894434188531794e-01  1.1036986414848901e-01  1.1181403918139214e-01 
 1.1327711105304515e-01  1.1475932702607661e-01  1.1626093759851379e-01  1.1778219654611735e-01 
 1.1932336096527049e-01  1.2088469131642766e-01  1.2246645146813458e-01  1.2406890874162162e-01 
 1.2569233395598198e-01  1.2733700147394084e-01  1.2900318924822315e-01  1.3069117886852849e-01 
 1.3240125560912028e-01  1.3413370847703782e-01  1.3588883026093915e-01  1.3766691758058314e-01 
 1.3946827093695882e-01  1.4129319476307084e-01  1.4314199747538928e-01  1.4501499152597289e-01 
 1.4691249345527407e-01  1.4883482394563516e-01  1.5078230787548458e-01  1.5275527437424119e-01 
 1.5475405687793939e-01  1.5677899318557956e-01  1.5883042551621729e-01  1.6090870056679901e-01 
 1.6301416957075482e-01  1.6514718835735756e-01  1.6730811741185900e-01  1.6949732193641251e-01 
 1.7171517191179334e-01  1.7396204215992594e-01  1.7623831240723009e-01  1.7854436734879531e-01 
 1.8088059671339532e-01  1.8324739532935319e-01  1.8564516319126828e-01  1.8807430552761614e-01 
 1.9053523286923355e-01  1.9302836111869778e-01  1.9555411162061728e-01  1.9811291123283836e-01 
 2.0070519239858567e-01  2.0333139321954610e-01  2.0599195752990906e-01  2.0868733497137532e-01 
 2.1141798106914780e-01  2.1418435730891625e-01  2.1698693121484935e-01  2.1982617642860769e-01 
 2.2270257278939001e-01  2.2561660641502740e-01  2.2856876978413823e-01  2.3155956181935841e-01 
 2.3458948797166027e-01  2.3765906030577497e-01  2.4076879758673331e-01  2.4391922536753641e-01 
 2.4711087607797799e-01  2.5034428911462459e-01  2.5362001093197512e-01  2.5693859513481332e-01 
 2.6030060257176801e-01  2.6370660143009800e-01  2.6715716733171685e-01  2.7065288343047472e-01 
 2.7419434051071234e-01  2.7778213708710531e-01  2.8141687950581440e-01  2.8509918204695933e-01 
 2.8882966702843388e-01  2.9260896491107874e-01  2.9643771440523120e-01  3.0031656257866862e-01 
 3.0424616496596485e-01  3.0822718567927504e-01  3.1226029752057566e-01  3.1634618209536686e-01 
 3.2048552992786677e-01  3.2467904057771102e-01  3.2892742275818043e-01  3.3323139445597505e-01 
 3.3759168305255571e-01  3.4200902544707307e-01  3.4648416818090561e-01  3.5101786756382652e-01 
 3.5561088980182221e-01  3.6026401112658268e-01  3.6497801792668683e-01  3.6975370688050352e-01 
 3.7459188509083263e-01  3.7949337022130702e-01  3.8445899063458044e-01  3.8948958553231999e-01 
 3.9458600509703740e-01  3.9974911063576907e-01  4.0497977472563973e-01  4.1027888136133006e-01 
 4.1564732610447391e-01  4.2108601623501024e-01  4.2659587090451584e-01  4.3217782129154364e-01 
 4.3783281075899466e-01  4.4356179501354853e-01  4.4936574226717962e-01  4.5524563340078777e-01 
 4.6120246212996940e-01  4.6723723517295734e-01  4.7335097242075941e-01  4.7954470710952168e-01 
 4.8581948599514913e-01  4.9217636953020633e-01  4.9861643204314143e-01  5.0514076191984714e-01 
 5.1175046178760131e-01  5.1844664870141310e-01  5.2523045433280857e-01  5.3210302516108565e-01 
 5.3906552266707164e-01  5.4611912352941638e-01  5.5326501982345389e-01  5.6050441922266592e-01 
 5.6783854520278132e-01  5.7526863724854671e-01  5.8279595106320203e-01  5.9042175878069780e-01 
 5.9814734918068846e-01  6.0597402790633914e-01  6.1390311768498385e-01  6.2193595855166517e-01 
 6.3007390807560937e-01  6.3831834158965517e-01  6.4667065242268917e-01  6.5513225213512127e-01 
 6.6370457075744227e-01  6.7238905703190244e-01  6.8118717865735190e-01  6.9010042253728598e-01 
 6.9913029503113455e-01  7.0827832220884113e-01  7.1754605010877193e-01  7.2693504499900008e-01 
 7.3644689364200888e-01  7.4608320356285796e-01  7.5584560332085937e-01  7.6573574278480760e-01 
 7.7575529341181315e-01  7.8590594852977647e-01  7.9618942362357348e-01  8.0660745662497069e-01 
 8.1716180820634143e-01  8.2785426207822310e-01  8.3868662529076932e-01  8.4966072853914498e-01 
 8.6077842647291825e-01  8.7204159800950176e-01  8.8345214665169181e-01  8.9501200080936771e-01 
 9.0672311412539575e-01  9.1858746580579953e-01  9.3060706095425161e-01  9.4278393091093970e-01 
 9.5512013359586867e-01  9.6761775385665383e-01  9.8027890382086635e-01  9.9310572325298130e-01 
 1.0061003799160138e+00  1.0192650699378683e+00  1.0326020181824918e+00  1.0461134786258810e+00 
 1.0598017347370090e+00  1.0736690998637384e+00  1.0877179176237808e+00  1.1019505623007759e+00 
 1.1163694392455483e+00  1.1309769852826208e+00  1.1457756691220407e+00  1.1607679917765992e+00 
 1.1759564869845078e+00  1.1913437216376070e+00  1.2069322962151765e+00  1.2227248452234218e+00 
 1.2387240376407156e+00  1.2549325773686515e+00  1.2713532036890236e+00  1.2879886917267627e+00 
 1.3048418529189414e+00  1.3219155354899133e+00  1.3392126249326697e+00  1.3567360444964953e+00 
 1.3744887556810041e+00  1.3924737587366389e+00  1.4106940931717227e+00  1.4291528382661407e+00 
 1.4478531135917478e+00  1.4667980795395823e+00  1.4859909378539806e+00  1.5054349321736782e+00 
 1.5251333485799938e+00  1.5450895161521845e+00  1.5653068075300702e+00  1.5857886394840073e+00 
 1.6065384734923476e+00  1.6275598163264251e+00  1.6488562206432116e+00  1.6704312855857240e+00 
 1.6922886573912883e+00  1.7144320300077631e+00  1.7368651457178228e+00  1.7595917957714158e+00 
 1.7826158210264931e+00  1.8059411125981217e+00  1.8295716125160941e+00  1.8535113143911395e+00 
 1.8777642640898526e+00  1.9023345604184581e+00  1.9272263558155138e+00  1.9524438570536884e+00 
 1.9779913259507134e+00  2.0038730800896314e+00  2.0300934935484958e+00  2.0566569976395894e+00 
 2.0835680816583264e+00  2.1108312936419575e+00  2.1384512411381968e+00  2.1664325919839094e+00 
 2.1947800750939863e+00  2.2234984812605427e+00  2.2525926639625737e+00  2.2820675401862029e+00 
 2.3119280912556648e+00  2.3421793636751618e+00  2.3728264699817334e+00  2.4038745896092886e+00 
 2.4353289697639413e+00  2.4671949263108028e+00  2.4994778446723784e+00  2.5321831807386976e+00 
 2.5653164617894029e+00  2.5988832874278516e+00  2.6328893305274699e+00  2.6673403381904786e+00 
 2.7022421327191690e+00  2.7376006125998869e+00  2.7734217534998882e+00  2.8097116092772434e+00 
 2.8464763130039517e+00  2.8837220780024468e+00  2.9214551988956616e+00  2.9596820526708361e+00 
 2.9984090997572412e+00  3.0376428851180095e+00  3.0773900393562466e+00  3.1176572798356204e+00 
 3.1584514118156179e+00  3.1997793296016268e+00  3.2416480177101232e+00  3.2840645520490481e+00 
 3.3270361011136607e+00  3.3705699271980292e+00  3.4146733876223765e+00  3.4593539359764858e+00 
 3.5046191233793715e+00  3.5504765997554406e+00  3.5969341151273464e+00  3.6439995209257594e+00 
 3.6916807713162809e+00  3.7399859245437117e+00  3.7889231442939191e+00  3.8385007010735159e+00 
 3.8887269736075969e+00  3.9396104502557647e+00  3.9911597304466855e+00  4.0433835261313913e+00 
 4.0962906632556582e+00  4.1498900832515826e+00  4.2041908445487168e+00  4.2592021241049602e+00 
 4.3149332189574903e+00  4.3713935477939829e+00  4.4285926525443928e+00  4.4865401999935610e+00 
 4.5452459834149277e+00  4.6047199242256172e+00  4.6649720736631792e+00  4.7260126144842749e+00 
 4.7878518626855868e+00  4.8505002692472416e+00  4.9139684218990602e+00  4.9782670469098997e+00 
 5.0434070109004336e+00  5.1093993226795966e+00  5.1762551351051576e+00  5.2439857469685389e+00 
 5.3126026049043515e+00  5.3821173053249005e+00  5.4525415963800103e+00  5.5238873799424839e+00 
 5.5961667136195548e+00  5.6693918127906446e+00  5.7435750526717984e+00  5.8187289704071166e+00 
 5.8948662671875729e+00  5.9719998103975342e+00  6.0501426357893910e+00  6.1293079496866207e+00 
 6.2095091312156940e+00  6.2907597345671737e+00  6.3730734912864246e+00  6.4564643125942229e+00 
 6.5409462917378587e+00  6.6265337063728840e+00  6.7132410209760769e+00  6.8010828892899768e+00 
 6.8900741567994039e+00  6.9802298632403721e+00  7.0715652451418514e+00  7.1640957384007677e+00 
 7.2578369808907155e+00  7.3528048151047871e+00  7.4490152908329978e+00  7.5464846678747373e+00 
 7.6452294187867116e+00  7.7452662316668448e+00  7.8466120129746146e+00  7.9492838903882710e+00 
 8.0532992156994823e+00  8.1586755677457656e+00  8.2654307553814341e+00  8.3735828204872860e+00 
 8.4831500410197371e+00  8.5941509340998383e+00  8.7066042591427166e+00  8.8205290210279461e+00 
 8.9359444733114444e+00  9.0528701214793426e+00  9.1713257262444792e+00  9.2913313068859917e+00 
 9.4129071446326353e+00  9.5360737860903537e+00  9.6608520467146981e+00  9.7872630143286994e+00 
 9.9153280526867551e+00  1.0045068805085156e+01  1.0176507198019868e+01  1.0309665444892101e+01 
 1.0444566049762521e+01  1.0581231811154428e+01  1.0719685825906776e+01  1.0859951493077590e+01 
 1.1002052517898472e+01  1.1146012915780826e+01  1.1291857016374538e+01  1.1439609467679727e+01 
 1.1589295240212332e+01  1.1740939631224178e+01  1.1894568268978270e+01  1.2050207117080046e+01 
 1.2207882478865264e+01  1.2367621001845354e+01  1.2529449682210890e+01  1.2693395869394021e+01 
 1.2859487270690613e+01  1.3027751955942751e+01  1.3198218362282756e+01  1.3370915298939021e+01 
 1.3545871952104880e+01  1.3723117889871132e+01  1.3902683067223117e+01  1.4084597831103194e+01 
 1.4268892925539436e+01  1.4455599496841435e+01  1.4644749098864128e+01  1.4836373698340450e+01 
 1.5030505680283792e+01  1.5227177853461166e+01  1.5426423455937924e+01  1.5628276160695119e+01 
 1.5832770081320282e+01  1.6039939777772741e+01  1.6249820262224219e+01  1.6462447004976163e+01 
 1.6677855940454162e+01  1.6896083473281006e+01  1.7117166484429152e+01  1.7341142337453675e+01 
 1.7568048884806828e+01  1.7797924474235163e+01  1.8030807955260432e+01  1.8266738685745203e+01 
 1.8505756538544471e+01  1.8747901908244245e+01  1.8993215717988335e+01  1.9241739426394453e+01 
 1.9493515034560829e+01  1.9748585093164504e+01  2.0006992709652465e+01  2.0268781555526967e+01 
 2.0533995873725985e+01  2.0802680486100552e+01  2.1074880800989671e+01  2.1350642820894404e+01 
 2.1630013150252466e+01  2.1913039003314445e+01  2.2199768212123139e+01  2.2490249234597275e+01 
 2.2784531162721027e+01  2.3082663730840668e+01  2.3384697324069794e+01  2.3690682986804529e+01 
 2.4000672431350150e+01  2.4314718046660595e+01  2.4632872907192304e+01  2.4955190781873949e+01 
 2.5281726143193499e+01  2.5612534176404250e+01  2.5947670788851074e+01  2.6287192619419184e+01 
 2.6631157048106036e+01  2.6979622205718748e+01  2.7332646983698336e+01  2.7690291044072513e+01 
 2.8052614829538708e+01  2.8419679573679037e+01  2.8791547311308904e+01  2.9168280888961046e+01 
 2.9549943975506757e+01  2.9936601072916048e+01  3.0328317527158674e+01  3.0725159539247716e+01 
 3.1127194176427746e+01  3.1534489383509325e+01  3.1947113994351849e+01  3.2365137743496703e+01 
 3.2788631277952305e+01  3.3217666169133999e+01  3.3652314924959533e+01  3.4092651002103153e+01 
 3.4538748818409935e+01  3.4990683765472589e+01  3.5448532221372822e+01  3.5912371563589403e+01 
 3.6382280182075149e+01  3.6858337492505008e+01  3.7340623949697516e+01  3.7829221061211818e+01 
 3.8324211401122668e+01  3.8825678623975641e+01  3.9333707478924971e+01  3.9848383824056164e+01 
 4.0369794640896771e+01  4.0898028049115709e+01  4.1433173321416064e+01  4.1975320898622847e+01 
 4.2524562404966673e+01  4.3080990663569665e+01  4.3644699712131562e+01  4.4215784818823579e+01 
 4.4794342498387671e+01  4.5380470528449010e+01  4.5974267966039406e+01  4.6575835164339438e+01 
 4.7185273789637058e+01  4.7802686838510823e+01  4.8428178655235136e+01  4.9061854949416116e+01 
 4.9703822813855325e+01  5.0354190742650168e+01  5.1013068649528179e+01  5.1680567886424178e+01 
 5.2356801262297743e+01  5.3041883062198693e+01  5.3735929066582166e+01  5.4439056570874406e+01 
 5.5151384405297534e+01  5.5873032954950588e+01  5.6604124180156461e+01  5.7344781637071875e+01 
 5.8095130498570278e+01  5.8855297575394758e+01  5.9625411337590990e+01  6.0405601936217323e+01 
 6.1196001225342258e+01  6.1996742784326464e+01  6.2807961940399693e+01  6.3629795791529638e+01 
 6.4462383229593655e+01  6.5305864963850183e+01  6.6160383544719650e+01  6.7026083387876525e+01 
 6.7903110798654268e+01  6.8791613996773194e+01  6.9691743141388031e+01  7.0603650356467099e+01 
 7.1527489756499676e+01  7.2463417472543711e+01  7.3411591678610293e+01  7.4372172618397485e+01 
 7.5345322632369914e+01  7.6331206185196635e+01  7.7329989893544024e+01  7.8341842554236564e+01 
 7.9366935172781652e+01  8.0405440992272204e+01  8.1457535522662909e+01  8.2523396570434031e+01 
 8.3603204268639232e+01  8.4697141107349239e+01  8.5805391964494092e+01  8.6928144137105761e+01 
 8.8065587372974321e+01  8.9217913902713192e+01  9.0385318472249224e+01  9.1567998375732543e+01 
 9.2766153488882381e+01  9.3979986302763933e+01  9.5209701958012431e+01  9.6455508279499824e+01 
 9.7717615811460206e+01  9.8996237853069758e+01  1.0029159049449747e+02  1.0160389265342208e+02 
 1.0293336611203256e+02  1.0428023555450737e+02  1.0564472860498755e+02  1.0702707586604703e+02 
 1.0842751095766229e+02  1.0984627055669773e+02  1.1128359443690162e+02  1.1273972550943147e+02 
 1.1421490986390346e+02  1.1570939680998538e+02  1.1722343891952735e+02 
  </PP_R>
  <PP_RAB>
 3.0690607721064417e-07  3.1092190252286481e-07  3.1499027437663598e-07  3.1911188033648415e-07 
 3.2328741696362627e-07  3.2751758993369088e-07  3.3180311415597758e-07  3.3614471389428006e-07 
 3.4054312288928772e-07  3.4499908448258923e-07  3.4951335174229943e-07  3.5408668759032978e-07 
 3.5871986493132337e-07  3.6341366678327832e-07  3.6816888640987970e-07  3.7298632745456158e-07 
 3.7786680407632681e-07  3.8281114108734051e-07  3.8782017409232557e-07  3.9289474962978169e-07 
 3.9803572531505273e-07  4.0324396998526565e-07  4.0852036384616564e-07  4.1386579862087398e-07 
 4.1928117770058959e-07  4.2476741629726638e-07  4.3032544159828494e-07  4.3595619292314971e-07 
 4.4166062188223646e-07  4.4743969253761629e-07  4.5329438156598473e-07  4.5922567842372231e-07 
 4.6523458551411554e-07  4.7132211835676342e-07  4.7748930575920594e-07  4.8373718999079237e-07 
 4.9006682695882861e-07  4.9647928638702742e-07  5.0297565199629441e-07  5.0955702168787928e-07 
 5.1622450772892510e-07  5.2297923694044085e-07  5.2982235088774057e-07  5.3675500607336887e-07 
 5.4377837413255250e-07  5.5089364203120947e-07  5.5810201226654993e-07  5.6540470307030038e-07 
 5.7280294861458746e-07  5.8029799922051690e-07  5.8789112156948047e-07  5.9558359891722643e-07 
 6.0337673131073604e-07  6.1127183580793219e-07  6.1927024670026597e-07  6.2737331573821515e-07 
 6.3558241235973335e-07  6.4389892392168789e-07  6.5232425593432762e-07  6.6085983229881435e-07 
 6.6950709554787014e-07  6.7826750708956495e-07  6.8714254745430022e-07  6.9613371654502103e-07 
 7.0524253389070349e-07  7.1447053890315900e-07  7.2381929113719822e-07  7.3329037055419941e-07 
 7.4288537778912714e-07  7.5260593442103947e-07  7.6245368324714380e-07  7.7243028856043064e-07 
 7.8253743643094282e-07  7.9277683499072678e-07  8.0315021472250960e-07  8.1365932875215604e-07 
 8.2430595314494987e-07  8.3509188720575241e-07  8.4601895378309240e-07  8.5708899957722852e-07 
 8.6830389545224800e-07  8.7966553675224630e-07  8.9117584362164465e-07  9.0283676132969975e-07 
 9.1465026059925854e-07  9.2661833793981468e-07  9.3874301598492385e-07  9.5102634383403441e-07 
 9.6347039739878697e-07  9.7607727975385267e-07  9.8884912149235500e-07  1.0017880810859461e-06 
 1.0148963452495935e-06  1.0281761293111394e-06  1.0416296775856984e-06  1.0552592637549480e-06 
 1.0690671912513913e-06  1.0830557936476394e-06  1.0972274350507914e-06  1.1115845105019744e-06 
 1.1261294463811110e-06  1.1408647008169832e-06  1.1557927641026617e-06  1.1709161591163721e-06 
 1.1862374417478669e-06  1.2017592013303780e-06  1.2174840610782160e-06  1.2334146785301060e-06 
 1.2495537459983140e-06  1.2659039910236547e-06  1.2824681768364520e-06  1.2992491028235331e-06 
 1.3162496050013312e-06  1.3334725564951746e-06  1.3509208680248595e-06  1.3685974883965627e-06 
 1.3865054050011998e-06  1.4046476443192989e-06  1.4230272724324851e-06  1.4416473955416549e-06 
 1.4605111604919316e-06  1.4796217553044895e-06  1.4989824097153365e-06  1.5185963957211500e-06 
 1.5384670281322456e-06  1.5585976651327956e-06  1.5789917088483662e-06  1.5996526059208854e-06 
 1.6205838480911330e-06  1.6417889727888544e-06  1.6632715637305955e-06  1.6850352515253523e-06 
 1.7070837142881637e-06  1.7294206782617147e-06  1.7520499184460801e-06  1.7749752592367115e-06 
 1.7982005750707667e-06  1.8217297910818999e-06  1.8455668837636193e-06  1.8697158816413223e-06 
 1.8941808659531276e-06  1.9189659713396141e-06  1.9440753865425801e-06  1.9695133551129597e-06 
 1.9952841761279849e-06  2.0213922049177453e-06  2.0478418538012459e-06  2.0746375928321006e-06 
 2.1017839505539845e-06  2.1292855147659586e-06  2.1571469332978341e-06  2.1853729147956554e-06 
 2.2139682295174759e-06  2.2429377101395431e-06  2.2722862525730330e-06  2.3020188167914687e-06 
 2.3321404276689691e-06  2.3626561758294665e-06  2.3935712185070287e-06  2.4248907804174495e-06 
 2.4566201546412378e-06  2.4887647035181523e-06  2.5213298595534622e-06  2.5543211263360451e-06 
 2.5877440794685123e-06  2.6216043675094885e-06  2.6559077129282468e-06  2.6906599130718069e-06 
 2.7258668411447066e-06  2.7615344472015865e-06  2.7976687591527634e-06  2.8342758837829587e-06 
 2.8713620077833641e-06  2.9089333987972050e-06  2.9469964064789842e-06  2.9855574635675962e-06 
 3.0246230869734665e-06  3.0641998788799304e-06  3.1042945278590200e-06  3.1449138100018356e-06 
 3.1860645900637417e-06  3.2277538226245104e-06  3.2699885532636698e-06  3.3127759197512190e-06 
 3.3561231532539332e-06  3.4000375795574448e-06  3.4445266203043205e-06  3.4895977942483355e-06 
 3.5352587185251573e-06  3.5815171099396679e-06  3.6283807862701148e-06  3.6758576675893402e-06 
 3.7239557776032842e-06  3.7726832450070177e-06  3.8220483048585084e-06  3.8720592999703648e-06 
 3.9227246823197949e-06  3.9740530144769979e-06  4.0260529710522789e-06  4.0787333401620635e-06 
 4.1321030249141160e-06  4.1861710449121836e-06  4.2409465377803326e-06  4.2964387607072302e-06 
 4.3526570920106257e-06  4.4096110327223195e-06  4.4673102081938411e-06  4.5257643697231795e-06 
 4.5849833962027564e-06  4.6449772957889984e-06  4.7057562075937218e-06  4.7673304033976849e-06 
 4.8297102893865283e-06  4.8929064079094553e-06  4.9569294392609129e-06  5.0217902034855744e-06 
 5.0874996622069715e-06  5.1540689204800231e-06  5.2215092286678210e-06  5.2898319843429583e-06 
 5.3590487342137621e-06  5.4291711760757011e-06  5.5002111607883498e-06  5.5721806942782099e-06 
 5.6450919395677290e-06  5.7189572188308998e-06  5.7937890154757250e-06  5.8695999762539451e-06 
 5.9464029133983675e-06  6.0242108067881678e-06  6.1030368061425181e-06  6.1828942332429259e-06 
 6.2637965841846409e-06  6.3457575316575217e-06  6.4287909272567696e-06  6.5129108038238686e-06 
 6.5981313778181747e-06  6.6844670517195190e-06  6.7719324164622828e-06  6.8605422539012834e-06 
 6.9503115393099469e-06  7.0412554439111712e-06  7.1333893374412829e-06  7.2267287907475780e-06 
 7.3212895784198232e-06  7.4170876814562020e-06  7.5141392899641305e-06  7.6124608058964399e-06 
 7.7120688458233412e-06  7.8129802437406541e-06  7.9152120539148138e-06  8.0187815537650500e-06 
 8.1237062467833503e-06  8.2300038654925623e-06  8.3376923744432518e-06  8.4467899732497334e-06 
 8.5573150996658704e-06  8.6692864327010909e-06  8.7827228957771760e-06  8.8976436599263815e-06 
 9.0140681470313652e-06  9.1320160331075503e-06  9.2515072516284133e-06  9.3725619968942860e-06 
 9.4952007274452343e-06  9.6194441695186181e-06  9.7453133205518586e-06  9.8728294527310592e-06 
 1.0002014116586066e-05  1.0132889144632532e-05  1.0265476655061699e-05  1.0399799055478395e-05 
 1.0535879046688003e-05  1.0673739626532908e-05  1.0813404093779229e-05  1.0954896052054345e-05 
 1.1098239413835975e-05  1.1243458404493428e-05  1.1390577566381753e-05  1.1539621762989477e-05 
 1.1690616183140559e-05  1.1843586345251396e-05  1.1998558101643456e-05  1.2155557642912425e-05 
 1.2314611502354445e-05  1.2475746560450331e-05  1.2638990049408424e-05  1.2804369557766880e-05 
 1.2971913035056236e-05  1.3141648796522923e-05  1.3313605527914627e-05  1.3487812290328213e-05 
 1.3664298525121161e-05  1.3843094058887204e-05  1.4024229108497105e-05  1.4207734286205366e-05 
 1.4393640604823778e-05  1.4581979482962658e-05  1.4772782750340680e-05  1.4966082653164170e-05 
 1.5161911859576761e-05  1.5360303465180443e-05  1.5561290998628743e-05  1.5764908427293188e-05 
 1.5971190163003864e-05  1.6180171067865058e-05  1.6391886460147091e-05  1.6606372120255169e-05 
 1.6823664296776338e-05  1.7043799712605612e-05  1.7266815571152222e-05  1.7492749562627032e-05 
 1.7721639870412368e-05  1.7953525177515018e-05  1.8188444673103795e-05  1.8426438059132581e-05 
 1.8667545557050066e-05  1.8911807914597262e-05  1.9159266412693952e-05  1.9409962872415314e-05 
 1.9663939662059688e-05  1.9921239704309029e-05  2.0181906483482876e-05  2.0445984052887321e-05 
 2.0713517042260121e-05  2.0984550665313235e-05  2.1259130727374053e-05  2.1537303633126584e-05 
 2.1819116394454000e-05  2.2104616638383666e-05  2.2393852615136344e-05  2.2686873206280516e-05 
 2.2983727932993505e-05  2.3284466964430661e-05  2.3589141126204090e-05  2.3897801908972289e-05 
 2.4210501477142188e-05  2.4527292677685074e-05  2.4848229049067798e-05  2.5173364830301004e-05 
 2.5502754970105574e-05  2.5836455136199116e-05  2.6174521724703943e-05  2.6517011869678130e-05 
 2.6863983452771351e-05  2.7215495113006972e-05  2.7571606256692222e-05  2.7932377067457925e-05 
 2.8297868516429779e-05  2.8668142372532584e-05  2.9043261212929294e-05  2.9423288433596759e-05 
 2.9808288260039780e-05  3.0198325758145351e-05  3.0593466845178987e-05  3.0993778300924902e-05 
 3.1399327778971827e-05  3.1810183818146843e-05  3.2226415854098443e-05  3.2648094231031367e-05 
 3.3075290213594961e-05  3.3508075998927039e-05  3.3946524728855402e-05  3.4390710502258950e-05 
 3.4840708387590630e-05  3.5296594435564040e-05  3.5758445692006378e-05  3.6226340210879212e-05 
 3.6700357067469882e-05  3.7180576371755356e-05  3.7667079281941028e-05  3.8159948018176641e-05 
 3.8659265876451691e-05  3.9165117242672692e-05  3.9677587606924428e-05  4.0196763577918233e-05 
 4.0722732897628905e-05  4.1255584456123307e-05  4.1795408306583086e-05  4.2342295680523789e-05 
 4.2896339003213255e-05  4.3457631909291705e-05  4.4026269258596229e-05  4.4602347152192197e-05 
 4.5185962948614790e-05  4.5777215280322661e-05  4.6376204070367102e-05  4.6983030549279307e-05 
 4.7597797272178478e-05  4.8220608136104011e-05  4.8851568397574264e-05  4.9490784690375207e-05 
 5.0138365043581639e-05  5.0794418899814584e-05  5.1459057133737231e-05  5.2132392070793029e-05 
 5.2814537506188917e-05  5.3505608724127064e-05  5.4205722517288105e-05  5.4914997206569432e-05 
 5.5633552661081735e-05  5.6361510318406928e-05  5.7098993205121806e-05  5.7846125957589460e-05 
 5.8603034843023325e-05  5.9369847780826552e-05  6.0146694364210725e-05  6.0933705882097404e-05 
 6.1731015341306251e-05  6.2538757489033646e-05  6.3357068835624914e-05  6.4186087677645348e-05 
 6.5025954121252419e-05  6.5876810105874043e-05  6.6738799428196733e-05  6.7612067766467584e-05 
 6.8496762705114238e-05  6.9393033759686972e-05  7.0301032402127290e-05  7.1220912086366760e-05 
 7.2152828274261497e-05  7.3096938461865286e-05  7.4053402206046914e-05  7.5022381151455627e-05 
 7.6004039057839468e-05  7.6998541827721047e-05  7.8006057534435480e-05  7.9026756450535280e-05 
 8.0060811076566453e-05  8.1108396170222072e-05  8.2169688775876265e-05  8.3244868254505393e-05 
 8.4334116314000392e-05  8.5437617039875794e-05  8.6555556926380732e-05  8.7688124908016823e-05 
 8.8835512391468663e-05  8.9997913287951720e-05  9.1175524045984159e-05  9.2368543684586942e-05 
 9.3577173826918478e-05  9.4801618734349511e-05  9.6042085340983656e-05  9.7298783288629896e-05 
 9.8571924962232433e-05  9.9861725525764384e-05  1.0116840295859067e-04  1.0249217809230752e-04 
 1.0383327464806332e-04  1.0519191927436785e-04  1.0656834158539669e-04  1.0796277419979643e-04 
 1.0937545277999777e-04  1.1080661607204311e-04  1.1225650594593518e-04  1.1372536743651336e-04 
 1.1521344878486568e-04  1.1672100148028178e-04  1.1824828030275536e-04  1.1979554336604243e-04 
 1.2136305216128336e-04  1.2295107160119535e-04  1.2455987006484336e-04  1.2618971944299701e-04 
 1.2784089518408012e-04  1.2951367634072308e-04  1.3120834561692268e-04  1.3292518941582010e-04 
 1.3466449788810360e-04  1.3642656498104473e-04  1.3821168848817607e-04  1.4002017009961910e-04 
 1.4185231545307063e-04  1.4370843418545589e-04  1.4558883998525842e-04  1.4749385064553397e-04 
 1.4942378811761827e-04  1.5137897856553752e-04  1.5335975242113095e-04  1.5536644443989460e-04 
 1.5739939375755576e-04  1.5945894394738788e-04  1.6154544307827470e-04  1.6365924377353548e-04 
 1.6580070327051888e-04  1.6797018348097665e-04  1.7016805105222804e-04  1.7239467742912368e-04 
 1.7465043891682082e-04  1.7693571674437983e-04  1.7925089712919295e-04  1.8159637134225525e-04 
 1.8397253577429127e-04  1.8637979200274558e-04  1.8881854685965030e-04  1.9128921250038077e-04 
 1.9379220647331057e-04  1.9632795179037852e-04  1.9889687699857863e-04  2.0149941625238548e-04 
 2.0413600938712692e-04  2.0680710199331816e-04  2.0951314549196723e-04  2.1225459721086601e-04 
 2.1503192046187989e-04  2.1784558461924861e-04  2.2069606519891155e-04  2.2358384393887109e-04 
 2.2650940888060769e-04  2.2947325445155916e-04  2.3247588154868155e-04  2.3551779762310071e-04 
 2.3859951676587332e-04  2.4172155979486931e-04  2.4488445434279132e-04  2.4808873494634601e-04 
 2.5133494313658177e-04  2.5462362753040930e-04  2.5795534392331813e-04  2.6133065538330865e-04 
 2.6475013234605123e-04  2.6821435271129124e-04  2.7172390194051552e-04  2.7527937315589688e-04 
 2.7888136724053321e-04  2.8253049293999776e-04  2.8622736696521940e-04  2.8997261409670664e-04 
 2.9376686729013911e-04  2.9761076778333725e-04  3.0150496520463320e-04  3.0545011768265959e-04 
 3.0944689195757530e-04  3.1349596349374535e-04  3.1759801659389655e-04  3.2175374451476644e-04 
 3.2596384958426402e-04  3.3022904332016687e-04  3.3455004655036786e-04  3.3892758953469742e-04 
 3.4336241208833871e-04  3.4785526370685870e-04  3.5240690369287437e-04  3.5701810128437663e-04 
 3.6168963578473389e-04  3.6642229669439473e-04  3.7121688384431751e-04  3.7607420753114207e-04 
 3.8099508865413234e-04  3.8598035885391036e-04  3.9103086065300535e-04  3.9614744759824185e-04 
 4.0133098440499175e-04  4.0658234710331306e-04  4.1190242318599971e-04  4.1729211175857244e-04 
 4.2275232369122804e-04  4.2828398177277880e-04  4.3388802086660651e-04  4.3956538806865609e-04 
 4.4531704286749745e-04  4.5114395730648103e-04  4.5704711614801615e-04  4.6302751703999624e-04 
 4.6908617068440624e-04  4.7522410100813252e-04  4.8144234533600838e-04  4.8774195456612545e-04 
 4.9412399334743725e-04  5.0058954025968764e-04  5.0713968799569349e-04  5.1377554354601240e-04 
 5.2049822838602579e-04  5.2730887866547262e-04  5.3420864540045996e-04  5.4119869466798828e-04 
 5.4828020780302062e-04  5.5545438159813171e-04  5.6272242850576807e-04  5.7008557684315572e-04 
 5.7754507099988907e-04  5.8510217164823414e-04  5.9275815595618761e-04  6.0051431780331927e-04 
 6.0837196799944191e-04  6.1633243450614052e-04  6.2439706266120170e-04  6.3256721540597789e-04 
 6.4084427351572884e-04  6.4922963583297587e-04  6.5772471950390756e-04  6.6633096021788385e-04 
 6.7504981245006907e-04  6.8388274970724216e-04  6.9283126477682284e-04  7.0189686997915635e-04 
 7.1108109742309879e-04  7.2038549926494756e-04  7.2981164797075986e-04  7.3936113658210078e-04 
 7.4903557898527531e-04  7.5883661018407550e-04  7.6876588657610119e-04  7.7882508623269549e-04 
 7.8901590918254219e-04  7.9934007769897491e-04  8.0979933659104544e-04  8.2039545349840129e-04 
 8.3113021919001837e-04  8.4200544786684880e-04  8.5302297746842309e-04  8.6418466998346686e-04 
 8.7549241176458094e-04  8.8694811384703979e-04  8.9855371227176095e-04  9.1031116841250098e-04 
 9.2222246930733138e-04  9.3428962799445346e-04  9.4651468385240610e-04  9.5889970294472666e-04 
 9.7144677836912040e-04  9.8415803061119430e-04  9.9703560790283252e-04  1.0100816865852476e-03 
 1.0232984714767879e-03  1.0366881962455567e-03  1.0502531237869097e-03  1.0639955466058867e-03 
 1.0779177872046522e-03  1.0920221984750040e-03  1.1063111640960163e-03  1.1207870989368887e-03 
 1.1354524494650632e-03  1.1503096941596837e-03  1.1653613439304659e-03  1.1806099425420448e-03 
 1.1960580670438792e-03  1.2117083282057780e-03  1.2275633709591287e-03  1.2436258748438889e-03 
 1.2598985544614479e-03  1.2763841599333912e-03  1.2930854773662809e-03  1.3100053293225139e-03 
 1.3271465752973419e-03  1.3445121122021325e-03  1.3621048748539543e-03  1.3799278364715673e-03 
 1.3979840091779062e-03  1.4162764445091332e-03  1.4348082339303572e-03  1.4535825093580977e-03 
 1.4726024436895870e-03  1.4918712513389959e-03  1.5113921887806791e-03  1.5311685550995254e-03 
 1.5512036925485163e-03  1.5715009871135595e-03  1.5920638690857494e-03  1.6128958136410810e-03 
 1.6340003414277657e-03  1.6553810191612308e-03  1.6770414602269009e-03  1.6989853252908703e-03 
 1.7212163229185634e-03  1.7437382102014915e-03  1.7665547933922087e-03  1.7896699285475806e-03 
 1.8130875221804646e-03  1.8368115319199209e-03  1.8608459671800605e-03  1.8851948898376473e-03 
 1.9098624149185629e-03  1.9348527112932571e-03  1.9601700023812994e-03  1.9858185668651354e-03 
 2.0118027394132121e-03  2.0381269114125343e-03  2.0647955317108246e-03  2.0918131073683873e-03 
 2.1191842044198128e-03  2.1469134486456483e-03  2.1750055263541667e-03  2.2034651851733627e-03 
 2.2322972348533133e-03  2.2615065480790374e-03  2.2910980612939912e-03  2.3210767755343390e-03 
 2.3514477572741392e-03  2.3822161392815914e-03  2.4133871214864874e-03  2.4449659718590098e-03 
 2.4769580273000360e-03  2.5093686945430712e-03  2.5422034510680248e-03  2.5754678460268984e-03 
 2.6091675011816135e-03  2.6433081118540994e-03  2.6778954478888176e-03  2.7129353546278788e-03 
 2.7484337538989214e-03  2.7843966450159111e-03  2.8208301057930413e-03  2.8577402935719000e-03 
 2.8951334462620701e-03  2.9330158833953562e-03  2.9713940071937968e-03  3.0102743036516592e-03 
 3.0496633436315835e-03  3.0895677839750746e-03  3.1299943686275327e-03  3.1709499297779731e-03 
 3.2124413890137139e-03  3.2544757584901194e-03  3.2970601421156765e-03  3.3402017367525731e-03 
 3.3839078334329839e-03  3.4281858185912740e-03  3.4730431753123188e-03  3.5184874845961712e-03 
 3.5645264266392601e-03  3.6111677821323686e-03  3.6584194335755869e-03  3.7062893666104713e-03 
 3.7547856713696401e-03  3.8039165438440233e-03  3.8536902872680053e-03  3.9041153135226919e-03 
 3.9552001445575429e-03  4.0069534138305754e-03  4.0593838677674835e-03  4.1125003672397688e-03 
 4.1663118890622680e-03  4.2208275275102429e-03  4.2760564958563450e-03  4.3320081279276754e-03 
 4.3886918796832240e-03  4.4461173308119493e-03  4.5042941863517724e-03  4.5632322783297442e-03 
 4.6229415674236881e-03  4.6834321446455746e-03  4.7447142330469287e-03  4.8067981894465454e-03 
 4.8696945061808238e-03  4.9334138128769908e-03  4.9979668782495455e-03  5.0633646119201594e-03 
 5.1296180662614857e-03  5.1967384382649974e-03  5.2647370714333161e-03  5.3336254576972905e-03 
 5.4034152393581609e-03  5.4741182110551326e-03  5.5457463217587055e-03  5.6183116767900667e-03 
 5.6918265398669303e-03  5.7663033351761303e-03  5.8417546494733347e-03  5.9181932342102410e-03 
 5.9956320076896023e-03  6.0740840572484451e-03  6.1535626414698725e-03  6.2340811924237816e-03 
 6.3156533179369381e-03  6.3982928038926823e-03  6.4820136165608380e-03  6.5668299049580128e-03 
 6.6527560032388165e-03  6.7398064331183703e-03  6.8279959063265111e-03  6.9173393270941129e-03 
 7.0078517946719314e-03  7.0995486058824126e-03  7.1924452577049004e-03  7.2865574498946562e-03 
 7.3819010876361568e-03  7.4784922842311072e-03  7.5763473638216262e-03  7.6754828641490708e-03 
 7.7759155393489496e-03  7.8776623627824088e-03  7.9807405299047902e-03  8.0851674611716468e-03 
 8.1909608049829212e-03  8.2981384406655163e-03  8.4067184814949590e-03  8.5167192777565754e-03 
 8.6281594198467492e-03  8.7410577414147317e-03  8.8554333225455747e-03  8.9713054929847179e-03 
 9.0886938354047490e-03  9.2076181887149351e-03  9.3280986514140338e-03  9.4501555849869998e-03 
 9.5738096173461143e-03  9.6990816463171526e-03  9.8259928431711722e-03  9.9545646562024977e-03 
 1.0084818814353571e-02  1.0216777330887094e-02  1.0350462507106455e-02  1.0485896936124619e-02 
 1.0623103506682437e-02  1.0762105407016900e-02  1.0902926128780001e-02  1.1045589471008884e-02 
 1.1190119544147937e-02  1.1336540774123523e-02  1.1484877906471992e-02  1.1635156010521780e-02 
 1.1787400483630145e-02  1.1941637055475393e-02  1.2097891792405271e-02  1.2256191101842215e-02 
 1.2416561736746292e-02  1.2579030800136498e-02  1.2743625749671262e-02  1.2910374402288757e-02 
 1.3079304938908179e-02  1.3250445909192287e-02  1.3423826236372392e-02  1.3599475222136453e-02 
 1.3777422551581117e-02  1.3957698298228599e-02  1.4140332929109149e-02  1.4325357309910086e-02 
 1.4512802710192127e-02  1.4702700808674070e-02  1.4895083698586527e-02  1.5089983893095788e-02 
 1.5287434330798601e-02  1.5487468381288890e-02  1.5690119850797293e-02  1.5895422987904483e-02 
 1.6103412489329300e-02  1.6314123505792470e-02  1.6527591647957307e-02  1.6743852992447916e-02 
 1.6962944087946238e-02  1.7184901961368872e-02  1.7409764124124705e-02  1.7637568578454440e-02 
 1.7868353823853052e-02  1.8102158863576304e-02  1.8339023211232396e-02  1.8578986897459827e-02 
 1.8822090476692720e-02  1.9068375034014567e-02  1.9317882192101746e-02  1.9570654118257817e-02 
 1.9826733531539919e-02  2.0086163709978396e-02  2.0348988497890911e-02  2.0615252313292094e-02 
 2.0885000155400516e-02  2.1158277612243526e-02  2.1435130868361751e-02  2.1715606712614410e-02 
 2.1999752546086746e-02  2.2287616390100920e-02  2.2579246894331696e-02  2.2874693345028403e-02 
 2.3174005673344409e-02  2.3477234463775580e-02  2.3784430962709224e-02  2.4095647087084813e-02 
 2.4410935433168083e-02  2.4730349285439955e-02  2.5053942625601677e-02  2.5381770141697946e-02 
 2.5713887237359272e-02  2.6050350041165207e-02  2.6391215416130445e-02  2.6736540969314663e-02 
 2.7086385061558242e-02  2.7440806817345446e-02  2.7799866134796559e-02  2.8163623695790820e-02 
 2.8532140976221820e-02  2.8905480256387055e-02  2.9283704631513457e-02  2.9666878022420635e-02 
 3.0055065186323639e-02  3.0448331727777101e-02  3.0846744109762531e-02  3.1250369664920750e-02 
 3.1659276606931235e-02  3.2073534042040434e-02  3.2493211980740920e-02  3.2918381349603065e-02 
 3.3349114003262237e-02  3.3785482736562067e-02  3.4227561296857105e-02  3.4675424396476216e-02 
 3.5129147725349197e-02  3.5588807963798527e-02  3.6054482795498548e-02  3.6526250920604166e-02 
 3.7004192069051367e-02  3.7488387014031808e-02  3.7978917585643597e-02  3.8475866684720868e-02 
 3.8979318296844132e-02  3.9489357506534123e-02  4.0006070511631200e-02  4.0529544637863062e-02 
 4.1059868353603028e-02  4.1597131284821148e-02  4.2141424230231601e-02  4.2692839176637624e-02 
 4.3251469314477584e-02  4.3817409053574376e-02  4.4390754039090895e-02  4.4971601167694310e-02 
 4.5560048603931827e-02  4.6156195796820725e-02  4.6760143496655499e-02  4.7371993772034868e-02 
 4.7991850027111649e-02  4.8619817019068250e-02  4.9256000875820945e-02  4.9900509113955702e-02 
 5.0553450656898757e-02  5.1214935853324942e-02  5.1885076495806912e-02  5.2563985839708081e-02 
 5.3251778622323553e-02  5.3948571082270573e-02  5.4654480979133314e-02  5.5369627613364482e-02 
 5.6094131846447369e-02  5.6828116121321777e-02  5.7571704483077107e-02  5.8325022599916287e-02 
 5.9088197784394059e-02  5.9861359014933023e-02  6.0644636957621324e-02  6.1438163988295567e-02 
 6.2242074214912624e-02  6.3056503500214134e-02  6.3881589484687779e-02  6.4717471609828700e-02 
 6.5564291141705630e-02  6.6422191194834751e-02  6.7291316756367042e-02  6.8171814710591000e-02 
 6.9063833863756571e-02  6.9967524969223704e-02  7.0883040752940135e-02  7.1810535939252282e-02 
 7.2750167277054203e-02  7.3702093566278382e-02  7.4666475684733377e-02  7.5643476615292513e-02 
 7.6633261473438449e-02  7.7635997535167936e-02  7.8651854265262083e-02  7.9681003345926066e-02 
 8.0723618705804023e-02  8.1779876549373257e-02  8.2849955386723517e-02  8.3934036063724890e-02 
 8.5032301792592163e-02  8.6144938182847491e-02  8.7272133272688998e-02  8.8414077560769688e-02 
 8.9570964038392251e-02  9.0742988222124829e-02  9.1930348186844063e-02  9.3133244599209977e-02 
 9.4351880751579298e-02  9.5586462596362234e-02  9.6837198780828970e-02  9.8104300682371581e-02 
 9.9387982444227252e-02  1.0068846101166898e-01  1.0200595616866999e-01  1.0334069057504752e-01 
 1.0469288980409326e-01  1.0606278238069494e-01  1.0745059981995864e-01  1.0885657666633471e-01 
 1.1028095053325658e-01  1.1172396214329790e-01  1.1318585536885531e-01  1.1466687727336329e-01 
 1.1616727815304877e-01  1.1768731157923144e-01  1.1922723444117822e-01  1.2078730698951788e-01 
 1.2236779288022426e-01  1.2396895921917460e-01  1.2559107660729107e-01  1.2723441918627310e-01 
 1.2889926468492782e-01  1.3058589446610702e-01  1.3229459357425827e-01  1.3402565078359729e-01 
 1.3577935864691276e-01  1.3755601354500754e-01  1.3935591573678807e-01  1.4117936941000866e-01 
 1.4302668273268013e-01  1.4489816790515073e-01  1.4679414121286899e-01  1.4871492307983644e-01 
 1.5066083812276029e-01  1.5263221520591430e-01  1.5462938749671751e-01  1.5665269252204059e-01 
 1.5870247222524841e-01  1.6077907302398958e-01  1.6288284586874158e-01  1.6501414630212227e-01 
 1.6717333451897795e-01  1.6936077542725575e-01  1.7157683870967583e-01  1.7382189888620728e-01 
 1.7609633537736344e-01  1.7840053256832469e-01  1.8073487987390052e-01  1.8309977180434150e-01 
 1.8549560803201268e-01  1.8792279345893864e-01  1.9038173828523366e-01  1.9287285807842586e-01 
 1.9539657384368928e-01  1.9795331209499514e-01  2.0054350492719300e-01  2.0316759008903654e-01 
 2.0582601105716367e-01  2.0851921711104562e-01  2.1124766340891485e-01  2.1401181106469011e-01 
 2.1681212722590409e-01  2.1964908515265308e-01  2.2252316429757896e-01  2.2543485038689776e-01 
 2.2838463550248875e-01  2.3137301816505712e-01  2.3440050341838561e-01  2.3746760291468763e-01 
 2.4057483500107812e-01  2.4372272480717516e-01  2.4691180433384835e-01  2.5014261254312786e-01 
 2.5341569544929077e-01  2.5673160621113855e-01  2.6009090522548206e-01  2.6349416022185057e-01 
 2.6694194635843776e-01  2.7043484631930714e-01  2.7397345041286569e-01  2.7755835667162726e-01 
 2.8119017095328203e-01  2.8486950704308778e-01  2.8859698675760082e-01  2.9237324004976456e-01 
 2.9619890511537333e-01  3.0007462850092870e-01  3.0400106521290732e-01  3.0797887882845887e-01 
 3.1200874160755193e-01  3.1609133460658773e-01  3.2022734779349993e-01  3.2441748016436134e-01 
 3.2866243986151544e-01  3.3296294429325524e-01  3.3731972025506396e-01  3.4173350405244934e-01 
 3.4620504162537846e-01  3.5073508867434372e-01  3.5532441078807836e-01  3.5997378357294263e-01 
 3.6468399278400321e-01  3.6945583445782748e-01  3.7429011504701570e-01  3.7918765155649359e-01 
 3.8414927168158780e-01  3.8917581394790862e-01  3.9426812785306276e-01  3.9942707401022032e-01 
 4.0465352429356066e-01  4.0994836198562118e-01  4.1531248192657400e-01  4.2074679066545712e-01 
 4.2625220661337992e-01  4.3182966019874197e-01  4.3748009402447391e-01  4.4320446302734096e-01 
 4.4900373463932913e-01  4.5487888895114365e-01  4.6083091887784666e-01  4.6686083032666220e-01 
 4.7296964236697692e-01  4.7915838740256506e-01  4.8542811134606767e-01  4.9177987379575361e-01 
 4.9821474821459466e-01  5.0473382211168327e-01  5.1133819722602458e-01  5.1802898971273015e-01 
 5.2480733033165805e-01  5.3167436463850415e-01  5.3863125317840876e-01  5.4567917168209701e-01 
 5.5281931126456674e-01  5.6005287862640563e-01  5.6738109625771027e-01  5.7480520264470647e-01 
 5.8232645247903969e-01  5.8994611686983711e-01  5.9766548355851223e-01  6.0548585713641268e-01 
 6.1340855926528171e-01  6.2143492890064067e-01  6.2956632251805678e-01  6.3780411434240947e-01 
 6.4614969658011923e-01  6.5460447965445212e-01  6.6316989244386626e-01  6.7184738252351428e-01 
 6.8063841640987066e-01  6.8954447980858302e-01  6.9856707786556815e-01  7.0770773542136722e-01 
 7.1696799726886795e-01  7.2634942841435757e-01  7.3585361434203400e-01  7.4548216128193434e-01 
 7.5523669648141356e-01  7.6511886848013178e-01  7.7513034738868281e-01  7.8527282517082519e-01 
 7.9554801592944935e-01  8.0595765619624404e-01  8.1650350522519599e-01  8.2718734528988525e-01 
 8.3801098198471746e-01  8.4897624453005238e-01  8.6008498608135542e-01  8.7133908404239480e-01 
 8.8274044038250543e-01  8.9429098195805146e-01  9.0599266083804431e-01  9.1784745463407225e-01 
 9.2985736683449571e-01  9.4202442714306822e-01  9.5435069182193377e-01  9.6683824403916729e-01 
 9.7948919422080882e-01  9.9230568040755618e-01  1.0052898686160723e+00  1.0184439532050753e+00 
 1.0317701572461615e+00  1.0452707328995385e+00  1.0589479617946178e+00  1.0728041554156424e+00 
 1.0868416554923099e+00  1.1010628343955400e+00  1.1154700955384231e+00  1.1300658737823748e+00 
 1.1448526358486661e+00  1.1598328807352714e+00  1.1750091401392400e+00  1.1903839788845230e+00 
 1.2059599953554709e+00  1.2217398219359310e+00  1.2377261254541616e+00  1.2539216076334976e+00 
 1.2703290055489826e+00  1.2869510920899068e+00  1.3037906764284670e+00  1.3208506044944870e+00 
 1.3381337594564231e+00  1.3556430622085958e+00  1.3733814718648381e+00  1.3913519862586112e+00 
 1.4095576424496097e+00  1.4280015172370704e+00  1.4466867276797211e+00  1.4656164316226090e+00 
 1.4847938282307449e+00  1.5042221585298099e+00  1.5239047059538555e+00 
  </PP_RAB>
</PP_MESH>


<PP_LOCAL>
9.3827131317706483e+02 9.3827131301822476e+02 9.3827131285548296e+02 9.3827131268841867e+02 
9.3827131251676485e+02 9.3827131234089779e+02 9.3827131215996360e+02 9.3827131197458868e+02 
9.3827131178427658e+02 9.3827131158907230e+02 9.3827131138850598e+02 9.3827131118275452e+02 
9.3827131097158417e+02 9.3827131075482453e+02 9.3827131053248877e+02 9.3827131030420321e+02 
9.3827131006983575e+02 9.3827130982929964e+02 9.3827130958243424e+02 9.3827130932907755e+02 
9.3827130906908405e+02 9.3827130880241054e+02 9.3827130852836206e+02 9.3827130824730489e+02 
9.3827130795880714e+02 9.3827130766270136e+02 9.3827130735875710e+02 9.3827130704697800e+02 
9.3827130672680880e+02 9.3827130639823633e+02 9.3827130606105277e+02 9.3827130571486111e+02 
9.3827130535966160e+02 9.3827130499500993e+02 9.3827130462086677e+02 9.3827130423685571e+02 
9.3827130384288625e+02 9.3827130343824012e+02 9.3827130302311275e+02 9.3827130259686930e+02 
9.3827130215965303e+02 9.3827130171070780e+02 9.3827130125005044e+02 9.3827130077711024e+02 
9.3827130029194575e+02 9.3827129979386734e+02 9.3827129928266800e+02 9.3827129875797959e+02 
9.3827129821950973e+02 9.3827129766696294e+02 9.3827129709968108e+02 9.3827129651750408e+02 
9.3827129591998323e+02 9.3827129530689854e+02 9.3827129467757754e+02 9.3827129403154959e+02 
9.3827129336861321e+02 9.3827129268814224e+02 9.3827129198976286e+02 9.3827129127297928e+02 
9.3827129053734518e+02 9.3827128978240717e+02 9.3827128900755929e+02 9.3827128821216286e+02 
9.3827128739596890e+02 9.3827128655820468e+02 9.3827128569838123e+02 9.3827128481596196e+02 
9.3827128391017663e+02 9.3827128298059063e+02 9.3827128202653046e+02 9.3827128104740450e+02 
9.3827128004235169e+02 9.3827127901091501e+02 9.3827127795223805e+02 9.3827127686569725e+02 
9.3827127575054772e+02 9.3827127460605902e+02 9.3827127343143457e+02 9.3827127222581839e+02 
9.3827127098853759e+02 9.3827126971850760e+02 9.3827126841511381e+02 9.3827126707741479e+02 
9.3827126570445148e+02 9.3827126429526550e+02 9.3827126284899794e+02 9.3827126136468314e+02 
9.3827125984124018e+02 9.3827125827764223e+02 9.3827125667288828e+02 9.3827125502579281e+02 
9.3827125333537549e+02 9.3827125160042601e+02 9.3827124981976465e+02 9.3827124799219098e+02 
9.3827124611648503e+02 9.3827124419137874e+02 9.3827124221559177e+02 9.3827124018766392e+02 
9.3827123810636340e+02 9.3827123597026491e+02 9.3827123377791213e+02 9.3827123152778745e+02 
9.3827122921843295e+02 9.3827122684812923e+02 9.3827122441550409e+02 9.3827122191873707e+02 
9.3827121935623200e+02 9.3827121672618273e+02 9.3827121402685157e+02 9.3827121125644908e+02 
9.3827120841305873e+02 9.3827120549479105e+02 9.3827120249965844e+02 9.3827119942561228e+02 
9.3827119627059483e+02 9.3827119303246991e+02 9.3827118970901654e+02 9.3827118629803817e+02 
9.3827118279723743e+02 9.3827117920415924e+02 9.3827117551650281e+02 9.3827117173168313e+02 
9.3827116784715042e+02 9.3827116386024170e+02 9.3827115976843277e+02 9.3827115556877538e+02 
9.3827115125843943e+02 9.3827114683464004e+02 9.3827114229427866e+02 9.3827113763431862e+02 
9.3827113285160760e+02 9.3827112794292339e+02 9.3827112290491471e+02 9.3827111773416937e+02 
9.3827111242728677e+02 9.3827110698059039e+02 9.3827110139039985e+02 9.3827109565294211e+02 
9.3827108976438205e+02 9.3827108372067198e+02 9.3827107751780829e+02 9.3827107115150125e+02 
9.3827106461753863e+02 9.3827105791141514e+02 9.3827105102864311e+02 9.3827104396460334e+02 
9.3827103671445252e+02 9.3827102927331498e+02 9.3827102163616246e+02 9.3827101379784995e+02 
9.3827100575307941e+02 9.3827099749636352e+02 9.3827098902215403e+02 9.3827098032470337e+02 
9.3827097139815544e+02 9.3827096223644480e+02 9.3827095283342499e+02 9.3827094318270656e+02 
9.3827093327775378e+02 9.3827092311189290e+02 9.3827091267826506e+02 9.3827090196976565e+02 
9.3827089097915461e+02 9.3827087969907734e+02 9.3827086812182688e+02 9.3827085623960500e+02 
9.3827084404440006e+02 9.3827083152794012e+02 9.3827081868176469e+02 9.3827080549720222e+02 
9.3827079196531452e+02 9.3827077807695457e+02 9.3827076382276437e+02 9.3827074919306290e+02 
9.3827073417800113e+02 9.3827071876740365e+02 9.3827070295085150e+02 9.3827068671766176e+02 
9.3827067005684535e+02 9.3827065295712669e+02 9.3827063540696861e+02 9.3827061739450392e+02 
9.3827059890754276e+02 9.3827057993358176e+02 9.3827056045978554e+02 9.3827054047302920e+02 
9.3827051995974239e+02 9.3827049890609999e+02 9.3827047729783612e+02 9.3827045512036523e+02 
9.3827043235866688e+02 9.3827040899738802e+02 9.3827038502066944e+02 9.3827036041237125e+02 
9.3827033515581650e+02 9.3827030923392067e+02 9.3827028262917406e+02 9.3827025532359028e+02 
9.3827022729868349e+02 9.3827019853553236e+02 9.3827016901465970e+02 9.3827013871613690e+02 
9.3827010761945530e+02 9.3827007570359353e+02 9.3827004294696872e+02 9.3827000932746125e+02 
9.3826997482227910e+02 9.3826993940812827e+02 9.3826990306105790e+02 9.3826986575649107e+02 
9.3826982746921226e+02 9.3826978817331417e+02 9.3826974784223125e+02 9.3826970644869277e+02 
9.3826966396471482e+02 9.3826962036157772e+02 9.3826957560977587e+02 9.3826952967905947e+02 
9.3826948253837702e+02 9.3826943415583457e+02 9.3826938449873535e+02 9.3826933353348556e+02 
9.3826928122563606e+02 9.3826922753979795e+02 9.3826917243969126e+02 9.3826911588804217e+02 
9.3826905784660846e+02 9.3826899827614625e+02 9.3826893713638492e+02 9.3826887438595759e+02 
9.3826880998244224e+02 9.3826874388228816e+02 9.3826867604079916e+02 9.3826860641209873e+02 
9.3826853494909108e+02 9.3826846160346906e+02 9.3826838632561999e+02 9.3826830906464704e+02 
9.3826822976828555e+02 9.3826814838293012e+02 9.3826806485353654e+02 9.3826797912362838e+02 
9.3826789113522659e+02 9.3826780082881703e+02 9.3826770814333156e+02 9.3826761301610497e+02 
9.3826751538280689e+02 9.3826741517739765e+02 9.3826731233211331e+02 9.3826720677740980e+02 
9.3826709844189020e+02 9.3826698725230892e+02 9.3826687313346349e+02 9.3826675600818555e+02 
9.3826663579723845e+02 9.3826651241935838e+02 9.3826638579107794e+02 9.3826625582677480e+02 
9.3826612243855266e+02 9.3826598553620033e+02 9.3826584502712637e+02 9.3826570081630496e+02 
9.3826555280621210e+02 9.3826540089674359e+02 9.3826524498516108e+02 9.3826508496600570e+02 
9.3826492073106260e+02 9.3826475216926190e+02 9.3826457916658489e+02 9.3826440160604727e+02 
9.3826421936753309e+02 9.3826403232779865e+02 9.3826384036034028e+02 9.3826364333531785e+02 
9.3826344111947628e+02 9.3826323357603724e+02 9.3826302056463908e+02 9.3826280194120397e+02 
9.3826257755786241e+02 9.3826234726284065e+02 9.3826211090037475e+02 9.3826186831060124e+02 
9.3826161932942045e+02 9.3826136378843989e+02 9.3826110151481009e+02 9.3826083233112377e+02 
9.3826055605530485e+02 9.3826027250048367e+02 9.3825998147485279e+02 9.3825968278156301e+02 
9.3825937621857315e+02 9.3825906157851159e+02 9.3825873864854987e+02 9.3825840721024190e+02 
9.3825806703938986e+02 9.3825771790589317e+02 9.3825735957357415e+02 9.3825699180004290e+02 
9.3825661433650362e+02 9.3825622692763159e+02 9.3825582931134568e+02 9.3825542121866260e+02 
9.3825500237353401e+02 9.3825457249259716e+02 9.3825413128505068e+02 9.3825367845241988e+02 
9.3825321368836057e+02 9.3825273667845363e+02 9.3825224709999611e+02 9.3825174462178200e+02 
9.3825122890386604e+02 9.3825069959735401e+02 9.3825015634414945e+02 9.3824959877671267e+02 
9.3824902651782952e+02 9.3824843918033002e+02 9.3824783636685004e+02 9.3824721766953871e+02 
9.3824658266980293e+02 9.3824593093802014e+02 9.3824526203323092e+02 9.3824457550285967e+02 
9.3824387088240496e+02 9.3824314769511477e+02 9.3824240545166788e+02 9.3824164364984927e+02 
9.3824086177420543e+02 9.3824005929568978e+02 9.3823923567132135e+02 9.3823839034378693e+02 
9.3823752274109791e+02 9.3823663227618260e+02 9.3823571834648658e+02 9.3823478033358060e+02 
9.3823381760272639e+02 9.3823282950245186e+02 9.3823181536411244e+02 9.3823077450143421e+02 
9.3822970621005231e+02 9.3822860976703316e+02 9.3822748443038165e+02 9.3822632943854376e+02 
9.3822514400988246e+02 9.3822392734215680e+02 9.3822267861197713e+02 9.3822139697424063e+02 
9.3822008156157028e+02 9.3821873148370446e+02 9.3821734582692818e+02 9.3821592365343088e+02 
9.3821446400066145e+02 9.3821296588070959e+02 9.3821142827960091e+02 9.3820985015663496e+02 
9.3820823044367216e+02 9.3820656804439852e+02 9.3820486183360504e+02 9.3820311065640317e+02 
9.3820131332746064e+02 9.3819946863018367e+02 9.3819757531589971e+02 9.3819563210301385e+02 
9.3819363767613049e+02 9.3819159068517206e+02 9.3818948974445834e+02 9.3818733343177075e+02 
9.3818512028738405e+02 9.3818284881307568e+02 9.3818051747112293e+02 9.3817812468324678e+02 
9.3817566882954407e+02 9.3817314824739879e+02 9.3817056123034092e+02 9.3816790602690844e+02 
9.3816518083943527e+02 9.3816238382285871e+02 9.3815951308344972e+02 9.3815656667753888e+02 
9.3815354261019263e+02 9.3815043883386397e+02 9.3814725324701078e+02 9.3814398369265461e+02 
9.3814062795693656e+02 9.3813718376760482e+02 9.3813364879247570e+02 9.3813002063785507e+02 
9.3812629684691876e+02 9.3812247489803701e+02 9.3811855220306950e+02 9.3811452610561525e+02 
9.3811039387920789e+02 9.3810615272545908e+02 9.3810179977217706e+02 9.3809733207140573e+02 
9.3809274659742937e+02 9.3808804024472590e+02 9.3808320982585315e+02 9.3807825206929658e+02 
9.3807316361723633e+02 9.3806794102328956e+02 9.3806258075015603e+02 9.3805707916723372e+02 
9.3805143254814186e+02 9.3804563706820511e+02 9.3803968880186130e+02 9.3803358371998627e+02 
9.3802731768717797e+02 9.3802088645893889e+02 9.3801428567880521e+02 9.3800751087538822e+02 
9.3800055745934776e+02 9.3799342072027355e+02 9.3798609582349388e+02 9.3797857780679942e+02 
9.3797086157707236e+02 9.3796294190683943e+02 9.3795481343072026e+02 9.3794647064179640e+02 
9.3793790788787123e+02 9.3792911936763699e+02 9.3792009912674882e+02 9.3791084105377718e+02 
9.3790133887607146e+02 9.3789158615550264e+02 9.3788157628410113e+02 9.3787130247957111e+02 
9.3786075778070108e+02 9.3784993504263480e+02 9.3783882693203657e+02 9.3782742592211218e+02 
9.3781572428750871e+02 9.3780371409907946e+02 9.3779138721850984e+02 9.3777873529279589e+02 
9.3776574974858920e+02 9.3775242178638143e+02 9.3773874237454197e+02 9.3772470224319716e+02 
9.3771029187795227e+02 9.3769550151343742e+02 9.3768032112669584e+02 9.3766474043039182e+02 
9.3764874886584209e+02 9.3763233559585944e+02 9.3761548949741734e+02 9.3759819915411231e+02 
9.3758045284843035e+02 9.3756223855381768e+02 9.3754354392653283e+02 9.3752435629728689e+02 
9.3750466266267176e+02 9.3748444967635146e+02 9.3746370364003644e+02 9.3744241049420157e+02 
9.3742055580858391e+02 9.3739812477240764e+02 9.3737510218437217e+02 9.3735147244236646e+02 
9.3732721953291457e+02 9.3730232702034891e+02 9.3727677803569600e+02 9.3725055526527319e+02 
9.3722364093898375e+02 9.3719601681831034e+02 9.3716766418398845e+02 9.3713856382336121e+02 
9.3710869601740467e+02 9.3707804052740619e+02 9.3704657658130486e+02 9.3701428285966608e+02 
9.3698113748129697e+02 9.3694711798847925e+02 9.3691220133182321e+02 9.3687636385472263e+02 
9.3683958127740243e+02 9.3680182868055772e+02 9.3676308048855901e+02 9.3672331045222438e+02 
9.3668249163114046e+02 9.3664059637552691e+02 9.3659759630762528e+02 9.3655346230260875e+02 
9.3650816446898966e+02 9.3646167212852652e+02 9.3641395379560163e+02 9.3636497715607118e+02 
9.3631470904556045e+02 9.3626311542720498e+02 9.3621016136880678e+02 9.3615581101940620e+02 
9.3610002758524786e+02 9.3604277330512207e+02 9.3598400942507567e+02 9.3592369617246334e+02 
9.3586179272934180e+02 9.3579825720516521e+02 9.3573304660879126e+02 9.3566611681975962e+02 
9.3559742255883748e+02 9.3552691735780832e+02 9.3545455352848455e+02 9.3538028213093423e+02 
9.3530405294088598e+02 9.3522581441630848e+02 9.3514551366313583e+02 9.3506309640011852e+02 
9.3497850692278098e+02 9.3489168806646228e+02 9.3480258116842015e+02 9.3471112602897233e+02 
9.3461726087165584e+02 9.3452092230238009e+02 9.3442204526754529e+02 9.3432056301110913e+02 
9.3421640703057062e+02 9.3410950703184938e+02 9.3399979088303246e+02 9.3388718456696404e+02 
9.3377161213264822e+02 9.3365299564544102e+02 9.3353125513600173e+02 9.3340630854797405e+02 
9.3327807168437312e+02 9.3314645815264225e+02 9.3301137930835091e+02 9.3287274419751225e+02 
9.3273045949747473e+02 9.3258442945636921e+02 9.3243455583107175e+02 9.3228073782365357e+02 
9.3212287201628305e+02 9.3196085230454867e+02 9.3179456982916793e+02 9.3162391290604705e+02 
9.3144876695465916e+02 9.3126901442470205e+02 9.3108453472100689e+02 9.3089520412665104e+02 
9.3070089572425331e+02 9.3050147931539902e+02 9.3029682133817096e+02 9.3008678478274351e+02 
9.2987122910499886e+02 9.2965001013813776e+02 9.2942298000223434e+02 9.2918998701170960e+02 
9.2895087558067200e+02 9.2870548612610003e+02 9.2845365496881800e+02 9.2819521423223364e+02 
9.2792999173879298e+02 9.2765781090412145e+02 9.2737849062880866e+02 9.2709184518779773e+02 
9.2679768411734665e+02 9.2649581209952350e+02 9.2618602884419249e+02 9.2586812896846777e+02 
9.2554190187358552e+02 9.2520713161917206e+02 9.2486359679486532e+02 9.2451107038926455e+02 
9.2414931965617257e+02 9.2377810597809832e+02 9.2339718472700042e+02 9.2300630512223415e+02 
9.2260521008568071e+02 9.2219363609403956e+02 9.2177131302825580e+02 9.2133796402006499e+02 
9.2089330529564393e+02 9.2043704601634772e+02 9.1996888811652445e+02 9.1948852613839915e+02 
9.1899564706402509e+02 9.1848993014429675e+02 9.1797104672503372e+02 9.1743866007013912e+02 
9.1689242518184744e+02 9.1633198861807421e+02 9.1575698830689703e+02 9.1516705335819188e+02 
9.1456180387245763e+02 9.1394085074687496e+02 9.1330379547864050e+02 9.1265022996563948e+02 
9.1197973630450940e+02 9.1129188658617829e+02 9.1058624268894914e+02 9.0986235606922094e+02 
9.0911976754995351e+02 9.0835800710697697e+02 9.0757659365327640e+02 9.0677503482138138e+02 
9.0595282674400778e+02 9.0510945383311366e+02 9.0424438855754374e+02 9.0335709121945195e+02 
9.0244700972970816e+02 9.0151357938251385e+02 9.0055622262946429e+02 8.9957434885331941e+02 
8.9856735414176296e+02 8.9753462106144912e+02 8.9647551843265853e+02 8.9538940110491308e+02 
8.9427560973391496e+02 8.9313347056020859e+02 8.9196229518998769e+02 8.9076138037849626e+02 
8.8953000781650917e+02 8.8826744392039814e+02 8.8697293962633091e+02 8.8564573018918088e+02 
8.8428503498676423e+02 8.8289005733004979e+02 8.8145998428004032e+02 8.7999398647204828e+02 
8.7849121794814812e+02 8.7695081599861760e+02 8.7537190101323483e+02 8.7375357634334432e+02 
8.7209492817565240e+02 8.7039502541877391e+02 8.6865291960358741e+02 8.6686764479853593e+02 
8.6503821754105138e+02 8.6316363678634343e+02 8.6124288387486672e+02 8.5927492251983051e+02 
8.5725869881618826e+02 8.5519314127261998e+02 8.5307716086807216e+02 8.5090965113451784e+02 
8.4868948826764745e+02 8.4641553126730332e+02 8.4408662210952548e+02 8.4170158595217936e+02 
8.3925923137619486e+02 8.3675835066454954e+02 8.3419772012120222e+02 8.3157610043226941e+02 
8.2889223707183112e+02 8.2614486075482955e+02 8.2333268793962702e+02 8.2045442138285500e+02 
8.1750875074930343e+02 8.1449435327966250e+02 8.1140989451903033e+02 8.0825402910917649e+02 
8.0502540164764741e+02 8.0172264761686461e+02 7.9834439438646291e+02 7.9488926229217975e+02 
7.9135586579467497e+02 7.8774281472174664e+02 7.8404871559743799e+02 7.8027217306161208e+02 
7.7641179138360542e+02 7.7246617607359940e+02 7.6843393559540198e+02 7.6431368318431760e+02 
7.6010403877381520e+02 7.5580363103467846e+02 7.5141109953030434e+02 7.4692509699177526e+02 
7.4234429171627448e+02 7.3766737009232941e+02 7.3289303925527440e+02 7.2802002987619665e+02 
7.2304709908748544e+02 7.1797303354791677e+02 7.1279665265001643e+02 7.0751681187219151e+02 
7.0213240627784785e+02 6.9664237416341882e+02 6.9104570085685418e+02 6.8534142266775314e+02 
6.7952863098987052e+02 6.7360647655625576e+02 6.6757417384674341e+02 6.6143100564693316e+02 
6.5517632775715845e+02 6.4880957384924045e+02 6.4233026046806947e+02 6.3573799217423584e+02 
6.2903246682304598e+02 6.2221348097430314e+02 6.1528093542621457e+02 6.0823484086569817e+02 
6.0107532362617997e+02 5.9380263154276474e+02 5.8641713989330901e+02 5.7891935741259090e+02 
5.7130993236526467e+02 5.6358965866178448e+02 5.5575948199987090e+02 5.4782050601242122e+02 
5.3977399840102998e+02 5.3162139703249204e+02 5.2336431597380351e+02 5.1500455143928082e+02 
5.0654408762146846e+02 4.9798510237554092e+02 4.8932997272489985e+02 4.8058128015366515e+02 
4.7174181564975930e+02 4.6281458446029171e+02 4.5380281051901426e+02 4.4470994050372093e+02 
4.3553964747963551e+02 4.2629583408314306e+02 4.1698263519859154e+02 4.0760442007946438e+02 
3.9816579386394932e+02 3.8867159843387111e+02 3.7912691256513767e+02 3.6953705131730499e+02 
3.5990756460963507e+02 3.5024423493113488e+02 3.4055307413256816e+02 3.3084031924935493e+02 
3.2111242730566767e+02 3.1137606905192217e+02 3.0163812159030363e+02 2.9190565984597879e+02 
2.8218594684528563e+02 2.7248642276647803e+02 2.6281469273354725e+02 2.5317851332936431e+02 
2.4358577781074203e+02 2.3404450001520610e+02 2.2456279695716142e+02 2.1514887011981270e+02 
2.0581098545862653e+02 1.9655745214227701e+02 1.8739660006788566e+02 1.7833675619890175e+02 
1.6938621978611820e+02 1.6055323654500970e+02 1.5184597187574974e+02 1.4327248322578049e+02 
1.3484069170859399e+02 1.2655835310629051e+02 1.1843302839734386e+02 1.1047205396471171e+02 
1.0268251165271793e+02 9.5071198853935613e+01 8.7644598819243754e+01 8.0408851395256079e+01 
7.3369724403091325e+01 6.6532585880776693e+01 5.9902377418209788e+01 5.3483588818302771e+01 
4.7280234320456891e+01 4.1295830622655707e+01 3.5533376935994852e+01 2.9995337300201154e+01 
2.4683625380469145e+01 1.9599591954620035e+01 1.4744015285077131e+01 1.0117094552395791e+01 
5.7184465060814365e+00 1.5471054642381168e+00 -2.3984732337007397e+00 -6.1204062470743361e+00 
-9.6213716857142995e+00 -1.2904594987262000e+01 -1.5973831251247695e+01 -1.8833344099810915e+01 
-2.1487881174674417e+01 -2.3942646420171823e+01 -2.6203269342151259e+01 -2.8275771471766834e+01 
-3.0166530300837980e+01 -3.1882240990887020e+01 -3.3429876190442627e+01 -3.4816644324019883e+01 
-3.6049946740677115e+01 -3.7137334129588901e+01 -3.8086462624097322e+01 -3.8905050023742987e+01 
-3.9600832565462071e+01 -4.0181522670207983e+01 -4.0654768079607933e+01 -4.1028112778907612e+01 
-4.1308960077571271e+01 -4.1504538187815797e+01 -4.1621868604545625e+01 -4.1667737548249619e+01 
-4.1648670686185596e+01 -4.1570911297500174e+01 -4.1440401995800151e+01 -4.1262770069172213e+01 
-4.1043316443860334e+01 -4.0787008224887778e+01 -4.0498474715981935e+01 -4.0182006773301659e+01 
-3.9841559303682089e+01 -3.9480756679294039e+01 -3.9102900807519326e+01 -3.8710981568072491e+01 
-3.8307689309366737e+01 -3.7895429083062140e+01 -3.7476336289679104e+01 -3.7052293408949033e+01 
-3.6624947495862315e+01 -3.6195728136642849e+01 -3.5765865577465100e+01 -3.5336408761843039e+01 
-3.4908243039385475e+01 -3.4482107338087332e+01 -3.4058610623554443e+01 -3.3638247500590033e+01 
-3.3221412844498651e+01 -3.2808415380456864e+01 -3.2399490158624729e+01 -3.1994809899712905e+01 
-3.1594495209989429e+01 -3.1198623685866124e+01 -3.0807237946030831e+01 -3.0420352643521564e+01 
-3.0037960521214849e+01 -2.9660037582080037e+01 -2.9286547450479929e+01 -2.8917445003087121e+01 
-2.8552679347997771e+01 -2.8192196228743978e+01 -2.7835939926528262e+01 -2.7483854729506600e+01 
-2.7135886032688081e+01 -2.6791981126315214e+01 -2.6452089724712657e+01 -2.6116164281766547e+01 
-2.5784160133594014e+01 -2.5456035503708328e+01 -2.5131751401156162e+01 -2.4811271437745354e+01 
-2.4494561586597271e+01 -2.4181589900836837e+01 -2.3872326208239514e+01 -2.3566741795044056e+01 
-2.3264809089864762e+01 -2.2966501356646532e+01 -2.2671792403855012e+01 -2.2380656315542542e+01 
-2.2093067208545339e+01 -2.1808999018823616e+01 -2.1528425318837282e+01 -2.1251319166843842e+01 
-2.0977652988108090e+01 -2.0707398487222932e+01 -2.0440526590059186e+01 -2.0177007413291676e+01 
-1.9916810258990576e+01 -1.9659903631424264e+01 -1.9406255272987703e+01 -1.9155832216048896e+01 
-1.8908600847486440e+01 -1.8664526982765398e+01 -1.8423575946555328e+01 -1.8185712657119499e+01 
-1.7950901711984471e+01 -1.7719107472717383e+01 -1.7490294146981050e+01 -1.7264425866387885e+01 
-1.7041466759020544e+01 -1.6821381015817671e+01 -1.6604132950327660e+01 -1.6389687051604724e+01 
-1.6178008030254777e+01 -1.5969060857830732e+01 -1.5762810799927415e+01 -1.5559223443437656e+01 
-1.5358264718503897e+01 -1.5159900915740447e+01 -1.4964098699313544e+01 -1.4770825116455233e+01 
-1.4580047603958226e+01 -1.4391733992157267e+01 -1.4205852506852469e+01 -1.4022371769576189e+01 
-1.3841260796549726e+01 -1.3662488996622971e+01 -1.3486026168440166e+01 -1.3311842497029831e+01 
-1.3139908549977394e+01 -1.2970195273304967e+01 -1.2802673987154334e+01 -1.2637316381346064e+01 
-1.2474094510868548e+01 -1.2312980791336971e+01 -1.2153947994450132e+01 -1.1996969243465109e+01 
-1.1842018008703276e+01 -1.1689068103096711e+01 -1.1538093677780902e+01 -1.1389069217737216e+01 
-1.1241969537487321e+01 -1.1096769776840537e+01 -1.0953445396694555e+01 -1.0811972174889453e+01 
-1.0672326202114759e+01 -1.0534483877869068e+01 -1.0398421906471672e+01 -1.0264117293125654e+01 
-1.0131547340031720e+01 -1.0000689642552315e+01 -9.8715220854251040e+00 -9.7440228390255061e+00 
-9.6181703556774210e+00 -9.4939433660116208e+00 -9.3713208753711790e+00 -9.2502821602633247e+00 
-9.1308067648571214e+00 -9.0128744975263828e+00 -8.8964654274372403e+00 -8.7815598811797830e+00 
-8.6681384394432062e+00 -8.5561819337339049e+00 -8.4456714431359430e+00 -8.3365882911133866e+00 
-8.2289140423539155e+00 -8.1226304996532122e+00 -8.0177197008395851e+00 -7.9141639157383628e+00 
-7.8119456431753740e+00 -7.7110476080192685e+00 -7.6114527582619580e+00 -7.5131442621367874e+00 
-7.4161055052739293e+00 -7.3203200878925099e+00 -7.2257718220290137e+00 -7.1324447288014774e+00 
-7.0403230357090170e+00 -6.9493911739662408e+00 -6.8596337758720880e+00 -6.7710356722126512e+00 
-6.6835818896975354e+00 -6.5972576484293528e+00 -6.5120483594058642e+00 -6.4279396220544207e+00 
-6.3449172217982115e+00 -6.2629671276540142e+00 -6.1820754898608579e+00 -6.1022286375394268e+00 
-6.0234130763816331e+00 -5.9456154863700554e+00 -5.8688227195268121e+00 -5.7930217976915364e+00 
-5.7181999103280221e+00 -5.6443444123592226e+00 -5.5714428220301970e+00 -5.4994828187986675e+00 
-5.4284522412528160e+00 -5.3583390850559782e+00 -5.2891315009178799e+00 -5.2208177925920811e+00 
-5.1533864148992823e+00 -5.0868259717761601e+00 -5.0211252143493956e+00 -4.9562730390346292e+00 
-4.8922584856598705e+00 -4.8290707356132350e+00 -4.7666991100145744e+00 -4.7051330679107126e+00 
-4.6443622044939978e+00 -4.5843762493438742e+00 -4.5251650646911479e+00 -4.4667186437046862e+00 
-4.4090271088002329e+00 -4.3520807099710774e+00 -4.2958698231402810e+00 -4.2403849485341807e+00 
-4.1856167090769079e+00 -4.1315558488056441e+00 -4.0781932313063285e+00 -4.0255198381695996e+00 
-3.9735267674666410e+00 -3.9222052322447687e+00 -3.8715465590423737e+00 -3.8215421864231129e+00 
-3.7721836635289976e+00 -3.7234626486521809e+00 -3.6753709078251862e+00 -3.6279003134293539e+00 
-3.5810428428212440e+00 -3.5347905769768002e+00 -3.4891356991530080e+00 -3.4440704935668540e+00 
-3.3995873440913336e+00 -3.3556787329683107e+00 -3.3123372395380000e+00 -3.2695555389848541e+00 
-3.2273264010996554e+00 -3.1856426890575911e+00 -3.1444973582121105e+00 -3.1038834549043806e+00 
-3.0637941152880721e+00 -3.0242225641693747e+00 -2.9851621138619637e+00 -2.9466061630567704e+00 
-2.9085481957063406e+00 -2.8709817799236115e+00 -2.8339005668949038e+00 -2.7972982898069594e+00 
-2.7611687627878325e+00 -2.7255058798614651e+00 -2.6903036139157628e+00 -2.6555560156839944e+00 
-2.6212572127393576e+00 -2.5874014085025188e+00 -2.5539828812619825e+00 -2.5209959832071061e+00 
-2.4884351394736015e+00 -2.4562948472013892e+00 -2.4245696746045731e+00 -2.3932542600534754e+00 
-2.3623433111685035e+00 -2.3318316039257243e+00 -2.3017139817739936e+00 -2.2719853547634847e+00 
-2.2426406986854754e+00 -2.2136750542232466e+00 -2.1850835261139419e+00 -2.1568612823212603e+00 
-2.1290035532188298e+00 -2.1015056307841271e+00 -2.0743628678028148e+00 -2.0475706770833448e+00 
-2.0211245306817180e+00 -1.9950199591362447e+00 -1.9692525507122103e+00 -1.9438179506562570e+00 
-1.9187118604604396e+00 -1.8939300371357601e+00 -1.8694682924950929e+00 -1.8453224924453731e+00 
-1.8214885562889223e+00 -1.7979624560338039e+00 -1.7747402157130789e+00 -1.7518179107128635e+00 
-1.7291916671090546e+00 -1.7068576610126303e+00 -1.6848121179234032e+00 -1.6630513120921215e+00 
-1.6415715658908065e+00 -1.6203692491912258e+00 -1.5994407787513940e+00 -1.5787826176099924e+00 
-1.5583912744886248e+00 -1.5382633032017681e+00 -1.5183953020743675e+00 -1.4987839133669458e+00 
-1.4794258227081334e+00 -1.4603177585345355e+00 -1.4414564915378270e+00 -1.4228388341189946e+00 
-1.4044616398496226e+00 -1.3863218029401394e+00 -1.3684162577149332e+00 -1.3507419780942440e+00 
-1.3332959770827493e+00 -1.3160753062647548e+00 -1.2990770553059057e+00 -1.2822983514613322e+00 
-1.2657363590901500e+00 -1.2493882791762267e+00 -1.2332513488551515e+00 -1.2173228409472903e+00 
-1.2016000634968951e+00 -1.1860803593171556e+00 -1.1707611055411264e+00 -1.1556397131784586e+00 
-1.1407136266778524e+00 -1.1259803234951631e+00 -1.1114373136670868e+00 -1.0970821393903485e+00 
-1.0829123746063287e+00 -1.0689256245910539e+00 -1.0551195255504811e+00 -1.0414917442210130e+00 
-1.0280399774751692e+00 -1.0147619519323534e+00 -1.0016554235746460e+00 -9.8871817736755740e-01 
-9.7594802688569082e-01 -9.6334281394321863e-01 -9.5090040822915189e-01 -9.3861870694731075e-01 
-9.2649563446094707e-01 -9.1452914194195667e-01 -9.0271720702462221e-01 -8.9105783346382916e-01 
-8.7954905079769530e-01 -8.6818891401455833e-01 -8.5697550322426308e-01 -8.4590692333369744e-01 
-8.3498130372651569e-01 -8.2419679794699974e-01 -8.1355158338800437e-01 -8.0304386098293512e-01 
-7.9267185490169134e-01 -7.8243381225056152e-01 -7.7232800277597313e-01 -7.6235271857206643e-01 
-7.5250627379207424e-01 -7.4278700436338807e-01 -7.3319326770634696e-01 -7.2372344245661646e-01 
-7.1437592819119533e-01 -7.0514914515791993e-01 -6.9604153400850199e-01 -6.8705155553497499e-01 
-6.7817769040958531e-01 -6.6941843892800068e-01 -6.6077232075587811e-01 -6.5223787467866279e-01 
-6.4381365835465987e-01 -6.3549824807125521e-01 -6.2729023850432430e-01 -6.1918824248070981e-01 
-6.1119089074380251e-01 -6.0329683172212656e-01 -5.9550473130091419e-01 -5.8781327259665284e-01 
-5.8022115573451061e-01 -5.7272709762867213e-01 -5.6532983176547669e-01 -5.5802810798939118e-01 
-5.5082069229171493e-01 -5.4370636660204441e-01 -5.3668392858240155e-01 -5.2975219142405061e-01 
-5.2290998364690988e-01 -5.1615614890158379e-01 -5.0948954577392169e-01 -5.0290904759213173e-01 
-4.9641354223635514e-01 -4.9000193195072878e-01 -4.8367313315785582e-01 -4.7742607627567363e-01 
-4.7125970553670404e-01 -4.6517297880961223e-01 -4.5916486742309748e-01 -4.5323435599203249e-01 
-4.4738044224587331e-01 -4.4160213685926081e-01 -4.3589846328483489e-01 -4.3026845758818322e-01 
-4.2471116828494587e-01 -4.1922565618000085e-01 -4.1381099420874945e-01 -4.0846626728042801e-01 
-4.0319057212346765e-01 -3.9798301713282724e-01 -3.9284272221932176e-01 -3.8776881866087370e-01 
-3.8276044895570660e-01 -3.7781676667742137e-01 -3.7293693633194364e-01 -3.6812013321633336e-01 
-3.6336554327939680e-01 -3.5867236298412097e-01 -3.5403979917186307e-01 -3.4946706892831542e-01 
-3.4495339945118086e-01 -3.4049802791957723e-01 -3.3610020136510910e-01 -3.3175917654462372e-01 
-3.2747421981459229e-01 -3.2324460700713098e-01 -3.1906962330760613e-01 -3.1494856313383796e-01 
-3.1088073001684641e-01 -3.0686543648315384e-01 -3.0290200393859745e-01 -2.9898976255364174e-01 
-2.9512805115018315e-01 -2.9131621708980127e-01 -2.8755361616346931e-01 -2.8383961248267342e-01 
-2.8017357837195384e-01 -2.7655489426281837e-01 -2.7298294858904165e-01 
</PP_LOCAL>


<PP_NONLOCAL>
  <PP_BETA>
  1  1      Beta    L
  1187  
 -2.6696221711408104e-09  -2.7399425531051417e-09  -2.8121152407300422e-09  -2.8861890255089345e-09 
 -2.9622139841497358e-09  -3.0402415124286516e-09  -3.1203243599357084e-09  -3.2025166657355072e-09 
 -3.2868739949673094e-09  -3.3734533764092279e-09  -3.4623133410318828e-09  -3.5535139615675907e-09 
 -3.6471168931218538e-09  -3.7431854148545958e-09  -3.8417844727593234e-09  -3.9429807235691275e-09 
 -4.0468425798192110e-09  -4.1534402560964168e-09  -4.2628458165069983e-09  -4.3751332233947594e-09 
 -4.4903783873424490e-09  -4.6086592184902799e-09  -4.7300556792061910e-09  -4.8546498381435127e-09 
 -4.9825259257225726e-09  -5.1137703910737186e-09  -5.2484719604803188e-09  -5.3867216973611296e-09 
 -5.5286130638327604e-09  -5.6742419838936919e-09  -5.8237069082726124e-09  -5.9771088809849767e-09 
 -6.1345516076426850e-09  -6.2961415255631435e-09  -6.4619878757250148e-09  -6.6322027766194244e-09 
 -6.8069013000464257e-09  -6.9862015489080416e-09  -7.1702247370504523e-09  -7.3590952712093316e-09 
 -7.5529408351136127e-09  -7.7518924758047927e-09  -7.9560846922298119e-09  -8.1656555261676431e-09 
 -8.3807466555509827e-09  -8.6015034902460951e-09  -8.8280752703556374e-09  -9.0606151671108114e-09 
 -9.2992803864212259e-09  -9.5442322751522427e-09  -9.7956364302018866e-09  -1.0053662810450886e-08 
 -1.0318485851661624e-08  -1.0590284584403595e-08  -1.0869242755085257e-08  -1.1155548950173822e-08 
 -1.1449396723687294e-08  -1.1750984728044663e-08  -1.2060516848362831e-08  -1.2378202340291188e-08 
 -1.2704255971476718e-08  -1.3038898166755587e-08  -1.3382355157169084e-08  -1.3734859132905008e-08 
 -1.4096648400267481e-08  -1.4467967542781639e-08  -1.4849067586541981e-08  -1.5240206169916082e-08 
 -1.5641647717718583e-08  -1.6053663619973141e-08  -1.6476532415382955e-08  -1.6910539979634361e-08 
 -1.7355979718660409e-08  -1.7813152766995190e-08  -1.8282368191353117e-08  -1.8763943199570670e-08 
 -1.9258203355051890e-08  -1.9765482796862630e-08  -2.0286124465622253e-08  -2.0820480335345666e-08 
 -2.1368911651392297e-08  -2.1931789174682926e-08  -2.2509493432349384e-08  -2.3102414974986760e-08 
 -2.3710954640681869e-08  -2.4335523825996570e-08  -2.4976544764088926e-08  -2.5634450810160654e-08 
 -2.6309686734423535e-08  -2.7002709022782659e-08  -2.7713986185440150e-08  -2.8443999073628226e-08 
 -2.9193241204684634e-08  -2.9962219095691828e-08  -3.0751452605903817e-08  -3.1561475288193428e-08 
 -3.2392834749757074e-08  -3.3246093022320534e-08  -3.4121826942097113e-08  -3.5020628539753422e-08 
 -3.5943105440648407e-08  -3.6889881275614145e-08  -3.7861596102557918e-08  -3.8858906839169332e-08 
 -3.9882487707025673e-08  -4.0933030687395529e-08  -4.2011245989048979e-08  -4.3117862528390169e-08 
 -4.4253628422237501e-08  -4.5419311493584443e-08  -4.6615699790682067e-08  -4.7843602119795943e-08 
 -4.9103848591995395e-08  -5.0397291184346928e-08  -5.1724804315889521e-08  -5.3087285438782409e-08 
 -5.4485655645024200e-08  -5.5920860289153990e-08  -5.7393869627354958e-08  -5.8905679473393610e-08 
 -6.0457311871836295e-08  -6.2049815789000424e-08  -6.3684267822105236e-08  -6.5361772927103283e-08 
 -6.7083465165684116e-08  -6.8850508471954808e-08  -7.0664097439315859e-08  -7.2525458128065455e-08 
 -7.4435848894276167e-08  -7.6396561240506497e-08  -7.8408920688920786e-08  -8.0474287677408768e-08 
 -8.2594058479310829e-08  -8.4769666147368834e-08  -8.7002581482544192e-08  -8.9294314028354514e-08 
 -9.1646413091403552e-08  -9.4060468788793450e-08  -9.6538113123127753e-08  -9.9081021085831353e-08 
 -1.0169091178953453e-07  -1.0436954963028560e-07  -1.0711874548037800e-07  -1.0994035791259935e-07 
 -1.1283629445672894e-07  -1.1580851288913361e-07  -1.1885902255633442e-07  -1.2198988573343892e-07 
 -1.2520321901835516e-07  -1.2850119476273534e-07  -1.3188604254061022e-07  -1.3536005065571177e-07 
 -1.3892556768850186e-07  -1.4258500408395266e-07  -1.4634083378115224e-07  -1.5019559588583785e-07 
 -1.5415189638698663e-07  -1.5821240991862599e-07  -1.6237988156805438e-07  -1.6665712873169194e-07 
 -1.7104704301982235e-07  -1.7555259221150684e-07  -1.8017682226099738e-07  -1.8492285935700182e-07 
 -1.8979391203619690e-07  -1.9479327335241513e-07  -1.9992432310297347e-07  -2.0519053011365056e-07 
 -2.1059545458385446e-07  -2.1614275049356954e-07  -2.2183616807370770e-07  -2.2767955634153741e-07 
 -2.3367686570290039e-07  -2.3983215062297994e-07  -2.4614957236742389e-07  -2.5263340181567765e-07 
 -2.5928802234842876e-07  -2.6611793281111390e-07  -2.7312775055549607e-07  -2.8032221456136579e-07 
 -2.8770618864047604e-07  -2.9528466472488303e-07  -3.0306276624190794e-07  -3.1104575157801159e-07 
 -3.1923901763391710e-07  -3.2764810347338485e-07  -3.3627869406811370e-07  -3.4513662414129305e-07 
 -3.5422788211241139e-07  -3.6355861414598148e-07  -3.7313512830693051e-07  -3.8296389882545504e-07 
 -3.9305157047423026e-07  -4.0340496306093595e-07  -4.1403107603913143e-07  -4.2493709324059937e-07 
 -4.3613038773236502e-07  -4.4761852680166574e-07  -4.5940927707225184e-07  -4.7151060975547187e-07 
 -4.8393070603969518e-07  -4.9667796262172201e-07  -5.0976099738391413e-07  -5.2318865522089492e-07 
 -5.3697001401974579e-07  -5.5111439079776475e-07  -5.6563134800191401e-07  -5.8053069997423916e-07 
 -5.9582251958761929e-07  -6.1151714505634202e-07  -6.2762518692610868e-07  -6.4415753524819656e-07 
 -6.6112536694263937e-07  -6.7854015335538656e-07  -6.9641366801458436e-07  -7.1475799459119173e-07 
 -7.3358553506934277e-07  -7.5290901813196394e-07  -7.7274150776734201e-07  -7.9309641210242871e-07 
 -8.1398749246889987e-07  -8.3542887270807020e-07  -8.5743504872097572e-07  -8.8002089827007809e-07 
 -9.0320169103922534e-07  -9.2699309895867796e-07  -9.5141120680217546e-07  -9.7647252306322873e-07 
 -1.0021939911179807e-06  -1.0285930006822105e-06  -1.0556873995702048e-06  -1.0834955057634820e-06 
 -1.1120361197975160e-06  -1.1413285374748495e-06  -1.1713925629132049e-06  -1.2022485219374070e-06 
 -1.2339172758242059e-06  -1.2664202354092703e-06  -1.2997793755659329e-06  -1.3340172500654584e-06 
 -1.3691570068289145e-06  -1.4052224035809496e-06  -1.4422378239160882e-06  -1.4802282937884154e-06 
 -1.5192194984358103e-06  -1.5592377997501841e-06  -1.6003102541054832e-06  -1.6424646306555382e-06 
 -1.6857294301141214e-06  -1.7301339040299622e-06  -1.7757080745697352e-06  -1.8224827548224387e-06 
 -1.8704895696389151e-06  -1.9197609770206147e-06  -1.9703302900720791e-06  -2.0222316995320241e-06 
 -2.0755002968983035e-06  -2.1301720981623497e-06  -2.1862840681692545e-06  -2.2438741456199027e-06 
 -2.3029812687321643e-06  -2.3636454015784959e-06  -2.4259075611177936e-06  -2.4898098449398288e-06 
 -2.5553954597410347e-06  -2.6227087505509823e-06  -2.6917952307293001e-06  -2.7627016127534144e-06 
 -2.8354758398179301e-06  -2.9101671182671034e-06  -2.9868259508823642e-06  -3.0655041710474780e-06 
 -3.1462549778144763e-06  -3.2291329718941415e-06  -3.3141941925954795e-06  -3.4014961557391528e-06 
 -3.4910978925706570e-06  -3.5830599896995866e-06  -3.6774446300920954e-06  -3.7743156351443404e-06 
 -3.8737385078654592e-06  -3.9757804771993809e-06  -4.0805105435155017e-06  -4.1879995252991782e-06 
 -4.2983201070735836e-06  -4.4115468885855952e-06  -4.5277564352889963e-06  -4.6470273301592849e-06 
 -4.7694402268752794e-06  -4.8950779044036309e-06  -5.0240253230232410e-06  -5.1563696818277197e-06 
 -5.2922004777448823e-06  -5.4316095661133864e-06  -5.5746912228576250e-06  -5.7215422083032285e-06 
 -5.8722618326763398e-06  -6.0269520233314222e-06  -6.1857173937530714e-06  -6.3486653143788533e-06 
 -6.5159059852913028e-06  -6.6875525108284821e-06  -6.8637209761639152e-06  -7.0445305259078318e-06 
 -7.2301034447833469e-06  -7.4205652404324322e-06  -7.6160447284079557e-06  -7.8166741194097207e-06 
 -8.0225891088238064e-06  -8.2339289686263251e-06  -8.4508366417139673e-06  -8.6734588387257675e-06 
 -8.9019461374219793e-06  -9.1364530846877698e-06  -9.3771383012312683e-06  -9.6241645890473079e-06 
 -9.8776990417202089e-06  -1.0137913157640762e-05  -1.0404982956214658e-05  -1.0679089097141608e-05 
 -1.0960417002846692e-05  -1.1249156984147351e-05  -1.1545504369241962e-05  -1.1849659636107934e-05 
 -1.2161828548400012e-05  -1.2482222294941362e-05  -1.2811057632903093e-05  -1.3148557034769837e-05 
 -1.3494948839192094e-05  -1.3850467405828434e-05  -1.4215353274283660e-05  -1.4589853327251554e-05 
 -1.4974220957974034e-05  -1.5368716242131508e-05  -1.5773606114282048e-05  -1.6189164548970434e-05 
 -1.6615672746631358e-05  -1.7053419324414043e-05  -1.7502700512059593e-05  -1.7963820352965240e-05 
 -1.8437090910573780e-05  -1.8922832480229963e-05  -1.9421373806649370e-05  -1.9933052307149521e-05 
 -2.0458214300796604e-05  -2.0997215243625643e-05  -2.1550419970096143e-05  -2.2118202940949365e-05 
 -2.2700948497638415e-05  -2.3299051123506204e-05  -2.3912915711891897e-05  -2.4542957841350543e-05 
 -2.5189604058176426e-05  -2.5853292166425010e-05  -2.6534471525634314e-05  -2.7233603356451598e-05 
 -2.7951161054376731e-05  -2.8687630511840372e-05  -2.9443510448839151e-05  -3.0219312752358042e-05 
 -3.1015562824815149e-05  -3.1832799941771057e-05  -3.2671577619151321e-05  -3.3532463990237572e-05 
 -3.4416042192689579e-05  -3.5322910765868022e-05  -3.6253684058734889e-05  -3.7208992648615853e-05 
 -3.8189483771117698e-05  -3.9195821761500223e-05  -4.0228688507812519e-05  -4.1288783916109836e-05 
 -4.2376826388077471e-05  -4.3493553311396651e-05  -4.4639721563196526e-05  -4.5816108026946224e-05 
 -4.7023510123149838e-05  -4.8262746354219259e-05  -4.9534656863907326e-05  -5.0840104011697348e-05 
 -5.2179972962553857e-05  -5.3555172292451876e-05  -5.4966634610113383e-05  -5.6415317195391305e-05 
 -5.7902202654754667e-05  -5.9428299594339680e-05  -6.0994643311046434e-05  -6.2602296502172635e-05 
 -6.4252349994091022e-05  -6.5945923490490682e-05  -6.7684166340717009e-05  -6.9468258328761302e-05 
 -7.1299410483464991e-05  -7.3178865910521234e-05  -7.5107900646871140e-05  -7.7087824538112052e-05 
 -7.9119982139549117e-05  -8.1205753641542232e-05  -8.3346555819818798e-05  -8.5543843011440512e-05 
 -8.7799108117133401e-05  -9.0113883630711335e-05  -9.2489742696342389e-05  -9.4928300194431809e-05 
 -9.7431213856914012e-05  -1.0000018541277500e-04  -1.0263696176464241e-04  -1.0534333619731369e-04 
 -1.0812114961911186e-04  -1.1097229183698568e-04  -1.1389870286630258e-04  -1.1690237427630396e-04 
 -1.1998535057222512e-04  -1.2314973061511238e-04  -1.2639766908039709e-04  -1.2973137795632288e-04 
 -1.3315312808334865e-04  -1.3666525073569233e-04  -1.4027013924620412e-04  -1.4397025067580652e-04 
 -1.4776810752876383e-04  -1.5166629951509156e-04  -1.5566748536144948e-04  -1.5977439467190725e-04 
 -1.6398982984001142e-04  -1.6831666801362809e-04  -1.7275786311407977e-04  -1.7731644791114292e-04 
 -1.8199553615552030e-04  -1.8679832477045289e-04  -1.9172809610418760e-04  -1.9678822024507092e-04 
 -2.0198215740109587e-04  -2.0731346034578413e-04  -2.1278577693234631e-04  -2.1840285267812532e-04 
 -2.2416853342139284e-04  -2.3008676805262921e-04  -2.3616161132249599e-04  -2.4239722672876910e-04 
 -2.4879788948458466e-04  -2.5536798957041774e-04  -2.6211203487229938e-04  -2.6903465440885509e-04 
 -2.7614060164983474e-04  -2.8343475792888968e-04  -2.9092213595344787e-04  -2.9860788341462975e-04 
 -3.0649728670024398e-04  -3.1459577471401075e-04  -3.2290892280425831e-04  -3.3144245680545207e-04 
 -3.4020225719603292e-04  -3.4919436337614844e-04  -3.5842497806900381e-04  -3.6790047184965570e-04 
 -3.7762738780524778e-04  -3.8761244633077617e-04  -3.9786255006465818e-04  -4.0838478896850210e-04 
 -4.1918644555563405e-04  -4.3027500027311425e-04  -4.4165813704211463e-04  -4.5334374896173469e-04 
 -4.6533994418149118e-04  -4.7765505194791348e-04  -4.9029762883087929e-04  -5.0327646513551494e-04 
 -5.1660059150571190e-04  -5.3027928572552596e-04  -5.4432207972495068e-04  -5.5873876679681477e-04 
 -5.7353940903178248e-04  -5.8873434497870407e-04  -6.0433419753785304e-04  -6.2034988209484245e-04 
 -6.3679261490331778e-04  -6.5367392172485596e-04  -6.7100564673477382e-04  -6.8879996170293878e-04 
 -7.0706937545898059e-04  -7.2582674365169355e-04  -7.4508527881279093e-04  -7.6485856073557558e-04 
 -7.8516054717949792e-04  -8.0600558491202262e-04  -8.2740842109965619e-04  -8.4938421506048690e-04 
 -8.7194855039106193e-04  -8.9511744748095395e-04  -9.1890737642891089e-04  -9.4333527037504463e-04 
 -9.6841853926410697e-04  -9.9417508405551702e-04  -1.0206233113964488e-03  -1.0477821487749743e-03 
 -1.0756710601709549e-03  -1.1043100622231104e-03  -1.1337197409314913e-03  -1.1639212689153495e-03 
 -1.1949364232473176e-03  -1.2267876038856115e-03  -1.2594978527269798e-03  -1.2930908733040593e-03 
 -1.3275910511518062e-03  -1.3630234748687941e-03  -1.3994139579002174e-03  -1.4367890610706973e-03 
 -1.4751761158961537e-03  -1.5146032487053168e-03  -1.5550994056028431e-03  -1.5966943783073582e-03 
 -1.6394188308992972e-03  -1.6833043275149351e-03  -1.7283833610246624e-03  -1.7746893827352845e-03 
 -1.8222568331578920e-03  -1.8711211738848242e-03  -1.9213189206211255e-03  -1.9728876774180995e-03 
 -2.0258661721586709e-03  -2.0802942933466182e-03  -2.1362131282541465e-03  -2.1936650024847958e-03 
 -2.2526935210114025e-03  -2.3133436107515459e-03  -2.3756615647459603e-03  -2.4396950880084408e-03 
 -2.5054933451190264e-03  -2.5731070096356736e-03  -2.6425883154032673e-03  -2.7139911098425467e-03 
 -2.7873709093055601e-03  -2.8627849565884041e-03  -2.9402922806964758e-03  -3.0199537589619928e-03 
 -3.1018321816185493e-03  -3.1859923189425129e-03  -3.2725009910764846e-03  -3.3614271406557815e-03 
 -3.4528419083648303e-03  -3.5468187115566896e-03  -3.6434333260755435e-03  -3.7427639714290532e-03 
 -3.8448913994646814e-03  -3.9498989867120318e-03  -4.0578728305612601e-03  -4.1689018494563360e-03 
 -4.2830778872908672e-03  -4.4004958222039385e-03  -4.5212536799832583e-03  -4.6454527522937451e-03 
 -4.7731977199606500e-03  -4.9045967815483241e-03  -5.0397617874879718e-03  -5.1788083800209574e-03 
 -5.3218561392380358e-03  -5.4690287355094337e-03  -5.6204540886160160e-03  -5.7762645339082272e-03 
 -5.9365969958362023e-03  -6.1015931692129568e-03  -6.2713997085911584e-03  -6.4461684261544307e-03 
 -6.6260564985451496e-03  -6.8112266830729976e-03  -7.0018475437724171e-03  -7.1980936878018268e-03 
 -7.4001460127036504e-03  -7.6081919650723912e-03  -7.8224258112068717e-03  -8.0430489203538909e-03 
 -8.2702700611833047e-03  -8.5043057121688709e-03  -8.7453803865858090e-03  -8.9937269728742122e-03 
 -9.2495870911585825e-03  -9.5132114667559869e-03  -9.7848603215513474e-03  -1.0064803784165646e-02 
 -1.0353322319893846e-02  -1.0650707181442195e-02  -1.0957260881551616e-02  -1.1273297688652819e-02 
 -1.1599144146761975e-02  -1.1935139620892274e-02  -1.2281636869326719e-02  -1.2639002644171565e-02 
 -1.3007618321688216e-02  -1.3387880563984019e-02  -1.3780202013729615e-02  -1.4185012023662532e-02 
 -1.4602757422734472e-02  -1.5033903320861764e-02  -1.5478933954347726e-02  -1.5938353574159507e-02 
 -1.6412687379363102e-02  -1.6902482498147780e-02  -1.7408309019005534e-02  -1.7930761074773361e-02 
 -1.8470457982395612e-02  -1.9028045441421670e-02  -1.9604196794420724e-02  -2.0199614352670845e-02 
 -2.0815030790664268e-02  -2.1451210613165957e-02  -2.2108951698767036e-02  -2.2789086924091522e-02 
 -2.3492485873040942e-02  -2.4220056635701589e-02  -2.4972747701789408e-02  -2.5751549953772879e-02 
 -2.6557498765090420e-02  -2.7391676209171274e-02  -2.8255213385273672e-02  -2.9149292867474547e-02 
 -3.0075151283481358e-02  -3.1034082030286528e-02  -3.2027438134054356e-02  -3.3056635262012128e-02 
 -3.4123154894519711e-02  -3.5228547665908522e-02  -3.6374436883116569e-02  -3.7562522231597846e-02 
 -3.8794583678455279e-02  -4.0072485583232648e-02  -4.1398181027304200e-02  -4.2773716373322467e-02 
 -4.4201236066719815e-02  -4.5682987691809548e-02  -4.7221327295599025e-02  -4.8818724993001730e-02 
 -5.0477770867723079e-02  -5.2201181183691527e-02  -5.3991804922502662e-02  -5.5852630662952339e-02 
 -5.7786793819329094e-02  -5.9797584255735094e-02  -6.1888454294284544e-02  -6.4063027135593101e-02 
 -6.6325105710511686e-02  -6.8678681982561635e-02  -7.1127946720991778e-02  -7.3677299764784945e-02 
 -7.6331360798282594e-02  -7.9094980659355496e-02  -8.1973253201212765e-02  -8.4971527728983143e-02 
 -8.8095422032118495e-02  -9.1350836033412847e-02  -9.4743966074995092e-02  -9.8281319860997793e-02 
 -1.0196973207569919e-01  -1.0581638069474152e-01  -1.0982880400550633e-01  -1.1401491835082701e-01 
 -1.1838303660788560e-01  -1.2294188741133430e-01  -1.2770063512630309e-01  -1.3266890057297315e-01 
 -1.3785678249970429e-01  -1.4327487979622197e-01  -1.4893431443201519e-01  -1.5484675509774160e-01 
 -1.6102444151898884e-01  -1.6748020940206079e-01  -1.7422751596041483e-01  -1.8128046595782071e-01 
 -1.8865383819008064e-01  -1.9636311231107681e-01  -2.0442449589079495e-01  -2.1285495157263454e-01 
 -2.2167222417451329e-01  -2.3089486755279787e-01  -2.4054227101970943e-01  -2.5063468507327313e-01 
 -2.6119324616388656e-01  -2.7224000018285699e-01  -2.8379792431554385e-01  -2.9589094685474016e-01 
 -3.0854396451835014e-01  -3.2178285675897400e-01  -3.3563449649143634e-01  -3.5012675659729092e-01 
 -3.6528851149271019e-01  -3.8114963296766102e-01  -3.9774097941976172e-01  -4.1509437751557116e-01 
 -4.3324259521526653e-01  -4.5221930499375435e-01  -4.7205903598245608e-01  -4.9279711364154100e-01 
 -5.1446958545280630e-01  -5.3711313099933367e-01  -5.6076495467038667e-01  -5.8546265909997619e-01 
 -6.1124409731646934e-01  -6.3814720145049664e-01  -6.6620978572137723e-01  -6.9546932130101269e-01 
 -7.2596268054193192e-01  -7.5772584795661579e-01  -7.9079359525279591e-01  -8.2519911766913745e-01 
 -8.6097362882341144e-01  -8.9814591128750554e-01  -9.3674182014780227e-01  -9.7678373690383180e-01 
 -1.0182899712119744e+00  -1.0612741082040686e+00  -1.1057442994143936e+00  -1.1517024957438515e+00 
 -1.1991436213901470e+00  -1.2480546882898920e+00  -1.2984138513665977e+00  -1.3501894057706192e+00 
 -1.4033387283468186e+00  -1.4578071667857135e+00  -1.5135268813157585e+00  -1.5704156453882354e+00 
 -1.6283756135997955e+00  -1.6872920670953861e+00  -1.7470321488968816e+00  -1.8074436040056312e+00 
 -1.8683535417199513e+00  -1.9295672403732438e+00  -1.9908670176090069e+00  -2.0520111923287865e+00 
 -2.1127331675315131e+00  -2.1727406663477158e+00  -2.2317151565868816e+00  -2.2893115019744639e+00 
 -2.3451578808531774e+00  -2.3988560153456482e+00  -2.4499817556893255e+00  -2.4980860655137413e+00 
 -2.5426964540772183e+00  -2.5833189007453323e+00  -2.6194403151033394e+00  -2.6505315728716448e+00 
 -2.6760511630647308e+00  -2.6954494754368548e+00  -2.7081737490489375e+00  -2.7136736926537517e+00 
 -2.7114077754533290e+00  -2.7008501726050493e+00  -2.6814983336716436e+00  -2.6528811241317265e+00 
 -2.6145674702770254e+00  -2.5661754166042821e+00  -2.5073814825459060e+00  -2.4379301825690298e+00 
 -2.3576435509120479e+00  -2.2664304902366230e+00  -2.1642957430742946e+00  -2.0513482670540717e+00 
 -1.9278087805011275e+00  -1.7940162351375684e+00  -1.6504329683485630e+00  -1.4976482898283194e+00 
 -1.3363802673365264e+00  -1.1674754945749246e+00  -9.9190665141499990e-01  -8.1076770314297464e-01 
 -6.2526663091658297e-01  -4.3671563964346555e-01  -2.4651885083809613e-01  -5.6157554941902665e-02 
 1.3282683222686148e-01  3.1885189359716326e-01  5.0031513227436542e-01  6.7561634481693189e-01 
 8.4318104730931687e-01  1.0014845123387990e+00  1.1490759441261260e+00  1.2846023003636726e+00 
 1.4068312619825516e+00  1.5146728546053239e+00  1.6071992361067462e+00  1.6836621820811635e+00 
 1.7435078245836855e+00  1.7863882301551164e+00  1.8121694433915296e+00  1.8209356761135229e+00 
 1.8129893939153130e+00  1.7888471447103556e+00  1.7492310879331914e+00  1.6950563140796895e+00 
 1.6274141839100114e+00  1.5475520541553849e+00  1.4568498813742248e+00  1.3567942994504885e+00 
 1.2489508442576469e+00  1.1349350495690962e+00  1.0163831620350190e+00  8.9492322186664053e-01 
 7.7214723196158663e-01  6.4958509329243852e-01  5.2868091920959659e-01  4.1077225566451847e-01 
 2.9707262796037087e-01  1.8865770896423362e-01  8.6455264043461197e-02  -8.7611157703595018e-03 
 -9.6374615754142662e-02  -1.7592437159151586e-01  -2.4710153781375760e-01  -3.0974263173602257e-01 
 -3.6382053154984734e-01  -4.0943358285001941e-01  -4.4679321081985296e-01  -4.7621043204538310e-01 
 -4.9808166600792092e-01  -5.1287421477694695e-01  -5.2111175485135219e-01  -5.2336015366625577e-01 
 -5.2021388586080053e-01  -5.1228328245545440e-01  -5.0018280125996051e-01  -4.8452046101375651e-01 
 -4.6588853680602793e-01  -4.4485557187016656e-01  -4.2195972218903915e-01  -3.9770341638850620e-01 
 -3.7254928465824066e-01  -3.4691728709830172e-01  -3.2118295384086004e-01  -2.9567663621253665e-01 
 -2.7068365961036900e-01  -2.4644526409807493e-01  -2.2316021739290476e-01  -2.0098698631539316e-01 
 -1.8004635636836330e-01  -1.6042439440709225e-01  -1.4217565594402296e-01  -1.2532654615445102e-01 
 -1.0987875183568974e-01  -9.5812670203267059e-02  -8.3090769307259532e-02  -7.1660823879581587e-02 
 -6.1458979454353829e-02  -5.2412606528901250e-02  -4.4442915199630263e-02  -3.7467309377408213e-02 
 -3.1401466914567508e-02  -2.6161140423319788e-02  -2.1663679549932313e-02  -1.7829281861117510e-02 
 -1.4581984688609806e-02  -1.1850414657501586e-02  -9.5683150998981184e-03  -7.6748741176815563e-03 
 -6.1148777209375730e-03  -4.8387132755246713e-03  -3.8022485093866442e-03  -2.9666106392363394e-03 
 -2.2978888893951249e-03  -1.7667818968777492e-03  -1.3482093500013757e-03  -1.0209048120822975e-03 
 -7.6700415141029246e-04  -5.7164143985319706e-04  -4.2256168799907043e-04  -3.0975743260565808e-04 
 -2.2513404334605750e-04  -1.6220671393501698e-04  -1.1583047461550606e-04  -8.1963219494518319e-05 
 -5.7460680538587230e-05  -3.9901485708340677e-05  -2.7439888729721227e-05  -1.8683422288763884e-05 
 -1.2592572496627051e-05  -8.3995652327518647e-06  -5.5434608873313835e-06  -3.6189415631635331e-06 
 -2.3364155392587520e-06  -1.4913340413619886e-06  -9.4089524208974321e-07  -5.8658498964214097e-07 
 -3.6126206318319498e-07  -2.1973052039395961e-07  -1.3194904929497020e-07  -7.8205538278656062e-08 
 -4.5734904405436100e-08  -2.6381336383953207e-08  -1.5005145272363458e-08  -8.4125871460462013e-09 
 -4.6474221306314079e-09  -2.5288950219343552e-09  -1.3549520594193232e-09  -7.1453818777611593e-10 
 -3.7073576110537297e-10  -1.8917599304910586e-10  -9.4896069975834251e-11  -4.6776388868008950e-11 
 -2.2647064030713590e-11  -1.0764613278639793e-11  -5.0213237359796804e-12  -2.2972724733931534e-12 
 -1.0303240926809997e-12  -4.5283599856465143e-13  -1.9498243233387076e-13  -8.2131041913557570e-14 
 -3.3846752870190319e-14  -1.3647279340667750e-14  -5.3798879437573314e-15  -2.0786580618761886e-15 
 -7.7060455719635847e-16  -2.7844885973807641e-16  -1.0047730476188574e-16  -4.5258715689204931e-17 
 -2.0357813368959107e-17  0.0000000000000000e+00  0.0000000000000000e+00  0.0000000000000000e+00 
 0.0000000000000000e+00  0.0000000000000000e+00  0.0000000000000000e+00  0.0000000000000000e+00 
 0.0000000000000000e+00  0.0000000000000000e+00  0.0000000000000000e+00  0.0000000000000000e+00 
 0.0000000000000000e+00  0.0000000000000000e+00  0.0000000000000000e+00  0.0000000000000000e+00 
 0.0000000000000000e+00  0.0000000000000000e+00  0.0000000000000000e+00  0.0000000000000000e+00 
 0.0000000000000000e+00  0.0000000000000000e+00  0.0000000000000000e+00  0.0000000000000000e+00 
 0.0000000000000000e+00  0.0000000000000000e+00  0.0000000000000000e+00  0.0000000000000000e+00 
 0.0000000000000000e+00  0.0000000000000000e+00  0.0000000000000000e+00  0.0000000000000000e+00 
 0.0000000000000000e+00  0.0000000000000000e+00  0.0000000000000000e+00  0.0000000000000000e+00 
 0.0000000000000000e+00  0.0000000000000000e+00  0.0000000000000000e+00  0.0000000000000000e+00 
 0.0000000000000000e+00  0.0000000000000000e+00  0.0000000000000000e+00  0.0000000000000000e+00 
 0.0000000000000000e+00  0.0000000000000000e+00  0.0000000000000000e+00  0.0000000000000000e+00 
 0.0000000000000000e+00  0.0000000000000000e+00  0.0000000000000000e+00  0.0000000000000000e+00 
 0.0000000000000000e+00  0.0000000000000000e+00  0.0000000000000000e+00  0.0000000000000000e+00 
 0.0000000000000000e+00  0.0000000000000000e+00  0.0000000000000000e+00  0.0000000000000000e+00 
 0.0000000000000000e+00  0.0000000000000000e+00  0.0000000000000000e+00  0.0000000000000000e+00 
 0.0000000000000000e+00  0.0000000000000000e+00  0.0000000000000000e+00  0.0000000000000000e+00 
 0.0000000000000000e+00  0.0000000000000000e+00  0.0000000000000000e+00  0.0000000000000000e+00 
 0.0000000000000000e+00  0.0000000000000000e+00  0.0000000000000000e+00  0.0000000000000000e+00 
 0.0000000000000000e+00  0.0000000000000000e+00  0.0000000000000000e+00  0.0000000000000000e+00 
 0.0000000000000000e+00  0.0000000000000000e+00  0.0000000000000000e+00  0.0000000000000000e+00 
 0.0000000000000000e+00  0.0000000000000000e+00  0.0000000000000000e+00  0.0000000000000000e+00 
 0.0000000000000000e+00  0.0000000000000000e+00  0.0000000000000000e+00  0.0000000000000000e+00 
 0.0000000000000000e+00  0.0000000000000000e+00  0.0000000000000000e+00  0.0000000000000000e+00 
 0.0000000000000000e+00  0.0000000000000000e+00  0.0000000000000000e+00  0.0000000000000000e+00 
 0.0000000000000000e+00  0.0000000000000000e+00  0.0000000000000000e+00  0.0000000000000000e+00 
 0.0000000000000000e+00  0.0000000000000000e+00  0.0000000000000000e+00  0.0000000000000000e+00 
 0.0000000000000000e+00  0.0000000000000000e+00  0.0000000000000000e+00  0.0000000000000000e+00 
 0.0000000000000000e+00  0.0000000000000000e+00  0.0000000000000000e+00  0.0000000000000000e+00 
 0.0000000000000000e+00  0.0000000000000000e+00  0.0000000000000000e+00  0.0000000000000000e+00 
 0.0000000000000000e+00  0.0000000000000000e+00  0.0000000000000000e+00  0.0000000000000000e+00 
 0.0000000000000000e+00  0.0000000000000000e+00  0.0000000000000000e+00  0.0000000000000000e+00 
 0.0000000000000000e+00  0.0000000000000000e+00  0.0000000000000000e+00  0.0000000000000000e+00 
 0.0000000000000000e+00  0.0000000000000000e+00  0.0000000000000000e+00  0.0000000000000000e+00 
 0.0000000000000000e+00  0.0000000000000000e+00  0.0000000000000000e+00  0.0000000000000000e+00 
 0.0000000000000000e+00  0.0000000000000000e+00  0.0000000000000000e+00  0.0000000000000000e+00 
 0.0000000000000000e+00  0.0000000000000000e+00  0.0000000000000000e+00  0.0000000000000000e+00 
 0.0000000000000000e+00  0.0000000000000000e+00  0.0000000000000000e+00  0.0000000000000000e+00 
 0.0000000000000000e+00  0.0000000000000000e+00  0.0000000000000000e+00  0.0000000000000000e+00 
 0.0000000000000000e+00  0.0000000000000000e+00  0.0000000000000000e+00  0.0000000000000000e+00 
 0.0000000000000000e+00  0.0000000000000000e+00  0.0000000000000000e+00  0.0000000000000000e+00 
 0.0000000000000000e+00  0.0000000000000000e+00  0.0000000000000000e+00  0.0000000000000000e+00 
 0.0000000000000000e+00  0.0000000000000000e+00  0.0000000000000000e+00  0.0000000000000000e+00 
 0.0000000000000000e+00  0.0000000000000000e+00  0.0000000000000000e+00  0.0000000000000000e+00 
 0.0000000000000000e+00  0.0000000000000000e+00  0.0000000000000000e+00  0.0000000000000000e+00 
 0.0000000000000000e+00  0.0000000000000000e+00  0.0000000000000000e+00  0.0000000000000000e+00 
 0.0000000000000000e+00  0.0000000000000000e+00  0.0000000000000000e+00  0.0000000000000000e+00 
 0.0000000000000000e+00  0.0000000000000000e+00  0.0000000000000000e+00  0.0000000000000000e+00 
 0.0000000000000000e+00  0.0000000000000000e+00  0.0000000000000000e+00  0.0000000000000000e+00 
 0.0000000000000000e+00  0.0000000000000000e+00  0.0000000000000000e+00  0.0000000000000000e+00 
 0.0000000000000000e+00  0.0000000000000000e+00  0.0000000000000000e+00  0.0000000000000000e+00 
 0.0000000000000000e+00  0.0000000000000000e+00  0.0000000000000000e+00  0.0000000000000000e+00 
 0.0000000000000000e+00  0.0000000000000000e+00  0.0000000000000000e+00  0.0000000000000000e+00 
 0.0000000000000000e+00  0.0000000000000000e+00  0.0000000000000000e+00  0.0000000000000000e+00 
 0.0000000000000000e+00  0.0000000000000000e+00  0.0000000000000000e+00  0.0000000000000000e+00 
 0.0000000000000000e+00  0.0000000000000000e+00  0.0000000000000000e+00  0.0000000000000000e+00 
 0.0000000000000000e+00  0.0000000000000000e+00  0.0000000000000000e+00  0.0000000000000000e+00 
 0.0000000000000000e+00  0.0000000000000000e+00  0.0000000000000000e+00  0.0000000000000000e+00 
 0.0000000000000000e+00  0.0000000000000000e+00  0.0000000000000000e+00  0.0000000000000000e+00 
 0.0000000000000000e+00  0.0000000000000000e+00  0.0000000000000000e+00  0.0000000000000000e+00 
 0.0000000000000000e+00  0.0000000000000000e+00  0.0000000000000000e+00  0.0000000000000000e+00 
 0.0000000000000000e+00  0.0000000000000000e+00  0.0000000000000000e+00  0.0000000000000000e+00 
 0.0000000000000000e+00  0.0000000000000000e+00  0.0000000000000000e+00  0.0000000000000000e+00 
 0.0000000000000000e+00  0.0000000000000000e+00  0.0000000000000000e+00  0.0000000000000000e+00 
 0.0000000000000000e+00  0.0000000000000000e+00  0.0000000000000000e+00  0.0000000000000000e+00 
 0.0000000000000000e+00  0.0000000000000000e+00  0.0000000000000000e+00  0.0000000000000000e+00 
 0.0000000000000000e+00  0.0000000000000000e+00  0.0000000000000000e+00  0.0000000000000000e+00 
 0.0000000000000000e+00  0.0000000000000000e+00  0.0000000000000000e+00  0.0000000000000000e+00 
 0.0000000000000000e+00  0.0000000000000000e+00  0.0000000000000000e+00 
  </PP_BETA>
  <PP_BETA>
  2  1      Beta    L
  1187  
 -1.6280083791117342e-09  -1.6708916650679918e-09  -1.7149045375105717e-09  -1.7600767508221296e-09 
 -1.8064388431441454e-09  -1.8540221570218935e-09  -1.9028588605932089e-09  -1.9529819693353909e-09 
 -2.0044253683849345e-09  -2.0572238354451877e-09  -2.1114130642974347e-09  -2.1670296889312497e-09 
 -2.2241113083105071e-09  -2.2826965117917187e-09  -2.3428249052119404e-09  -2.4045371376638473e-09 
 -2.4678749289760872e-09  -2.5328810979175033e-09  -2.5995995911442750e-09  -2.6680755129095683e-09 
 -2.7383551555557451e-09  -2.8104860308097906e-09  -2.8845169019030851e-09  -2.9604978165372231e-09 
 -3.0384801407182267e-09  -3.1185165934819378e-09  -3.2006612825341537e-09  -3.2849697408295155e-09 
 -3.3714989641139647e-09  -3.4603074494560862e-09  -3.5514552347933935e-09  -3.6450039395203096e-09 
 -3.7410168061452974e-09  -3.8395587430452490e-09  -3.9406963683460805e-09  -4.0444980549591931e-09 
 -4.1510339768042322e-09  -4.2603761562493931e-09  -4.3725985128013635e-09  -4.4877769130778283e-09 
 -4.6059892220962208e-09  -4.7273153559135956e-09  -4.8518373356529672e-09  -4.9796393429528271e-09 
 -5.1108077768772514e-09  -5.2454313123250484e-09  -5.3836009599774987e-09  -5.5254101278251472e-09 
 -5.6709546843152978e-09  -5.8203330231628675e-09  -5.9736461298684240e-09  -6.1309976499883753e-09 
 -6.2924939592034833e-09  -6.4582442352330037e-09  -6.6283605316432077e-09  -6.8029578535999897e-09 
 -6.9821542356169740e-09  -7.1660708213515207e-09  -7.3548319455026576e-09  -7.5485652178663293e-09 
 -7.7474016096046741e-09  -7.9514755417878201e-09  -8.1609249762678329e-09  -8.3758915089465408e-09 
 -8.5965204654999843e-09  -8.8229609996244515e-09  -9.0553661938703749e-09  -9.2938931631322965e-09 
 -9.5387031608648543e-09  -9.7899616880967367e-09  -1.0047838605315927e-08  -1.0312508247302401e-08 
 -1.0584149540985478e-08  -1.0862946126405697e-08  -1.1149086480862975e-08  -1.1442764046334957e-08 
 -1.1744177360251710e-08  -1.2053530189715150e-08  -1.2371031669253985e-08  -1.2696896442207205e-08 
 -1.3031344805831881e-08  -1.3374602860233194e-08  -1.3726902661217428e-08  -1.4088482377171336e-08 
 -1.4459586450073864e-08  -1.4840465760749137e-08  -1.5231377798472297e-08  -1.5632586835043049e-08 
 -1.6044364103444552e-08  -1.6466987981208211e-08  -1.6900744178608601e-08  -1.7345925931815844e-08 
 -1.7802834201135458e-08  -1.8271777874470477e-08  -1.8753073976142728e-08  -1.9247047881214855e-08 
 -1.9754033535457764e-08  -2.0274373681112269e-08  -2.0808420088597755e-08  -2.1356533794323891e-08 
 -2.1919085344767241e-08  -2.2496455046976508e-08  -2.3089033225676821e-08  -2.3697220487146311e-08 
 -2.4321427990043466e-08  -2.4962077723368619e-08  -2.5619602791747126e-08  -2.6294447708227277e-08 
 -2.6987068694790866e-08  -2.7697933990779867e-08  -2.8427524169446958e-08  -2.9176332462844974e-08 
 -2.9944865095273857e-08  -3.0733641625511488e-08  -3.1543195298058982e-08  -3.2374073403638446e-08 
 -3.3226837649186765e-08  -3.4102064537595424e-08  -3.5000345757453161e-08  -3.5922288583055309e-08 
 -3.6868516284949429e-08  -3.7839668551295801e-08  -3.8836401920326797e-08  -3.9859390224198006e-08 
 -4.0909325044531136e-08  -4.1986916179956422e-08  -4.3092892125970706e-08  -4.4228000567436117e-08 
 -4.5393008884051401e-08  -4.6588704669138525e-08  -4.7815896262094780e-08  -4.9075413294870311e-08 
 -5.0368107252841250e-08  -5.1694852050456283e-08  -5.3056544622047831e-08  -5.4454105528204971e-08 
 -5.5888479578120072e-08  -5.7360636468328583e-08  -5.8871571438274737e-08  -6.0422305943145317e-08 
 -6.2013888344427875e-08  -6.3647394618658757e-08  -6.5323929084840902e-08  -6.7044625151023637e-08 
 -6.8810646080548048e-08  -7.0623185778477071e-08  -7.2483469598741447e-08  -7.4392755172547753e-08 
 -7.6352333258607336e-08  -7.8363528615763420e-08  -8.0427700898603444e-08  -8.2546245576664205e-08 
 -8.4720594877851001e-08  -8.6952218756708007e-08  -8.9242625888194728e-08  -9.1593364687641188e-08 
 -9.4006024357569727e-08  -9.6482235962094044e-08  -9.9023673529619148e-08  -1.0163205518458825e-07 
 -1.0430914430904428e-07  -1.0705675073478782e-07  -1.0987673196694020e-07  -1.1277099443973759e-07 
 -1.1574149480540648e-07  -1.1879024125699017e-07  -1.2191929488602267e-07  -1.2513077107596676e-07 
 -1.2842684093235888e-07  -1.3180973275062760e-07  -1.3528173352257797e-07  -1.3884519048256200e-07 
 -1.4250251269437772e-07  -1.4625617267997266e-07  -1.5010870809105179e-07  -1.5406272342472029e-07 
 -1.5812089178432153e-07  -1.6228595668665989e-07  -1.6656073391683285e-07  -1.7094811343192387e-07 
 -1.7545106131484459e-07  -1.8007262177964801e-07  -1.8481591922966756e-07  -1.8968416036987461e-07 
 -1.9468063637488352e-07  -1.9980872511406680e-07  -2.0507189343529048e-07  -2.1047369950880928e-07 
 -2.1601779523291052e-07  -2.2170792870292847e-07  -2.2754794674530494e-07  -2.3354179751840507e-07 
 -2.3969353318184898e-07  -2.4600731263616564e-07  -2.5248740433461895e-07  -2.5913818916910862e-07 
 -2.6596416343210025e-07  -2.7296994185658270e-07  -2.8016026073611423e-07  -2.8753998112706281e-07 
 -2.9511409213520787e-07  -3.0288771428892903e-07  -3.1086610300125798e-07  -3.1905465212314141e-07 
 -3.2745889759030903e-07  -3.3608452116622626e-07  -3.4493735428364873e-07  -3.5402338198738871e-07 
 -3.6334874698095398e-07  -3.7291975377979651e-07  -3.8274287297398464e-07  -3.9282474560317465e-07 
 -4.0317218764684938e-07  -4.1379219463285343e-07  -4.2469194636734923e-07  -4.3587881178938752e-07 
 -4.4736035395338044e-07  -4.5914433514284466e-07  -4.7123872211887885e-07  -4.8365169150691630e-07 
 -4.9639163532541033e-07  -5.0946716666017934e-07  -5.2288712548826049e-07  -5.3666058465520491e-07 
 -5.5079685600986456e-07  -5.6530549670081721e-07  -5.8019631563868809e-07  -5.9547938012874870e-07 
 -6.1116502267826611e-07  -6.2726384798322944e-07  -6.4378674009915786e-07  -6.6074486980085896e-07 
 -6.7814970213611332e-07  -6.9601300417839227e-07  -7.1434685298385874e-07  -7.3316364375803908e-07 
 -7.5247609823768698e-07  -7.7229727329351042e-07  -7.9264056975959441e-07  -8.1351974149548405e-07 
 -8.3494890468706664e-07  -8.5694254739254553e-07  -8.7951553933996890e-07  -9.0268314198294827e-07 
 -9.2646101882136582e-07  -9.5086524599405997e-07  -9.7591232315066426e-07  -1.0016191846099580e-06 
 -1.0280032108122709e-06  -1.0550822400737211e-06  -1.0828745806502142e-06  -1.1113990231193899e-06 
 -1.1406748530889057e-06  -1.1707218642396451e-06  -1.2015603717126899e-06  -1.2332112258491224e-06 
 -1.2656958262919791e-06  -1.2990361364598662e-06  -1.3332546984020863e-06  -1.3683746480452981e-06 
 -1.4044197308420652e-06  -1.4414143178318770e-06  -1.4793834221255300e-06  -1.5183527158240432e-06 
 -1.5583485473835306e-06  -1.5993979594378737e-06  -1.6415287070911743e-06  -1.6847692766924732e-06 
 -1.7291489051053829e-06  -1.7746975994857507e-06  -1.8214461575807104e-06  -1.8694261885629247e-06 
 -1.9186701344141011e-06  -1.9692112918722878e-06  -2.0210838349578630e-06  -2.0743228380934267e-06 
 -2.1289642998333229e-06  -2.1850451672188588e-06  -2.2426033607757465e-06  -2.3016778001707100e-06 
 -2.3623084305446673e-06  -2.4245362495403489e-06  -2.4884033350426736e-06  -2.5539528736507382e-06 
 -2.6212291899006814e-06  -2.6902777762593028e-06  -2.7611453239087684e-06  -2.8338797543432895e-06 
 -2.9085302517992369e-06  -2.9851472965407103e-06  -3.0637826990231069e-06  -3.1444896349579676e-06 
 -3.2273226813028507e-06  -3.3123378532006994e-06  -3.3995926418937687e-06  -3.4891460536379279e-06 
 -3.5810586496436630e-06  -3.6753925870710660e-06  -3.7722116611065321e-06  -3.8715813481498444e-06 
 -3.9735688501409614e-06  -4.0782431400566847e-06  -4.1856750086081065e-06  -4.2959371121705761e-06 
 -4.4091040219788304e-06  -4.5252522746207667e-06  -4.6444604238641111e-06  -4.7668090938513813e-06 
 -4.8923810336992317e-06  -5.0212611735394467e-06  -5.1535366820396561e-06  -5.2892970254429855e-06 
 -5.4286340281668581e-06  -5.5716419350021899e-06  -5.7184174749554106e-06  -5.8690599267767605e-06 
 -6.0236711862195805e-06  -6.1823558350764492e-06  -6.3452212120391923e-06  -6.5123774854311525e-06 
 -6.6839377278613307e-06  -6.8600179928513329e-06  -7.0407373934874410e-06  -7.2262181831514630e-06 
 -7.4165858383855905e-06  -7.6119691439477703e-06  -7.8125002801157542e-06  -8.0183149122995268e-06 
 -8.2295522830233016e-06  -8.4463553063400799e-06  -8.6688706647432956e-06  -8.8972489086418833e-06 
 -9.1316445584668888e-06  -9.3722162094794711e-06  -9.6191266393522019e-06  -9.8725429185972336e-06 
 -1.0132636523917183e-05  -1.0399583454556251e-05  -1.0673564351731711e-05  -1.0954764621227323e-05 
 -1.1243374559233185e-05  -1.1539589481518187e-05  -1.1843609856023988e-05  -1.2155641438971562e-05 
 -1.2475895414573888e-05  -1.2804588538450982e-05  -1.3141943284845921e-05  -1.3488187997743101e-05 
 -1.3843557045993187e-05  -1.4208290982551192e-05  -1.4582636707937942e-05  -1.4966847638037307e-05 
 -1.5361183876345381e-05  -1.5765912390790282e-05  -1.6181307195244970e-05  -1.6607649535858461e-05 
 -1.7045228082334324e-05  -1.7494339124289118e-05  -1.7955286772826392e-05  -1.8428383167466255e-05 
 -1.8913948688573967e-05  -1.9412312175434852e-05  -1.9923811150127188e-05  -2.0448792047348503e-05 
 -2.0987610450355027e-05  -2.1540631333178895e-05  -2.2108229309291240e-05  -2.2690788886884957e-05 
 -2.3288704730955041e-05  -2.3902381932359317e-05  -2.4532236284047912e-05  -2.5178694564654206e-05 
 -2.5842194829646087e-05  -2.6523186710241265e-05  -2.7222131720296320e-05  -2.7939503571384849e-05 
 -2.8675788496285970e-05  -2.9431485581110782e-05  -3.0207107106300328e-05  -3.1003178896735724e-05 
 -3.1820240681206780e-05  -3.2658846461493784e-05  -3.3519564891322367e-05  -3.4402979665460266e-05 
 -3.5309689919231801e-05  -3.6240310638732644e-05  -3.7195473082037160e-05  -3.8175825211697118e-05 
 -3.9182032138840158e-05  -4.0214776579184420e-05  -4.1274759321294743e-05  -4.2362699707415684e-05 
 -4.3479336127224824e-05  -4.4625426524861092e-05  -4.5801748919591413e-05  -4.7009101940490740e-05 
 -4.8248305375519952e-05  -4.9520200735397922e-05  -5.0825651832675173e-05  -5.2165545376428154e-05 
 -5.3540791583004764e-05  -5.4952324803265384e-05  -5.6401104166775077e-05  -5.7888114243416910e-05 
 -5.9414365722908349e-05  -6.0980896112719784e-05  -6.2588770454904144e-05  -6.4239082062366294e-05 
 -6.5932953275113068e-05  -6.7671536237040526e-05  -6.9456013693834810e-05  -7.1287599812575636e-05 
 -7.3167541023651185e-05  -7.5097116885610975e-05  -7.7077640973601433e-05  -7.9110461792048550e-05 
 -8.1196963712270291e-05  -8.3338567935724932e-05  -8.5536733483618327e-05  -8.7792958213619700e-05 
 -9.0108779864453206e-05  -9.2485777129160251e-05  -9.4925570757847807e-05  -9.7429824690765173e-05 
 -1.0000024722257716e-04  -1.0263859219872584e-04  -1.0534666024480390e-04  -1.0812630002988844e-04 
 -1.1097940956481394e-04  -1.1390793753639402e-04  -1.1691388467863266e-04  -1.1999930518199641e-04 
 -1.2316630814185702e-04  -1.2641705904724250e-04  -1.2975378131107606e-04  -1.3317875784311589e-04 
 -1.3669433266684980e-04  -1.4030291258163561e-04  -1.4400696887142381e-04  -1.4780903906143686e-04 
 -1.5171172872422705e-04  -1.5571771333658052e-04  -1.5982974018877993e-04  -1.6405063034779144e-04 
 -1.6838328067599029e-04  -1.7283066590709166e-04  -1.7739584078101025e-04  -1.8208194223942904e-04 
 -1.8689219168391283e-04  -1.9182989729847076e-04  -1.9689845643852807e-04  -2.0210135808833651e-04 
 -2.0744218538892487e-04  -2.1292461823875221e-04  -2.1855243596931623e-04  -2.2432952009802319e-04 
 -2.3025985716073417e-04  -2.3634754162645444e-04  -2.4259677889674385e-04  -2.4901188839250354e-04 
 -2.5559730673088260e-04  -2.6235759099516270e-04  -2.6929742210055481e-04  -2.7642160825896918e-04 
 -2.8373508854591389e-04  -2.9124293657279370e-04  -2.9895036426800430e-04  -3.0686272577032690e-04 
 -3.1498552143827244e-04  -3.2332440197913774e-04  -3.3188517270169276e-04  -3.4067379789654679e-04 
 -3.4969640534840207e-04  -3.5895929098454858e-04  -3.6846892366412917e-04  -3.7823195011286418e-04 
 -3.8825520000809754e-04  -3.9854569121922833e-04  -4.0911063520876202e-04  -4.1995744259942921e-04 
 -4.3109372891302847e-04  -4.4252732048685571e-04  -4.5426626057382829e-04  -4.6631881563263355e-04 
 -4.7869348181448304e-04  -4.9139899165332303e-04  -5.0444432096660198e-04  -5.1783869597399692e-04 
 -5.3159160064178423e-04  -5.4571278426084882e-04  -5.6021226926665122e-04  -5.7510035930980602e-04 
 -5.9038764758627806e-04  -6.0608502543656228e-04  -6.2220369122360862e-04  -6.3875515949964577e-04 
 -6.5575127047248847e-04  -6.7320419978232952e-04  -6.9112646860051107e-04  -7.0953095406221681e-04 
 -7.2843090004555812e-04  -7.4783992831003272e-04  -7.6777205000789443e-04  -7.8824167758256684e-04 
 -8.0926363706879524e-04  -8.3085318080992497e-04  -8.5302600060829315e-04  -8.7579824132547697e-04 
 -8.9918651494982590e-04  -9.2320791514948722e-04  -9.4788003232994299e-04  -9.7322096921589245e-04 
 -9.9924935697822174e-04  -1.0259843719277047e-03  -1.0534457527980488e-03  -1.0816538186419371e-03 
 -1.1106294873647446e-03  -1.1403942949217705e-03  -1.1709704152059503e-03  -1.2023806806542954e-03 
 -1.2346486036025513e-03  -1.2677983984189618e-03  -1.3018550044494224e-03  -1.3368441098078128e-03 
 -1.3727921760468853e-03  -1.4097264637466921e-03  -1.4476750590593124e-03  -1.4866669012504445e-03 
 -1.5267318112803421e-03  -1.5679005214685523e-03  -1.6102047062891024e-03  -1.6536770143449153e-03 
 -1.6983511015726477e-03  -1.7442616657315109e-03  -1.7914444822323321e-03  -1.8399364413656943e-03 
 -1.8897755869909676e-03  -1.9410011567509665e-03  -1.9936536238801686e-03  -2.0477747406777249e-03 
 -2.1034075837200353e-03  -2.1605966008912633e-03  -2.2193876603141260e-03  -2.2798281012673216e-03 
 -2.3419667871802156e-03  -2.4058541608000276e-03  -2.4715423016313941e-03  -2.5390849857532807e-03 
 -2.6085377481234288e-03  -2.6799579474861336e-03  -2.7534048340049303e-03  -2.8289396197479950e-03 
 -2.9066255521604948e-03  -2.9865279906650098e-03  -3.0687144865383202e-03  -3.1532548662204438e-03 
 -3.2402213182198421e-03  -3.3296884837870936e-03  -3.4217335515382345e-03  -3.5164363562183911e-03 
 -3.6138794818060603e-03  -3.7141483691689671e-03  -3.8173314284932797e-03  -3.9235201567195538e-03 
 -4.0328092602310538e-03  -4.1452967830527786e-03  -4.2610842408333143e-03  -4.3802767608957655e-03 
 -4.5029832286590807e-03  -4.6293164407471971e-03  -4.7593932651199882e-03  -4.8933348085777300e-03 
 -5.0312665920096344e-03  -5.1733187337764464e-03  -5.3196261416380512e-03  -5.4703287136587918e-03 
 -5.6255715485465027e-03  -5.7855051659053752e-03  -5.9502857369087524e-03  -6.1200753259248513e-03 
 -6.2950421436572049e-03  -6.4753608123915415e-03  -6.6612126439730430e-03  -6.8527859311710423e-03 
 -7.0502762531239500e-03  -7.2538867955944698e-03  -7.4638286868044662e-03  -7.6803213496604641e-03 
 -7.9035928712244425e-03  -8.1338803903309841e-03  -8.3714305043001858e-03  -8.6164996957472824e-03 
 -8.8693547805439258e-03  -9.1302733780429628e-03  -9.3995444047387522e-03  -9.6774685925980937e-03 
 -9.9643590333635505e-03  -1.0260541750200998e-02  -1.0566356298137161e-02  -1.0882156394810402e-02 
 -1.1208310583139813e-02  -1.1545202927603781e-02  -1.1893233745909150e-02  -1.2252820377927607e-02 
 -1.2624397993875205e-02  -1.3008420443816044e-02  -1.3405361150680868e-02  -1.3815714049106932e-02 
 -1.4239994572526091e-02  -1.4678740691055261e-02  -1.5132514002875476e-02  -1.5601900881925198e-02 
 -1.6087513684878312e-02  -1.6589992020528913e-02  -1.7110004084863201e-02  -1.7648248065263820e-02 
 -1.8205453617463740e-02  -1.8782383419044996e-02  -1.9379834803463961e-02  -1.9998641478775992e-02 
 -2.0639675335432969e-02  -2.1303848347731483e-02  -2.1992114573703293e-02  -2.2705472258456545e-02 
 -2.3444966046202054e-02  -2.4211689306427354e-02  -2.5006786579915358e-02  -2.5831456150543605e-02 
 -2.6686952749039688e-02  -2.7574590395111773e-02  -2.8495745384616761e-02  -2.9451859428669850e-02 
 -3.0444442951838513e-02  -3.1475078556798840e-02  -3.2545424663055419e-02  -3.3657219327545194e-02 
 -3.4812284255142531e-02  -3.6012529007269291e-02  -3.7259955416971864e-02  -3.8556662218960973e-02 
 -3.9904849903208681e-02  -4.1306825800755460e-02  -4.2765009410391908e-02  -4.4281937974833138e-02 
 -4.5860272314892717e-02  -4.7502802929973137e-02  -4.9212456372912924e-02  -5.0992301906845373e-02 
 -5.2845558451226599e-02  -5.4775601823549985e-02  -5.6785972282471606e-02  -5.8880382377099007e-02 
 -6.1062725106021967e-02  -6.3337082388259081e-02  -6.5707733846630978e-02  -6.8179165902113828e-02 
 -7.0756081175436594e-02  -7.3443408189529436e-02  -7.6246311363348820e-02  -7.9170201284060895e-02 
 -8.2220745240497967e-02  -8.5403877996144822e-02  -8.8725812774613791e-02  -9.2193052424533434e-02 
 -9.5812400723948379e-02  -9.9590973776600630e-02  -1.0353621144375641e-01  -1.0765588874544281e-01 
 -1.1195812715396113e-01  -1.1645140569022808e-01  -1.2114457171972615e-01  -1.2604685132949833e-01 
 -1.3116785915053161e-01  -1.3651760747090039e-01  -1.4210651446401310e-01  -1.4794541133304440e-01 
 -1.5404554814697249e-01  -1.6041859811537679e-01  -1.6707666001809945e-01  -1.7403225847184281e-01 
 -1.8129834167855741e-01  -1.8888827625988397e-01  -1.9681583873776923e-01  -2.0509520317347799e-01 
 -2.1374092442544826e-01  -2.2276791643060601e-01  -2.3219142485380354e-01  -2.4202699338588132e-01 
 -2.5229042290247444e-01  -2.6299772262314086e-01  -2.7416505233382649e-01  -2.8580865465530236e-01 
 -2.9794477625638438e-01  -3.1058957682395100e-01  -3.2375902451263860e-01  -3.3746877650649404e-01 
 -3.5173404323379365e-01  -3.6656943468607084e-01  -3.8198878720469193e-01  -3.9800496901499932e-01 
 -4.1462966271144336e-01  -4.3187312282990031e-01  -4.4974390658874414e-01  -4.6824857584182233e-01 
 -4.8739136826853874e-01  -5.0717383583354914e-01  -5.2759444858658144e-01  -5.4864816194765542e-01 
 -5.7032594574139328e-01  -5.9261427341348627e-01  -6.1549457009113007e-01  -6.3894261844597111e-01 
 -6.6292792169255788e-01  -6.8741302351729738e-01  -7.1235278529311263e-01  -7.3769362160407337e-01 
 -7.6337269589307089e-01  -7.8931707896487091e-01  -8.1544287413667593e-01  -8.4165431403790125e-01 
 -8.6784283542816221e-01  -8.9388613993322508e-01  -9.1964725029636685e-01  -9.4497357360694856e-01 
 -9.6969598499505294e-01  -9.9362794746114769e-01  -1.0165646858278423e+00  -1.0382824352339906e+00 
 -1.0585377871093233e+00  -1.0770671581300446e+00  -1.0935864102121124e+00  -1.1077906520879706e+00 
 -1.1193542553594817e+00  -1.1279311200393383e+00  -1.1331552263848248e+00  -1.1346415111794270e+00 
 -1.1319871074045378e+00  -1.1247729863293534e+00  -1.1125660402870694e+00  -1.0949216426479131e+00 
 -1.0713867185901214e+00  -1.0415033560560072e+00  -1.0048129806170427e+00  -9.6086111072830249e-01 
 -9.0920270092060096e-01  -8.4940806978092431e-01  -7.8106939707074530e-01  -7.0380776004338330e-01 
 -6.1728066302034512e-01  -5.2118999672305411e-01  -4.1529034496006317e-01  -2.9939753636614536e-01 
 -1.7339731840043143e-01  -3.7254010263743698e-02  1.0898102857454010e-01  2.6516129620462559e-01 
 4.3103761092898896e-01  6.0625135064728597e-01  7.9032869027769836e-01  9.8267606287242926e-01 
 1.1825770684150962e+00  1.3891910456915710e+00  1.6015535063561033e+00  1.8185786058636046e+00 
 2.0390637931420250e+00  2.2616967400110819e+00  2.4850646032178663e+00  2.7076656179390595e+00 
 2.9279229636439488e+00  3.1442007837418595e+00  3.3548221821395914e+00  3.5580889653625491e+00 
 3.7523028505057847e+00  3.9357878184820216e+00  4.1069132593082678e+00  4.2641175308944614e+00 
 4.4059315333640132e+00  4.5310018851307010e+00  4.6381132725104885e+00  4.7262095299450344e+00 
 4.7944129927979029e+00  4.8420416512458075e+00  4.8686236269231653e+00  4.8739085012613002e+00 
 4.8578750548682645e+00  4.8207350386350969e+00  4.7629326930086382e+00  4.6851398588485447e+00 
 4.5882466715327634e+00  4.4733479853096441e+00  4.3417258228787254e+00  4.1948282746245189e+00 
 4.0342453765423896e+00  3.8616825740080625e+00  3.6789324317184642e+00  3.4878452816470387e+00 
 3.2902995144127138e+00  3.0881722180199738e+00  2.8833108524469626e+00  2.6775066168781958e+00 
 2.4724701131393627e+00  2.2698098275382801e+00  2.0710138402585887e+00  1.8774350306014997e+00 
 1.6902798909018013e+00  1.5106009112834027e+00  1.3392923736208053e+00  1.1770893105161686e+00 
 1.0245692139553575e+00  8.8215637309742945e-01  7.5012832634727633e-01  6.2862411871072166e-01 
 5.1765407477829806e-01  4.1711076025145921e-01  3.2678082685364873e-01  2.4635745005775606e-01 
 1.7545308561267706e-01  1.1361229129072430e-01  6.0324384475709300e-02  1.5035733399662356e-02 
 -2.2838491136286585e-02  -5.3903247119939116e-02  -7.8773350321356447e-02  -9.8064088001715552e-02 
 -1.1238277911983585e-01  -1.2232132005182317e-01  -1.2844973470238064e-01  -1.3131073028035195e-01 
 -1.3141524470788740e-01  -1.2923895833881019e-01  -1.2521973107894149e-01  -1.1975591586733721e-01 
 -1.1320549060016534e-01  -1.0588594284762279e-01  -9.8074835102863370e-02  -9.0010972856646457e-02 
 -8.1896093611677628e-02  -7.3896992163125660e-02  -6.6147996204418705e-02  -5.8753706672883071e-02 
 -5.1791919281977704e-02  -4.5316647389773375e-02  -3.9361171646265951e-02  -3.3941048592248918e-02 
 -2.9057018330482753e-02  -2.4697760278252184e-02  -2.0842455522521224e-02  -1.7463124096648162e-02 
 -1.4526715223913881e-02  -1.1996938047939634e-02  -9.8358287830550371e-03  -8.0050584113472035e-03 
 -6.4669914338964414e-03  -5.1855118012286410e-03  -4.1266363339372523e-03  -3.2589388818956844e-03 
 -2.5538101914724079e-03  -1.9855790573222953e-03  -1.5315199654209156e-03  -1.1717712495054133e-03 
 -8.8918595810682816e-04  -6.6913534192116451e-04  -4.9928229181375869e-04  -3.6933934273909280e-04 
 -2.7082314477330945e-04  -1.9681470177334309e-04  -1.4173227811134913e-04  -1.0112173570137799e-04 
 -7.1467224355053360e-05  -5.0023623744794020e-05  -3.4670922214356636e-05  -2.3789798486364524e-05 
 -1.6157019456928440e-05  -1.0858845297170884e-05  -7.2204039120028081e-06  -4.7489214663572617e-06 
 -3.0887368850952468e-06  -1.9861523704265048e-06  -1.2623495996546847e-06  -7.9280835502522473e-07 
 -4.9188161124096785e-07  -3.0139443446571811e-07  -1.8233359857221085e-07  -1.0887434749117845e-07 
 -6.4147284947878913e-08  -3.7280963512101846e-08  -2.1365354839719585e-08  -1.2069823409483897e-08 
 -6.7190632873237400e-09  -3.6844978160636320e-09  -1.9895259396089392e-09  -1.0574453445420566e-09 
 -5.5301128899498310e-10  -2.8444857735463294e-10  -1.4384237814129988e-10  -7.1482483423090192e-11 
 -3.4894132743833328e-11  -1.6724230547777930e-11  -7.8668911992461102e-12  -3.6298292246469854e-12 
 -1.6419550854772409e-12  -7.2791621165554828e-13  -3.1617597799032973e-13  -1.3436129699214977e-13 
 -5.5867403768179295e-14  -2.2730237503122642e-14  -9.0425301640258402e-15  -3.5261575452945931e-15 
 -1.3194589621905947e-15  -4.8128221273760944e-16  -1.7533049757812367e-16  -7.9739329768000913e-17 
 -3.6218360072899313e-17  0.0000000000000000e+00  0.0000000000000000e+00  0.0000000000000000e+00 
 0.0000000000000000e+00  0.0000000000000000e+00  0.0000000000000000e+00  0.0000000000000000e+00 
 0.0000000000000000e+00  0.0000000000000000e+00  0.0000000000000000e+00  0.0000000000000000e+00 
 0.0000000000000000e+00  0.0000000000000000e+00  0.0000000000000000e+00  0.0000000000000000e+00 
 0.0000000000000000e+00  0.0000000000000000e+00  0.0000000000000000e+00  0.0000000000000000e+00 
 0.0000000000000000e+00  0.0000000000000000e+00  0.0000000000000000e+00  0.0000000000000000e+00 
 0.0000000000000000e+00  0.0000000000000000e+00  0.0000000000000000e+00  0.0000000000000000e+00 
 0.0000000000000000e+00  0.0000000000000000e+00  0.0000000000000000e+00  0.0000000000000000e+00 
 0.0000000000000000e+00  0.0000000000000000e+00  0.0000000000000000e+00  0.0000000000000000e+00 
 0.0000000000000000e+00  0.0000000000000000e+00  0.0000000000000000e+00  0.0000000000000000e+00 
 0.0000000000000000e+00  0.0000000000000000e+00  0.0000000000000000e+00  0.0000000000000000e+00 
 0.0000000000000000e+00  0.0000000000000000e+00  0.0000000000000000e+00  0.0000000000000000e+00 
 0.0000000000000000e+00  0.0000000000000000e+00  0.0000000000000000e+00  0.0000000000000000e+00 
 0.0000000000000000e+00  0.0000000000000000e+00  0.0000000000000000e+00  0.0000000000000000e+00 
 0.0000000000000000e+00  0.0000000000000000e+00  0.0000000000000000e+00  0.0000000000000000e+00 
 0.0000000000000000e+00  0.0000000000000000e+00  0.0000000000000000e+00  0.0000000000000000e+00 
 0.0000000000000000e+00  0.0000000000000000e+00  0.0000000000000000e+00  0.0000000000000000e+00 
 0.0000000000000000e+00  0.0000000000000000e+00  0.0000000000000000e+00  0.0000000000000000e+00 
 0.0000000000000000e+00  0.0000000000000000e+00  0.0000000000000000e+00  0.0000000000000000e+00 
 0.0000000000000000e+00  0.0000000000000000e+00  0.0000000000000000e+00  0.0000000000000000e+00 
 0.0000000000000000e+00  0.0000000000000000e+00  0.0000000000000000e+00  0.0000000000000000e+00 
 0.0000000000000000e+00  0.0000000000000000e+00  0.0000000000000000e+00  0.0000000000000000e+00 
 0.0000000000000000e+00  0.0000000000000000e+00  0.0000000000000000e+00  0.0000000000000000e+00 
 0.0000000000000000e+00  0.0000000000000000e+00  0.0000000000000000e+00  0.0000000000000000e+00 
 0.0000000000000000e+00  0.0000000000000000e+00  0.0000000000000000e+00  0.0000000000000000e+00 
 0.0000000000000000e+00  0.0000000000000000e+00  0.0000000000000000e+00  0.0000000000000000e+00 
 0.0000000000000000e+00  0.0000000000000000e+00  0.0000000000000000e+00  0.0000000000000000e+00 
 0.0000000000000000e+00  0.0000000000000000e+00  0.0000000000000000e+00  0.0000000000000000e+00 
 0.0000000000000000e+00  0.0000000000000000e+00  0.0000000000000000e+00  0.0000000000000000e+00 
 0.0000000000000000e+00  0.0000000000000000e+00  0.0000000000000000e+00  0.0000000000000000e+00 
 0.0000000000000000e+00  0.0000000000000000e+00  0.0000000000000000e+00  0.0000000000000000e+00 
 0.0000000000000000e+00  0.0000000000000000e+00  0.0000000000000000e+00  0.0000000000000000e+00 
 0.0000000000000000e+00  0.0000000000000000e+00  0.0000000000000000e+00  0.0000000000000000e+00 
 0.0000000000000000e+00  0.0000000000000000e+00  0.0000000000000000e+00  0.0000000000000000e+00 
 0.0000000000000000e+00  0.0000000000000000e+00  0.0000000000000000e+00  0.0000000000000000e+00 
 0.0000000000000000e+00  0.0000000000000000e+00  0.0000000000000000e+00  0.0000000000000000e+00 
 0.0000000000000000e+00  0.0000000000000000e+00  0.0000000000000000e+00  0.0000000000000000e+00 
 0.0000000000000000e+00  0.0000000000000000e+00  0.0000000000000000e+00  0.0000000000000000e+00 
 0.0000000000000000e+00  0.0000000000000000e+00  0.0000000000000000e+00  0.0000000000000000e+00 
 0.0000000000000000e+00  0.0000000000000000e+00  0.0000000000000000e+00  0.0000000000000000e+00 
 0.0000000000000000e+00  0.0000000000000000e+00  0.0000000000000000e+00  0.0000000000000000e+00 
 0.0000000000000000e+00  0.0000000000000000e+00  0.0000000000000000e+00  0.0000000000000000e+00 
 0.0000000000000000e+00  0.0000000000000000e+00  0.0000000000000000e+00  0.0000000000000000e+00 
 0.0000000000000000e+00  0.0000000000000000e+00  0.0000000000000000e+00  0.0000000000000000e+00 
 0.0000000000000000e+00  0.0000000000000000e+00  0.0000000000000000e+00  0.0000000000000000e+00 
 0.0000000000000000e+00  0.0000000000000000e+00  0.0000000000000000e+00  0.0000000000000000e+00 
 0.0000000000000000e+00  0.0000000000000000e+00  0.0000000000000000e+00  0.0000000000000000e+00 
 0.0000000000000000e+00  0.0000000000000000e+00  0.0000000000000000e+00  0.0000000000000000e+00 
 0.0000000000000000e+00  0.0000000000000000e+00  0.0000000000000000e+00  0.0000000000000000e+00 
 0.0000000000000000e+00  0.0000000000000000e+00  0.0000000000000000e+00  0.0000000000000000e+00 
 0.0000000000000000e+00  0.0000000000000000e+00  0.0000000000000000e+00  0.0000000000000000e+00 
 0.0000000000000000e+00  0.0000000000000000e+00  0.0000000000000000e+00  0.0000000000000000e+00 
 0.0000000000000000e+00  0.0000000000000000e+00  0.0000000000000000e+00  0.0000000000000000e+00 
 0.0000000000000000e+00  0.0000000000000000e+00  0.0000000000000000e+00  0.0000000000000000e+00 
 0.0000000000000000e+00  0.0000000000000000e+00  0.0000000000000000e+00  0.0000000000000000e+00 
 0.0000000000000000e+00  0.0000000000000000e+00  0.0000000000000000e+00  0.0000000000000000e+00 
 0.0000000000000000e+00  0.0000000000000000e+00  0.0000000000000000e+00  0.0000000000000000e+00 
 0.0000000000000000e+00  0.0000000000000000e+00  0.0000000000000000e+00  0.0000000000000000e+00 
 0.0000000000000000e+00  0.0000000000000000e+00  0.0000000000000000e+00  0.0000000000000000e+00 
 0.0000000000000000e+00  0.0000000000000000e+00  0.0000000000000000e+00  0.0000000000000000e+00 
 0.0000000000000000e+00  0.0000000000000000e+00  0.0000000000000000e+00  0.0000000000000000e+00 
 0.0000000000000000e+00  0.0000000000000000e+00  0.0000000000000000e+00  0.0000000000000000e+00 
 0.0000000000000000e+00  0.0000000000000000e+00  0.0000000000000000e+00  0.0000000000000000e+00 
 0.0000000000000000e+00  0.0000000000000000e+00  0.0000000000000000e+00  0.0000000000000000e+00 
 0.0000000000000000e+00  0.0000000000000000e+00  0.0000000000000000e+00  0.0000000000000000e+00 
 0.0000000000000000e+00  0.0000000000000000e+00  0.0000000000000000e+00  0.0000000000000000e+00 
 0.0000000000000000e+00  0.0000000000000000e+00  0.0000000000000000e+00  0.0000000000000000e+00 
 0.0000000000000000e+00  0.0000000000000000e+00  0.0000000000000000e+00  0.0000000000000000e+00 
 0.0000000000000000e+00  0.0000000000000000e+00  0.0000000000000000e+00 
  </PP_BETA>
  <PP_BETA>
  3  2      Beta    L
  1187  
 -1.1656717125826038e-12  -1.2120310404679834e-12  -1.2602341012576763e-12  -1.3103542211015406e-12 
 -1.3624676423659126e-12  -1.4166536396129512e-12  -1.4729946401925373e-12  -1.5315763496301674e-12 
 -1.5924878820015828e-12  -1.6558218954924669e-12  -1.7216747333494185e-12  -1.7901465704366009e-12 
 -1.8613415656210376e-12  -1.9353680202183311e-12  -2.0123385427398534e-12  -2.0923702201920087e-12 
 -2.1755847961881500e-12  -2.2621088561440949e-12  -2.3520740198389544e-12  -2.4456171416342057e-12 
 -2.5428805186555668e-12  -2.6440121072543689e-12  -2.7491657480777082e-12  -2.8585014000897297e-12 
 -2.9721853839000775e-12  -3.0903906347696082e-12  -3.2132969656782851e-12  -3.3410913408553938e-12 
 -3.4739681601882072e-12  -3.6121295549417038e-12  -3.7557856952392085e-12  -3.9051551097716872e-12 
 -4.0604650182220412e-12  -4.2219516769100779e-12  -4.3898607381839294e-12  -4.5644476241046701e-12 
 -4.7459779149925359e-12  -4.9347277534258273e-12  -5.1309842643070302e-12  -5.3350459916351903e-12 
 -5.5472233526489096e-12  -5.7678391100308765e-12  -5.9972288628921374e-12  -6.2357415572831087e-12 
 -6.4837400170078347e-12  -6.7416014955489641e-12  -7.0097182499431256e-12  -7.2884981374795103e-12 
 -7.5783652361295215e-12  -7.8797604896511791e-12  -8.1931423783496551e-12  -8.5189876165142704e-12 
 -8.8577918775929186e-12  -9.2100705482069892e-12  -9.5763595121539161e-12  -9.9572159655897574e-12 
 -1.0353219264632147e-11  -1.0764971806672688e-11  -1.1193099946739639e-11  -1.1638254950304808e-11 
 -1.2101113983983966e-11  -1.2582381145637997e-11  -1.3082788535441583e-11  -1.3603097369548872e-11 
 -1.4144099138050181e-11  -1.4706616808981145e-11  -1.5291506080215953e-11  -1.5899656681148974e-11 
 -1.6531993726144876e-11  -1.7189479121816230e-11  -1.7873113030268964e-11  -1.8583935390542181e-11 
 -1.9323027500556050e-11  -2.0091513661974750e-11  -2.0890562890486325e-11  -2.1721390694101231e-11 
 -2.2585260922174700e-11  -2.3483487687965669e-11  -2.4417437367656645e-11  -2.5388530678875818e-11 
 -2.6398244841882880e-11  -2.7448115826706276e-11  -2.8539740689650246e-11  -2.9674780002725805e-11 
 -3.0854960379701604e-11  -3.2082077102616858e-11  -3.3357996852752037e-11  -3.4684660550211675e-11 
 -3.6064086306438883e-11  -3.7498372494152506e-11  -3.8989700939377382e-11  -4.0540340240423469e-11 
 -4.2152649218861866e-11  -4.3829080507748389e-11  -4.5572184282552236e-11  -4.7384612140465726e-11 
 -4.9269121133995961e-11  -5.1228577964974459e-11  -5.3265963345364937e-11  -5.5384376531501865e-11 
 -5.7587040038658896e-11  -5.9877304543117083e-11  -6.2258653979191676e-11  -6.4734710838969407e-11 
 -6.7309241682819442e-11  -6.9986162869060137e-11  -7.2769546511497272e-11  -7.5663626673896613e-11 
 -7.8672805810813638e-11  -8.1801661464578922e-11  -8.5054953228624891e-11  -8.8437629987748637e-11 
 -9.1954837446322861e-11  -9.5611925955908088e-11  -9.9414458654172618e-11  -1.0336821992750127e-10 
 -1.0747922421016717e-10  -1.1175372513344977e-10  -1.1619822503861918e-10  -1.2081948486825591e-10 
 -1.2562453445095330e-10  -1.3062068319504882e-10  -1.3581553120764905e-10  -1.4121698085586488e-10 
 -1.4683324878784302e-10  -1.5267287843187942e-10  -1.5874475299262869e-10  -1.6505810896418084e-10 
 -1.7162255018055790e-10  -1.7844806242500790e-10  -1.8554502862031659e-10  -1.9292424462324648e-10 
 -2.0059693564712868e-10  -2.0857477333758879e-10  -2.1686989352738514e-10  -2.2549491469736410e-10 
 -2.3446295717161842e-10  -2.4378766307604638e-10  -2.5348321709067381e-10  -2.6356436802730576e-10 
 -2.7404645126533364e-10  -2.8494541207982582e-10  -2.9627782989738818e-10  -3.0806094351669356e-10 
 -3.2031267733204443e-10  -3.3305166859986074e-10  -3.4629729578957050e-10  -3.6006970806203032e-10 
 -3.7438985592031703e-10  -3.8927952307952084e-10  -4.0476135960401341e-10  -4.2085891636260393e-10 
 -4.3759668085399736e-10  -4.5500011445704793e-10  -4.7309569116247526e-10  -4.9191093784496440e-10 
 -5.1147447613690441e-10  -5.3181606596747321e-10  -5.5296665083329386e-10  -5.7495840486952650e-10 
 -5.9782478179300787e-10  -6.2160056579188392e-10  -6.4632192443915179e-10  -6.7202646371060138e-10 
 -6.9875328519085388e-10  -7.2654304555451270e-10  -7.5543801841291596e-10  -7.8548215862056638e-10 
 -8.1672116913906679e-10  -8.4920257056027041e-10  -8.8297577339440333e-10  -9.1809215323313608e-10 
 -9.5460512890192135e-10  -9.9257024372050335e-10  -1.0320452499952012e-09  -1.0730901968715007e-09 
 -1.1157675216805941e-09  -1.1601421449188224e-09  -1.2062815690045109e-09  -1.2542559809624183e-09 
 -1.3041383591920056e-09  -1.3560045844819499e-09  -1.4099335554397616e-09  -1.4660073085121142e-09 
 -1.5243111427784546e-09  -1.5849337497077225e-09  -1.6479673480755858e-09  -1.7135078242474079e-09 
 -1.7816548780403599e-09  -1.8525121743865545e-09  -1.9261875010279262e-09  -2.0027929324827217e-09 
 -2.0824450005330526e-09  -2.1652648714928459e-09  -2.2513785305258474e-09  -2.3409169732940708e-09 
 -2.4340164052282372e-09  -2.5308184487233188e-09  -2.6314703585744003e-09  -2.7361252459805481e-09 
 -2.8449423114574741e-09  -2.9580870870132879e-09  -3.0757316879557455e-09  -3.1980550747140409e-09 
 -3.3252433250734237e-09  -3.4574899172367873e-09  -3.5949960241437970e-09  -3.7379708194953144e-09 
 -3.8866317959486154e-09  -4.0412050959674577e-09  -4.2019258558303078e-09  -4.3690385633200042e-09 
 -4.5427974296390175e-09  -4.7234667761160369e-09  -4.9113214362921879e-09  -5.1066471739984922e-09 
 -5.3097411180606096e-09  -5.5209122142921006e-09  -5.7404816954638335e-09  -5.9687835699643995e-09 
 -6.2061651298949988e-09  -6.4529874793715996e-09  -6.7096260838381433e-09  -6.9764713412263554e-09 
 -7.2539291758310677e-09  -7.5424216558044523e-09  -7.8423876352085022e-09  -8.1542834216025123e-09 
 -8.4785834701810263e-09  -8.8157811055183691e-09  -9.1663892720174568e-09  -9.5309413142046935e-09 
 -9.9099917880579072e-09  -1.0304117304601487e-08  -1.0713917407052129e-08  -1.1140015482849428e-08 
 -1.1583059711958861e-08  -1.2043724052889573e-08  -1.2522709267927186e-08  -1.3020743989140995e-08 
 -1.3538585826787433e-08  -1.4077022521795759e-08  -1.4636873144089352e-08  -1.5218989338565463e-08 
 -1.5824256620628891e-08  -1.6453595723250387e-08  -1.7107963997599041e-08  -1.7788356869379411e-08 
 -1.8495809353088653e-08  -1.9231397626497566e-08  -1.9996240667750367e-08  -2.0791501957573882e-08 
 -2.1618391249185712e-08  -2.2478166408593637e-08  -2.3372135328086019e-08  -2.4301657915824001e-08 
 -2.5268148164562520e-08  -2.6273076302646729e-08  -2.7317971030556503e-08  -2.8404421846401196e-08 
 -2.9534081463902433e-08  -3.0708668326543523e-08  -3.1929969221709817e-08  -3.3199841998797467e-08 
 -3.4520218395424829e-08  -3.5893106976046888e-08  -3.7320596187442387e-08  -3.8804857535722504e-08 
 -4.0348148889693959e-08  -4.1952817915602074e-08  -4.3621305648479053e-08  -4.5356150205530679e-08 
 -4.7159990647210335e-08  -4.9035570991854549e-08  -5.0985744389987662e-08  -5.3013477464645677e-08 
 -5.5121854824322507e-08  -5.7314083755404572e-08  -5.9593499101231905e-08  -6.1963568335208941e-08 
 -6.4427896835682633e-08  -6.6990233370612759e-08  -6.9654475800378649e-08  -7.2424677007398258e-08 
 -7.5305051061580312e-08  -7.8299979630989858e-08  -8.1414018647479677e-08  -8.4651905237428744e-08 
 -8.8018564928131887e-08  -9.1519119140804003e-08  -9.5158892981598667e-08  -9.8943423342494477e-08 
 -1.0287846732437351e-07  -1.0697001099510657e-07  -1.1122427849596972e-07  -1.1564774151024769e-07 
 -1.2024712910842741e-07  -1.2502943798496358e-07  -1.3000194310218749e-07  -1.3517220875755482e-07 
 -1.4054810009107035e-07  -1.4613779505039698e-07  -1.5194979683185375e-07  -1.5799294681623038e-07 
 -1.6427643801910058e-07  -1.7080982907609857e-07  -1.7760305878443547e-07  -1.8466646122278168e-07 
 -1.9201078147251959e-07  -1.9964719196428580e-07  -2.0758730947467546e-07  -2.1584321279896731e-07 
 -2.2442746112676211e-07  -2.3335311314848927e-07  -2.4263374692185770e-07  -2.5228348052847371e-07 
 -2.6231699355205995e-07  -2.7274954941095467e-07  -2.8359701857887201e-07  -2.9487590272925330e-07 
 -3.0660335983995230e-07  -3.1879723029644971e-07  -3.3147606403331663e-07  -3.4465914875522860e-07 
 -3.5836653928046896e-07  -3.7261908805157519e-07  -3.8743847685955327e-07  -4.0284724982993486e-07 
 -4.1886884772087130e-07  -4.3552764358545722e-07  -4.5284897985254897e-07  -4.7085920688250833e-07 
 -4.8958572305654032e-07  -5.0905701646063331e-07  -5.2930270822753479e-07  -5.5035359760271696e-07 
 -5.7224170880292127e-07  -5.9500033973858211e-07  -6.1866411267428444e-07  -6.4326902690435244e-07 
 -6.6885251352373029e-07  -6.9545349237751561e-07  -7.2311243127581235e-07  -7.5187140756402885e-07 
 -7.8177417214232407e-07  -8.1286621603163661e-07  -8.4519483958761417e-07  -8.7880922446777962e-07 
 -9.1376050846147968e-07  -9.5010186329649785e-07  -9.8788857554077554e-07  -1.0271781307223621e-06 
 -1.0680303007956519e-06  -1.1105072350870348e-06  -1.1546735548583952e-06  -1.2005964516324095e-06 
 -1.2483457894293006e-06  -1.2979942110707020e-06  -1.3496172487124335e-06  -1.4032934387744588e-06 
 -1.4591044414429979e-06  -1.5171351649267020e-06  -1.5774738946560716e-06  -1.6402124276228054e-06 
 -1.7054462120636142e-06  -1.7732744927011525e-06  -1.8438004617632234e-06  -1.9171314160101676e-06 
 -1.9933789200095427e-06  -2.0726589759066895e-06  -2.1550921999497028e-06  -2.2408040060375919e-06 
 -2.3299247965711176e-06  -2.4225901608969712e-06  -2.5189410816474326e-06  -2.6191241492898101e-06 
 -2.7232917852123185e-06  -2.8316024736862353e-06  -2.9442210030575336e-06  -3.0613187165354107e-06 
 -3.1830737729596331e-06  -3.3096714179439316e-06  -3.4413042658084367e-06  -3.5781725927305735e-06 
 -3.7204846415610766e-06  -3.8684569387693581e-06  -4.0223146240011470e-06  -4.1822917927504547e-06 
 -4.3486318526679432e-06  -4.5215878940485633e-06  -4.7014230750629883e-06  -4.8884110223198134e-06 
 -5.0828362473688953e-06  -5.2849945797805715e-06  -5.4951936174606787e-06  -5.7137531948877334e-06 
 -5.9410058699858527e-06  -6.1772974303755197e-06  -6.4229874197738293e-06  -6.6784496853466449e-06 
 -6.9440729468470084e-06  -7.2202613884074900e-06  -7.5074352738886992e-06  -7.8060315867221611e-06 
 -8.1165046952231287e-06  -8.4393270443879141e-06  -8.7749898752305722e-06  -9.1240039727560970e-06 
 -9.4869004437108069e-06  -9.8642315252961619e-06  -1.0256571426079690e-05  -1.0664517200385717e-05 
 -1.1088689657499901e-05  -1.1529734307074665e-05  -1.1988322342178128e-05  -1.2465151661486560e-05 
 -1.2960947932180236e-05  -1.3476465695164962e-05  -1.4012489514306049e-05  -1.4569835171429136e-05 
 -1.5149350908912007e-05  -1.5751918721764547e-05  -1.6378455701169672e-05  -1.7029915431536827e-05 
 -1.7707289443201623e-05  -1.8411608722990336e-05  -1.9143945284956569e-05  -1.9905413803689776e-05 
 -2.0697173312690925e-05  -2.1520428970410318e-05  -2.2376433896646745e-05  -2.3266491082113973e-05 
 -2.4191955374094251e-05  -2.5154235541213619e-05  -2.6154796420496332e-05  -2.7195161149981393e-05 
 -2.8276913490315632e-05  -2.9401700238874170e-05  -3.0571233740101719e-05  -3.1787294495914972e-05 
 -3.3051733880160857e-05  -3.4366476961285100e-05  -3.5733525437531428e-05  -3.7154960689165294e-05 
 -3.8632946952395531e-05  -4.0169734619854620e-05  -4.1767663672693050e-05  -4.3429167249545790e-05 
 -4.5156775357839192e-05  -4.6953118733126510e-05  -4.8820932852367621e-05  -5.0763062107305777e-05 
 -5.2782464144341651e-05  -5.4882214377560253e-05  -5.7065510681835500e-05  -5.9335678273211698e-05 
 -6.1696174784055190e-05  -6.4150595540763948e-05  -6.6702679052141678e-05  -6.9356312716864642e-05 
 -7.2115538758808952e-05  -7.4984560399360094e-05  -7.7967748276190204e-05  -8.1069647118372674e-05 
 -8.4294982688098961e-05  -8.7648668999676090e-05  -9.1135815826913228e-05  -9.4761736510451527e-05 
 -9.8531956077059342e-05  -1.0245221968339600e-04  -1.0652850139725307e-04  -1.1076701332980634e-04 
 -1.1517421513295643e-04  -1.1975682387640350e-04  -1.2452182431969464e-04  -1.2947647959509468e-04 
 -1.3462834231777235e-04  -1.3998526614046079e-04  -1.4555541777044225e-04  -1.5134728946743161e-04 
 -1.5736971204168040e-04  -1.6363186837240867e-04  -1.7014330746748261e-04  -1.7691395908610443e-04 
 -1.8395414894716182e-04  -1.9127461454680297e-04  -1.9888652160975586e-04  -2.0680148119991008e-04 
 -2.1503156751670829e-04  -2.2358933640497769e-04  -2.3248784460695084e-04  -2.4174066978639478e-04 
 -2.5136193135598454e-04  -2.6136631214032104e-04  -2.7176908090831444e-04  -2.8258611581002691e-04 
 -2.9383392875449884e-04  -3.0552969076656767e-04  -3.1769125836224793e-04  -3.3033720098384490e-04 
 -3.4348682953766376e-04  -3.5716022607892774e-04  -3.7137827469033337e-04  -3.8616269360258770e-04 
 -4.0153606860723158e-04  -4.1752188781413359e-04  -4.3414457780817015e-04  -4.5142954126185683e-04 
 -4.6940319606301816e-04  -4.8809301601901233e-04  -5.0752757320156317e-04  -5.2773658199887336e-04 
 -5.4875094494445393e-04  -5.7060280039495314e-04  -5.9332557213225738e-04  -6.1695402096823818e-04 
 -6.4152429843375794e-04  -6.6707400263692261e-04  -6.9364223637908282e-04  -7.2126966762074967e-04 
 -7.4999859239341187e-04  -7.7987300025722322e-04  -8.1093864240867344e-04  -8.4324310254669046e-04 
 -8.7683587061012465e-04  -9.1176841950426756e-04  -9.4809428493896101e-04  -9.8586914850596610e-04 
 -1.0251509241285880e-03  -1.0659998480220968e-03  -1.1084785723093060e-03  -1.1526522624416796e-03 
 -1.1985886985826713e-03  -1.2463583811165415e-03  -1.2960346404527806e-03  -1.3476937513033844e-03 
 -1.4014150516177188e-03  -1.4572810663674599e-03  -1.5153776363822232e-03  -1.5757940524449609e-03 
 -1.6386231948650376e-03  -1.7039616787560944e-03  -1.7719100052554400e-03  -1.8425727189317449e-03 
 -1.9160585716382372e-03  -1.9924806930795786e-03  -2.0719567683719479e-03  -2.1546092228877764e-03 
 -2.2405654146889688e-03  -2.3299578348654312e-03  -2.4229243161091982e-03  -2.5196082498686019e-03 
 -2.6201588124416162e-03  -2.7247312003829106e-03  -2.8334868756151621e-03  -2.9465938206519283e-03 
 -3.0642268043568829e-03  -3.1865676586824150e-03  -3.3138055668496692e-03  -3.4461373634520130e-03 
 -3.5837678469845548e-03  -3.7269101053241677e-03  -3.8757858547069043e-03  -4.0306257927734263e-03 
 -4.1916699662776693e-03  -4.3591681540795816e-03  -4.5333802660698121e-03  -4.7145767587020368e-03 
 -4.9030390678379554e-03  -5.0990600596405259e-03  -5.3029445002827367e-03  -5.5150095452725584e-03 
 -5.7355852492293313e-03  -5.9650150969830368e-03  -6.2036565569056320e-03  -6.4518816574229655e-03 
 -6.7100775876969936e-03  -6.9786473235105891e-03  -7.2580102794322070e-03  -7.5486029883839127e-03 
 -7.8508798097851346e-03  -8.1653136674947353e-03  -8.4923968188271044e-03  -8.8326416559725562e-03 
 -9.1865815412097013e-03  -9.5547716773570299e-03  -9.9377900149728651e-03  -1.0336238197877498e-02 
 -1.0750742548638300e-02  -1.1181955095728729e-02  -1.1630554644144421e-02  -1.2097247891335225e-02 
 -1.2582770590390407e-02  -1.3087888762495524e-02  -1.3613399960764026e-02  -1.4160134587634208e-02 
 -1.4728957268112908e-02  -1.5320768281241390e-02  -1.5936505052256286e-02  -1.6577143708019052e-02 
 -1.7243700698391606e-02  -1.7937234486343157e-02  -1.8658847309684159e-02  -1.9409687017437505e-02 
 -2.0190948983974805e-02  -2.1003878104166054e-02  -2.1849770872915751e-02  -2.2729977552584778e-02 
 -2.3645904431928287e-02  -2.4599016180312357e-02  -2.5590838301107317e-02  -2.6622959688294087e-02 
 -2.7697035290458749e-02  -2.8814788886492568e-02  -2.9978015977456363e-02  -3.1188586799211701e-02 
 -3.2448449460564445e-02  -3.3759633211807673e-02  -3.5124251848693479e-02  -3.6544507256999814e-02 
 -3.8022693102995206e-02  -3.9561198675233597e-02  -4.1162512883236899e-02  -4.2829228418739110e-02 
 -4.4564046085274603e-02  -4.6369779301989829e-02  -4.8249358787640986e-02  -5.0205837430809079e-02 
 -5.2242395352413006e-02  -5.4362345166630174e-02  -5.6569137446337812e-02  -5.8866366399164351e-02 
 -6.1257775760181876e-02  -6.3747264907179288e-02  -6.6338895204316184e-02  -6.9036896579777365e-02 
 -7.1845674342806337e-02  -7.4769816245200502e-02  -7.7814099791981284e-02  -8.0983499805509215e-02 
 -8.4283196246784431e-02  -8.7718582297044781e-02  -9.1295272702043240e-02  -9.5019112380530082e-02 
 -9.8896185297482675e-02  -1.0293282360148938e-01  -1.0713561702440151e-01  -1.1151142253988520e-01 
 -1.1606737427583283e-01  -1.2081089367369285e-01  -1.2574969988563714e-01  -1.3089182039807770e-01 
 -1.3624560186734222e-01  -1.4181972115029104e-01  -1.4762319650928460e-01  -1.5366539896713993e-01 
 -1.5995606378352623e-01  -1.6650530201960215e-01  -1.7332361215253692e-01  -1.8042189169585524e-01 
 -1.8781144877524864e-01  -1.9550401360254011e-01  -2.0351174978285078e-01  -2.1184726538159623e-01 
 -2.2052362366872455e-01  -2.2955435344748631e-01  -2.3895345886397135e-01  -2.4873542858156036e-01 
 -2.5891524419126444e-01  -2.6950838771457925e-01  -2.8053084803988687e-01  -2.9199912611652290e-01 
 -3.0393023871230168e-01  -3.1634172052048021e-01  -3.2925162438077626e-01  -3.4267851935602994e-01 
 -3.5664148638137644e-01  -3.7116011117628234e-01  -3.8625447408143404e-01  -4.0194513645222874e-01 
 -4.1825312320841507e-01  -4.3519990110529966e-01  -4.5280735225582819e-01  -4.7109774239479729e-01 
 -4.9009368333652603e-01  -5.0981808903554482e-01  -5.3029412461642877e-01  -5.5154514769391638e-01 
 -5.7359464125818693e-01  -5.9646613735284959e-01  -6.2018313072523901e-01  -6.4476898158039520e-01 
 -6.7024680652217727e-01  -6.9663935671798516e-01  -7.2396888227819545e-01  -7.5225698179868061e-01 
 -7.8152443597551935e-01  -8.1179102416656024e-01  -8.4307532274612218e-01  -8.7539448407839215e-01 
 -9.0876399492373239e-01  -9.4319741309216099e-01  -9.7870608117182400e-01  -1.0152988161898866e+00 
 -1.0529815741115542e+00  -1.0917570881529151e+00  -1.1316244799781419e+00  -1.1725788429748691e+00 
 -1.2146107969569691e+00  -1.2577060138354754e+00  -1.3018447140303340e+00  -1.3470011336722709e+00 
 -1.3931429629699448e+00  -1.4402307564973778e+00  -1.4882173165948038e+00  -1.5370470515772519e+00 
 -1.5866553110135231e+00  -1.6369677009776482e+00  -1.6878993828888098e+00  -1.7393543603466917e+00 
 -1.7912247592389630e+00  -1.8433901073466710e+00  -1.8957166207005816e+00  -1.9480565050443885e+00 
 -2.0002472819341328e+00  -2.0521111502398659e+00  -2.1034543951053766e+00  -2.1540668577510584e+00 
 -2.2037214808568617e+00  -2.2521739456154735e+00  -2.2991624178748902e+00  -2.3444074220648208e+00 
 -2.3876118627866854e+00  -2.4284612150034537e+00  -2.4666239046468741e+00  -2.5017519021156627e+00 
 -2.5334815515136859e+00  -2.5614346585118670e+00  -2.5852198593482849e+00  -2.6044342926409074e+00 
 -2.6186655943086317e+00  -2.6274942339103573e+00  -2.6304962080525045e+00  -2.6272461031196603e+00 
 -2.6173205353954749e+00  -2.6003019716151035e+00  -2.5757829270924080e+00  -2.5433705317791535e+00 
 -2.5026914469414638e+00  -2.4533971066119733e+00  -2.3951692486489211e+00  -2.3277256902005909e+00 
 -2.2508262917629378e+00  -2.1642790430034280e+00  -2.0679461923253069e+00  -1.9617503310341677e+00 
 -1.8456803322667714e+00  -1.7197970349303273e+00  -1.5842385542100701e+00  -1.4392250932145116e+00 
 -1.2850631255580731e+00  -1.1221488166646671e+00  -9.5097055283658138e-01  -7.7211045214036655e-01 
 -5.8624474027483320e-01  -3.9414288798926345e-01  -1.9666542424383784e-01  5.2396392325611734e-03 
 2.1054181177374806e-01  4.1813456921718611e-01  6.2684322696419292e-01  8.3543420028454607e-01 
 1.0426255872757766e+00  1.2470989887787365e+00  1.4475124618111412e+00  1.6425144881195632e+00 
 1.8307588257929432e+00  2.0109200973210237e+00  2.1817099494288286e+00  2.3418935960216984e+00 
 2.4903065240035316e+00  2.6258711025637385e+00  2.7476127921169891e+00  2.8546756045721229e+00 
 2.9463364296020664e+00  3.0220178206977422e+00  3.0812988372880725e+00  3.1239235686127049e+00 
 3.1498070198323420e+00  3.1590381151124549e+00  3.1518796579306065e+00  3.1287651777902430e+00 
 3.0902926791994028e+00  3.0372153902476726e+00  2.9704296837710538e+00  2.8909604148220982e+00 
 2.7999439854886750e+00  2.6986095132123511e+00  2.5882585412359229e+00  2.4702437862491253e+00 
 2.3459474615056828e+00  2.2167597336699827e+00  2.0840578590769825e+00  1.9491864960888290e+00 
 1.8134396098831502e+00  1.6780442877554758e+00  1.5441466874085905e+00  1.4128002659717303e+00 
 1.2849562314831668e+00  1.1614564799478035e+00  1.0430288032594750e+00  9.3028433480466877e-01 
 8.2371718890803591e-01  7.2370615818565209e-01  6.3051830869875281e-01  5.4431427939949828e-01 
 4.6515506157715997e-01  3.9301000995933716e-01  3.2776582152572242e-01  2.6923621172318080e-01 
 2.1717202054605519e-01  1.7127149211649809e-01  1.3119048976731840e-01  9.6552432742603514e-02 
 6.6957768933704878e-02  4.1992829023312722e-02  2.1237939579699997e-02  4.2747047435331351e-03 
 -9.3076029128940328e-03  -1.9906572886770113e-02  -2.7902112978939429e-02  -3.3652812674076792e-02 
 -3.7493175605350933e-02  -3.9731667168850522e-02  -4.0649511053788202e-02  -4.0500159583500860e-02 
 -3.9509357082422064e-02  -3.7875712691633992e-02  -3.5771698802703880e-02  -3.3344993195624707e-02 
 -3.0720086673938538e-02  -2.8000083119005936e-02  -2.5268625084013313e-02  -2.2591884991376581e-02 
 -2.0020569390346975e-02  -1.7591891316759516e-02  -1.5331473349873639e-02  -1.3255151296093864e-02 
 -1.1370655394734754e-02  -9.6791524176601581e-03  -8.1766379351889788e-03  -6.8551732852014649e-03 
 -5.7039663741985250e-03  -4.7102993448171586e-03  -3.8603093680708053e-03  -3.1396313800089231e-03 
 -2.5339135144299705e-03  -2.0292173289747535e-03  -1.6123157326003014e-03  -1.2709018562262805e-03 
 -9.9372202664330328e-04  -7.7064557166223017e-04  -5.9268346710074425e-04  -4.5196689833824037e-04 
 -3.4169571320758120e-04  -2.5606554786841181e-04  -1.9018116640196823e-04  -1.3996231644038563e-04 
 -1.0204720712892963e-04  -7.3697596038673207e-05  -5.2708453166660654e-05  -3.7324269167706221e-05 
 -2.6163305022668090e-05  -1.8150439166954143e-05  -1.2458757760044779e-05  -8.4596438149667536e-06 
 -5.6808408515536292e-06  -3.7717825181731047e-06  -2.4753759307041289e-06  -1.6053876749855147e-06 
 -1.0285924533640080e-06  -6.5089122069910002e-07  -4.0667618281808814e-07  -2.5080394768700711e-07 
 -1.5262714533864227e-07  -9.1622848845036891e-08  -5.4238723891881305e-08  -3.1652210308917289e-08 
 -1.8202826689851275e-08  -1.0312433479414323e-08  -5.7532623274920338e-09  -3.1596355840210617e-09 
 -1.7075127929126875e-09  -9.0766501728769325e-10  -4.7440245737855156e-10  -2.4369628879952499e-10 
 -1.2298455081250770e-10  -6.0947982051317217e-11  -2.9647027658235026e-11  -1.4148683460969897e-11 
 -6.6214557831900129e-12  -3.0374219296351996e-12  -1.3656170001270935e-12  -6.0034611913461550e-13 
 -2.5876297263564059e-13  -1.0883142176586440e-13  -4.4612371353414350e-14  -1.8295480444885221e-14 
 -6.9896634017099604e-15  -2.4523951037160834e-15  -9.2857967711381142e-16  -4.3916226473994274e-16 
 -2.0753636132626991e-16  0.0000000000000000e+00  0.0000000000000000e+00  0.0000000000000000e+00 
 0.0000000000000000e+00  0.0000000000000000e+00  0.0000000000000000e+00  0.0000000000000000e+00 
 0.0000000000000000e+00  0.0000000000000000e+00  0.0000000000000000e+00  0.0000000000000000e+00 
 0.0000000000000000e+00  0.0000000000000000e+00  0.0000000000000000e+00  0.0000000000000000e+00 
 0.0000000000000000e+00  0.0000000000000000e+00  0.0000000000000000e+00  0.0000000000000000e+00 
 0.0000000000000000e+00  0.0000000000000000e+00  0.0000000000000000e+00  0.0000000000000000e+00 
 0.0000000000000000e+00  0.0000000000000000e+00  0.0000000000000000e+00  0.0000000000000000e+00 
 0.0000000000000000e+00  0.0000000000000000e+00  0.0000000000000000e+00  0.0000000000000000e+00 
 0.0000000000000000e+00  0.0000000000000000e+00  0.0000000000000000e+00  0.0000000000000000e+00 
 0.0000000000000000e+00  0.0000000000000000e+00  0.0000000000000000e+00  0.0000000000000000e+00 
 0.0000000000000000e+00  0.0000000000000000e+00  0.0000000000000000e+00  0.0000000000000000e+00 
 0.0000000000000000e+00  0.0000000000000000e+00  0.0000000000000000e+00  0.0000000000000000e+00 
 0.0000000000000000e+00  0.0000000000000000e+00  0.0000000000000000e+00  0.0000000000000000e+00 
 0.0000000000000000e+00  0.0000000000000000e+00  0.0000000000000000e+00  0.0000000000000000e+00 
 0.0000000000000000e+00  0.0000000000000000e+00  0.0000000000000000e+00  0.0000000000000000e+00 
 0.0000000000000000e+00  0.0000000000000000e+00  0.0000000000000000e+00  0.0000000000000000e+00 
 0.0000000000000000e+00  0.0000000000000000e+00  0.0000000000000000e+00  0.0000000000000000e+00 
 0.0000000000000000e+00  0.0000000000000000e+00  0.0000000000000000e+00  0.0000000000000000e+00 
 0.0000000000000000e+00  0.0000000000000000e+00  0.0000000000000000e+00  0.0000000000000000e+00 
 0.0000000000000000e+00  0.0000000000000000e+00  0.0000000000000000e+00  0.0000000000000000e+00 
 0.0000000000000000e+00  0.0000000000000000e+00  0.0000000000000000e+00  0.0000000000000000e+00 
 0.0000000000000000e+00  0.0000000000000000e+00  0.0000000000000000e+00  0.0000000000000000e+00 
 0.0000000000000000e+00  0.0000000000000000e+00  0.0000000000000000e+00  0.0000000000000000e+00 
 0.0000000000000000e+00  0.0000000000000000e+00  0.0000000000000000e+00  0.0000000000000000e+00 
 0.0000000000000000e+00  0.0000000000000000e+00  0.0000000000000000e+00  0.0000000000000000e+00 
 0.0000000000000000e+00  0.0000000000000000e+00  0.0000000000000000e+00  0.0000000000000000e+00 
 0.0000000000000000e+00  0.0000000000000000e+00  0.0000000000000000e+00  0.0000000000000000e+00 
 0.0000000000000000e+00  0.0000000000000000e+00  0.0000000000000000e+00  0.0000000000000000e+00 
 0.0000000000000000e+00  0.0000000000000000e+00  0.0000000000000000e+00  0.0000000000000000e+00 
 0.0000000000000000e+00  0.0000000000000000e+00  0.0000000000000000e+00  0.0000000000000000e+00 
 0.0000000000000000e+00  0.0000000000000000e+00  0.0000000000000000e+00  0.0000000000000000e+00 
 0.0000000000000000e+00  0.0000000000000000e+00  0.0000000000000000e+00  0.0000000000000000e+00 
 0.0000000000000000e+00  0.0000000000000000e+00  0.0000000000000000e+00  0.0000000000000000e+00 
 0.0000000000000000e+00  0.0000000000000000e+00  0.0000000000000000e+00  0.0000000000000000e+00 
 0.0000000000000000e+00  0.0000000000000000e+00  0.0000000000000000e+00  0.0000000000000000e+00 
 0.0000000000000000e+00  0.0000000000000000e+00  0.0000000000000000e+00  0.0000000000000000e+00 
 0.0000000000000000e+00  0.0000000000000000e+00  0.0000000000000000e+00  0.0000000000000000e+00 
 0.0000000000000000e+00  0.0000000000000000e+00  0.0000000000000000e+00  0.0000000000000000e+00 
 0.0000000000000000e+00  0.0000000000000000e+00  0.0000000000000000e+00  0.0000000000000000e+00 
 0.0000000000000000e+00  0.0000000000000000e+00  0.0000000000000000e+00  0.0000000000000000e+00 
 0.0000000000000000e+00  0.0000000000000000e+00  0.0000000000000000e+00  0.0000000000000000e+00 
 0.0000000000000000e+00  0.0000000000000000e+00  0.0000000000000000e+00  0.0000000000000000e+00 
 0.0000000000000000e+00  0.0000000000000000e+00  0.0000000000000000e+00  0.0000000000000000e+00 
 0.0000000000000000e+00  0.0000000000000000e+00  0.0000000000000000e+00  0.0000000000000000e+00 
 0.0000000000000000e+00  0.0000000000000000e+00  0.0000000000000000e+00  0.0000000000000000e+00 
 0.0000000000000000e+00  0.0000000000000000e+00  0.0000000000000000e+00  0.0000000000000000e+00 
 0.0000000000000000e+00  0.0000000000000000e+00  0.0000000000000000e+00  0.0000000000000000e+00 
 0.0000000000000000e+00  0.0000000000000000e+00  0.0000000000000000e+00  0.0000000000000000e+00 
 0.0000000000000000e+00  0.0000000000000000e+00  0.0000000000000000e+00  0.0000000000000000e+00 
 0.0000000000000000e+00  0.0000000000000000e+00  0.0000000000000000e+00  0.0000000000000000e+00 
 0.0000000000000000e+00  0.0000000000000000e+00  0.0000000000000000e+00  0.0000000000000000e+00 
 0.0000000000000000e+00  0.0000000000000000e+00  0.0000000000000000e+00  0.0000000000000000e+00 
 0.0000000000000000e+00  0.0000000000000000e+00  0.0000000000000000e+00  0.0000000000000000e+00 
 0.0000000000000000e+00  0.0000000000000000e+00  0.0000000000000000e+00  0.0000000000000000e+00 
 0.0000000000000000e+00  0.0000000000000000e+00  0.0000000000000000e+00  0.0000000000000000e+00 
 0.0000000000000000e+00  0.0000000000000000e+00  0.0000000000000000e+00  0.0000000000000000e+00 
 0.0000000000000000e+00  0.0000000000000000e+00  0.0000000000000000e+00  0.0000000000000000e+00 
 0.0000000000000000e+00  0.0000000000000000e+00  0.0000000000000000e+00  0.0000000000000000e+00 
 0.0000000000000000e+00  0.0000000000000000e+00  0.0000000000000000e+00  0.0000000000000000e+00 
 0.0000000000000000e+00  0.0000000000000000e+00  0.0000000000000000e+00  0.0000000000000000e+00 
 0.0000000000000000e+00  0.0000000000000000e+00  0.0000000000000000e+00  0.0000000000000000e+00 
 0.0000000000000000e+00  0.0000000000000000e+00  0.0000000000000000e+00  0.0000000000000000e+00 
 0.0000000000000000e+00  0.0000000000000000e+00  0.0000000000000000e+00  0.0000000000000000e+00 
 0.0000000000000000e+00  0.0000000000000000e+00  0.0000000000000000e+00  0.0000000000000000e+00 
 0.0000000000000000e+00  0.0000000000000000e+00  0.0000000000000000e+00  0.0000000000000000e+00 
 0.0000000000000000e+00  0.0000000000000000e+00  0.0000000000000000e+00  0.0000000000000000e+00 
 0.0000000000000000e+00  0.0000000000000000e+00  0.0000000000000000e+00  0.0000000000000000e+00 
 0.0000000000000000e+00  0.0000000000000000e+00  0.0000000000000000e+00  0.0000000000000000e+00 
 0.0000000000000000e+00  0.0000000000000000e+00  0.0000000000000000e+00 
  </PP_BETA>
  <PP_BETA>
  4  2      Beta    L
  1187  
 -9.9430800720535957e-13  -1.0338521176312761e-12  -1.0749689164649713e-12  -1.1177209502854982e-12 
 -1.1621732531796380e-12  -1.2083934456712890e-12  -1.2564518375853266e-12  -1.3064215350024044e-12 
 -1.3583785514673977e-12  -1.4124019236206677e-12  -1.4685738314280357e-12  -1.5269797231923540e-12 
 -1.5877084455368568e-12  -1.6508523785580077e-12  -1.7165075763534417e-12  -1.7847739131387752e-12 
 -1.8557552351755448e-12  -1.9295595187414003e-12  -2.0062990343828473e-12  -2.0860905177004041e-12 
 -2.1690553469259575e-12  -2.2553197275624674e-12  -2.3450148843668821e-12  -2.4382772609682865e-12 
 -2.5352487274249993e-12  -2.6360767960362765e-12  -2.7409148457369804e-12  -2.8499223554165125e-12 
 -2.9632651465169741e-12  -3.0811156352795564e-12  -3.2036530950229029e-12  -3.3310639288523994e-12 
 -3.4635419532152607e-12  -3.6012886927327275e-12  -3.7445136867578799e-12  -3.8934348081254213e-12 
 -4.0482785945782792e-12  -4.2092805933752179e-12  -4.3766857196036449e-12  -4.5507486287427190e-12 
 -4.7317341040434305e-12  -4.9199174593150441e-12  -5.1155849577304761e-12  -5.3190342472878168e-12 
 -5.5305748135903633e-12  -5.7505284506339152e-12  -5.9792297503175352e-12  -6.2170266114223617e-12 
 -6.4642807688327898e-12  -6.7213683438050096e-12  -6.9886804161200020e-12  -7.2666236189913508e-12 
 -7.5556207576328072e-12  -7.8561114524265862e-12  -8.1685528076708246e-12  -8.4934201069233656e-12 
 -8.8312075359998107e-12  -9.1824289347254774e-12  -9.5476185785849051e-12  -9.9273319914580251e-12 
 -1.0322146790679112e-11  -1.0732663565704261e-11  -1.1159506791723832e-11  -1.1603325779609736e-11 
 -1.2064795663642578e-11  -1.2544618428521199e-11  -1.3043523977216888e-11  -1.3562271241296661e-11 
 -1.4101649335404659e-11  -1.4662478757657875e-11  -1.5245612637782094e-11  -1.5851938034886917e-11 
 -1.6482377286853916e-11  -1.7137889413390576e-11  -1.7819471574884394e-11  -1.8528160589276354e-11 
 -1.9265034509261167e-11  -2.0031214262213608e-11  -2.0827865355335348e-11  -2.1656199648616555e-11 
 -2.2517477198308905e-11  -2.3413008173714421e-11  -2.4344154850206013e-11  -2.5312333681511335e-11 
 -2.6319017454412500e-11  -2.7365737529139230e-11  -2.8454086168863386e-11  -2.9585718961838936e-11 
 -3.0762357339871456e-11  -3.1985791196948328e-11  -3.3257881612013249e-11  -3.4580563680027004e-11 
 -3.5955849455620457e-11  -3.7385831013818637e-11  -3.8872683632490900e-11  -4.0418669101368982e-11 
 -4.2026139162666176e-11  -4.3697539088531586e-11  -4.5435411400781945e-11  -4.7242399738568235e-11 
 -4.9121252879862304e-11  -5.1074828922878966e-11  -5.3106099633796301e-11  -5.5218154967386290e-11 
 -5.7414207767433303e-11  -5.9697598654090983e-11  -6.2071801105611291e-11  -6.4540426742176487e-11 
 -6.7107230819871960e-11  -6.9776117943157220e-11  -7.2551148004524175e-11  -7.5436542360379219e-11 
 -7.8436690252542769e-11  -8.1556155485135430e-11  -8.4799683367007008e-11  -8.8172207930269410e-11 
 -9.1678859435914639e-11  -9.5324972177934396e-11  -9.9116092597813984e-11  -1.0305798772174336e-10 
 -1.0715665393338054e-10  -1.1141832609551234e-10  -1.1584948703448775e-10  -1.2045687740185250e-10 
 -1.2524750592818578e-10  -1.3022866008473706e-10  -1.3540791716908144e-10  -1.4079315583165807e-10 
 -1.4639256806072354e-10  -1.5221467164395457e-10  -1.5826832312565345e-10  -1.6456273127926947e-10 
 -1.7110747111572868e-10  -1.7791249844888204e-10  -1.8498816504022990e-10  -1.9234523434595892e-10 
 -1.9999489789024748e-10  -2.0794879228974523e-10  -2.1621901695512630e-10  -2.2481815249664053e-10 
 -2.3375927986166529e-10  -2.4305600023336590e-10  -2.5272245572073716e-10  -2.6277335087149841e-10 
 -2.7322397504056715e-10  -2.8409022564814023e-10  -2.9538863236275885e-10  -3.0713638224614933e-10 
 -3.1935134589808507e-10  -3.3205210464104624e-10  -3.4525797878602477e-10  -3.5898905702247758e-10 
 -3.7326622697713385e-10  -3.8811120698814169e-10  -4.0354657914288939e-10  -4.1959582362976099e-10 
 -4.3628335445607495e-10  -4.5363455658654977e-10  -4.7167582455878505e-10  -4.9043460263449761e-10 
 -5.0993942654759932e-10  -5.3021996691261550e-10  -5.5130707435948234e-10  -5.7323282646337718e-10 
 -5.9603057654097713e-10  -6.1973500438737003e-10  -6.4438216903080039e-10  -6.7000956358550179e-10 
 -6.9665617228605957e-10  -7.2436252979005667e-10  -7.5317078283922193e-10  -7.8312475437288136e-10 
 -8.1427001019123006e-10  -8.4665392826984659e-10  -8.8032577083088119e-10  -9.1533675928056019e-10 
 -9.5174015212699745e-10  -9.8959132599683794e-10  -1.0289478598739890e-09  -1.0698696226885666e-09 
 -1.1124188643893107e-09  -1.1566603106380041e-09  -1.2026612612699403e-09  -1.2504916926702287e-09 
 -1.3002243642216673e-09  -1.3519349289860994e-09  -1.4057020487876533e-09  -1.4616075138728976e-09 
 -1.5197363673299641e-09  -1.5801770344558863e-09  -1.6430214572689671e-09  -1.7083652343707787e-09 
 -1.7763077663705668e-09  -1.8469524070932771e-09  -1.9204066208012128e-09  -1.9967821456685031e-09 
 -2.0761951637570600e-09  -2.1587664777525776e-09  -2.2446216947294514e-09  -2.3338914172241392e-09 
 -2.4267114419076340e-09  -2.5232229661592769e-09  -2.6235728028561553e-09  -2.7279136037048128e-09 
 -2.8364040914550050e-09  -2.9492093013487765e-09  -3.0665008321721075e-09  -3.1884571072910870e-09 
 -3.3152636460696562e-09  -3.4471133460818290e-09  -3.5842067765477134e-09  -3.7267524834396619e-09 
 -3.8749673067227469e-09  -4.0290767102121010e-09  -4.1893151245489254e-09  -4.3559263038169306e-09 
 -4.5291636963416561e-09  -4.7092908302367595e-09  -4.8965817142838216e-09  -5.0913212547553684e-09 
 -5.2938056888153669e-09  -5.5043430351563053e-09  -5.7232535625585447e-09  -5.9508702770846062e-09 
 -6.1875394286495826e-09  -6.4336210377382947e-09  -6.6894894430703706e-09  -6.9555338710465046e-09 
 -7.2321590278419755e-09  -7.5197857150483427e-09  -7.8188514697996534e-09  -8.1298112303570835e-09 
 -8.4531380281644616e-09  -8.7893237074274342e-09  -9.1388796733110007e-09  -9.5023376698935090e-09 
 -9.8802505890606343e-09  -1.0273193311569799e-08  -1.0681763581564565e-08  -1.1106582915869312e-08 
 -1.1548297549447447e-08  -1.2007579418461380e-08  -1.2485127182429868e-08  -1.2981667287037573e-08 
 -1.3497955069213613e-08  -1.4034775906160301e-08  -1.4592946410079955e-08  -1.5173315670417301e-08 
 -1.5776766545507179e-08  -1.6404217005592607e-08  -1.7056621529256067e-08  -1.7734972555388529e-08 
 -1.8440301992905003e-08  -1.9173682790503220e-08  -1.9936230568853511e-08  -2.0729105317702779e-08 
 -2.1553513160474613e-08  -2.2410708189049542e-08  -2.3301994371517009e-08  -2.4228727535800968e-08 
 -2.5192317432177015e-08  -2.6194229877818594e-08  -2.7235988986634574e-08  -2.8319179487790873e-08 
 -2.9445449136442549e-08  -3.0616511220344572e-08  -3.1834147166153827e-08  -3.3100209249388002e-08 
 -3.4416623412163220e-08  -3.5785392192997759e-08  -3.7208597773138527e-08  -3.8688405144044903e-08 
 -4.0227065400848407e-08  -4.1826919166798838e-08  -4.3490400153906458e-08  -4.5220038865196890e-08 
 -4.7018466444211283e-08  -4.8888418677607983e-08  -5.0832740156954979e-08  -5.2854388606044360e-08 
 -5.4956439380312516e-08  -5.7142090145210880e-08  -5.9414665740644493e-08  -6.1777623238879366e-08 
 -6.4234557203612917e-08  -6.6789205158208701e-08  -6.9445453271414476e-08  -7.2207342269213596e-08 
 -7.5079073581803910e-08  -7.8065015735056071e-08  -8.1169710996174232e-08  -8.4397882283671236e-08 
 -8.7754440352169579e-08  -9.1244491262959698e-08  -9.4873344151680952e-08  -9.8646519304943917e-08 
 -1.0256975655817961e-07  -1.0664902402749560e-07  -1.1089052718882024e-07  -1.1530071831815028e-07 
 -1.1988630630726466e-07  -1.2465426686983691e-07  -1.2961185315347592e-07  -1.3476660677383909e-07 
 -1.4012636928760684e-07  -1.4569929412177398e-07  -1.5149385897740747e-07  -1.5751887872674300e-07 
 -1.6378351882324287e-07  -1.7029730924501864e-07  -1.7707015899283299e-07  -1.8411237116474012e-07 
 -1.9143465863030035e-07  -1.9904816032821804e-07  -2.0696445821220025e-07  -2.1519559487081893e-07 
 -2.2375409184818721e-07  -2.3265296869332548e-07  -2.4190576276720222e-07  -2.5152654983758583e-07 
 -2.6152996549304768e-07  -2.7193122740869676e-07  -2.8274615849752682e-07  -2.9399121098260343e-07 
 -3.0568349142672126e-07  -3.1784078675761320e-07  -3.3048159132832022e-07  -3.4362513505389014e-07 
 -3.5729141266722779e-07  -3.7150121413860934e-07  -3.8627615630515407e-07  -4.0163871575838220e-07 
 -4.1761226303990684e-07  -4.3422109819729377e-07  -4.5149048775420136e-07  -4.6944670315105638e-07 
 -4.8811706071476746e-07  -5.0752996321829931e-07  -5.2771494309335694e-07  -5.4870270736193983e-07 
 -5.7052518435514859e-07  -5.9321557229033975e-07  -6.1680838978056268e-07  -6.4133952835314363e-07 
 -6.6684630705735320e-07  -6.9336752924426096e-07  -7.2094354160519681e-07  -7.4961629555867479e-07 
 -7.7942941107921353e-07  -8.1042824306519376e-07  -8.4265995034677993e-07  -8.7617356743893016e-07 
 -9.1102007914871816e-07  -9.4725249815052217e-07  -9.8492594564716523e-07  -1.0240977352397855e-06 
 -1.0648274601341000e-06  -1.1071770838158163e-06  -1.1512110343332165e-06  -1.1969963023304374e-06 
 -1.2446025429806863e-06  -1.2941021819745688e-06  -1.3455705257248800e-06  -1.3990858759556331e-06 
 -1.4547296488497822e-06  -1.5125864989370313e-06  -1.5727444479103575e-06  -1.6352950185673625e-06 
 -1.7003333740803953e-06  -1.7679584628074930e-06  -1.8382731688646384e-06  -1.9113844686886086e-06 
 -1.9874035938287942e-06  -2.0664462002159207e-06  -2.1486325441653819e-06  -2.2340876653832646e-06 
 -2.3229415772537026e-06  -2.4153294646974077e-06  -2.5113918899026622e-06  -2.6112750062421384e-06 
 -2.7151307807013364e-06  -2.8231172251574234e-06  -2.9353986368607680e-06  -3.0521458484854226e-06 
 -3.1735364881295308e-06  -3.2997552496616394e-06  -3.4309941738248053e-06  -3.5674529405267216e-06 
 -3.7093391727611680e-06  -3.8568687526238292e-06  -4.0102661499039547e-06  -4.1697647637525511e-06 
 -4.3356072779476881e-06  -4.5080460302983125e-06  -4.6873433967494601e-06  -4.8737721907742516e-06 
 -5.0676160786613418e-06  -5.2691700113307435e-06  -5.4787406733362333e-06  -5.6966469497386642e-06 
 -5.9232204115619216e-06  -6.1588058205715140e-06  -6.4037616541453394e-06  -6.6584606510368556e-06 
 -6.9232903788627292e-06  -7.1986538241802982e-06  -7.4849700060545440e-06  -7.7826746140503532e-06 
 -8.0922206716229660e-06  -8.4140792259183260e-06  -8.7487400650356192e-06  -9.0967124638459145e-06 
 -9.4585259595047495e-06  -9.8347311578416868e-06  -1.0225900571857225e-05  -1.0632629493606402e-05 
 -1.1055536900799530e-05  -1.1495266399503644e-05  -1.1952487204383327e-05  -1.2427895157977153e-05 
 -1.2922213790565557e-05  -1.3436195422248179e-05  -1.3970622308913168e-05  -1.4526307833848332e-05 
 -1.5104097746813618e-05  -1.5704871452467328e-05  -1.6329543350113799e-05  -1.6979064226819163e-05 
 -1.7654422706023214e-05  -1.8356646753860775e-05  -1.9086805245494186e-05  -1.9846009593850334e-05 
 -2.0635415443251958e-05  -2.1456224430531603e-05  -2.2309686016320772e-05  -2.3197099389314014e-05 
 -2.4119815446420112e-05  -2.5079238851828207e-05  -2.6076830178139024e-05  -2.7114108132835969e-05 
 -2.8192651873502959e-05  -2.9314103415331831e-05  -3.0480170134603654e-05  -3.1692627371976317e-05 
 -3.2953321139563788e-05  -3.4264170935952055e-05  -3.5627172673462981e-05  -3.7044401722149767e-05 
 -3.8518016075187561e-05  -4.0050259640509265e-05  -4.1643465663731453e-05  -4.3300060287617098e-05 
 -4.5022566253532714e-05  -4.6813606750575293e-05  -4.8675909418274021e-05  -5.0612310509005697e-05 
 -5.2625759216513264e-05  -5.4719322177168125e-05  -5.6896188150888755e-05  -5.9159672888901981e-05 
 -6.1513224195823126e-05  -6.3960427193832857e-05  -6.6505009797038399e-05  -6.9150848404434719e-05 
 -7.1901973820217825e-05  -7.4762577410554767e-05  -7.7737017506281965e-05  -8.0829826061382907e-05 
 -8.4045715577495247e-05  -8.7389586305107545e-05  -9.0866533732536920e-05  -9.4481856374225431e-05 
 -9.8241063870357621e-05  -1.0214988541028531e-04  -1.0621427849275098e-04  -1.1044043803642295e-04 
 -1.1483480585480207e-04  -1.1940408051012797e-04  -1.2415522756150196e-04  -1.2909549022306030e-04 
 -1.3423240044867010e-04  -1.3957379046028727e-04  -1.4512780473780804e-04  -1.5090291248896943e-04 
 -1.5690792061860147e-04  -1.6315198721732056e-04  -1.6964463559056216e-04  -1.7639576884970404e-04 
 -1.8341568508790744e-04  -1.9071509316422643e-04  -1.9830512912048898e-04  -2.0619737325644962e-04 
 -2.1440386788975046e-04  -2.2293713582830367e-04  -2.3181019958383448e-04  -2.4103660135649246e-04 
 -2.5063042382165703e-04  -2.6060631175132856e-04  -2.7097949450382349e-04  -2.8176580941685880e-04 
 -2.9298172614055078e-04  -3.0464437194833977e-04  -3.1677155806540745e-04  -3.2938180705577259e-04 
 -3.4249438131093193e-04  -3.5612931268467509e-04  -3.7030743332052178e-04  -3.8505040772014254e-04 
 -4.0038076610310184e-04  -4.1632193911033045e-04  -4.3289829390589265e-04  -4.5013517173384389e-04 
 -4.6805892698932762e-04  -4.8669696786548232e-04  -5.0607779864027150e-04  -5.2623106366999467e-04 
 -5.4718759315898957e-04  -5.6897945077790627e-04  -5.9163998320592730e-04  -6.1520387167542752e-04 
 -6.3970718560080783e-04  -6.6518743837663949e-04  -6.9168364543376634e-04  -7.1923638464571388e-04 
 -7.4788785918156859e-04  -7.7768196290550675e-04  -8.0866434842730552e-04  -8.4088249791253666e-04 
 -8.7438579676564498e-04  -9.0922561030386544e-04  -9.4545536354484450e-04  -9.8313062423596742e-04 
 -1.0223091892587652e-03  -1.0630511745473334e-03  -1.1054191086655562e-03  -1.1494780301939660e-03 
 -1.1952955890834457e-03  -1.2429421521395585e-03  -1.2924909128082000e-03  -1.3440180054404595e-03 
 -1.3976026242220770e-03  -1.4533271469607059e-03  -1.5112772639323591e-03  -1.5715421119969514e-03 
 -1.6342144142016907e-03  -1.6993906251004194e-03  -1.7671710820266037e-03  -1.8376601625678306e-03 
 -1.9109664485001596e-03  -1.9872028964517102e-03  -2.0664870155763073e-03  -2.1489410525300070e-03 
 -2.2346921840557901e-03  -2.3238727174947991e-03  -2.4166202995560427e-03  -2.5130781336907566e-03 
 -2.6133952064323973e-03  -2.7177265230787372e-03  -2.8262333531086561e-03  -2.9390834857431392e-03 
 -3.0564514960774855e-03  -3.1785190222302236e-03  -3.3054750539732495e-03  -3.4375162333278573e-03 
 -3.5748471676320913e-03  -3.7176807556066633e-03  -3.8662385269695103e-03  -4.0207509961726383e-03 
 -4.1814580308597929e-03  -4.3486092356693085e-03  -4.5224643520333915e-03  -4.7032936746532984e-03 
 -4.8913784853591869e-03  -5.0870115050940645e-03  -5.2904973647931392e-03  -5.5021530959632322e-03 
 -5.7223086418016992e-03  -5.9513073897304149e-03  -6.1895067262582523e-03  -6.4372786151248073e-03 
 -6.6950101997192007e-03  -6.9631044308104120e-03  -7.2419807206704498e-03  -7.5320756247177004e-03 
 -7.8338435518564078e-03  -8.1477575047384666e-03  -8.4743098512260195e-03  -8.8140131283879902e-03 
 -9.1674008804201509e-03  -9.5350285319375627e-03  -9.9174742981492248e-03  -1.0315340133488522e-02 
 -1.0729252720339272e-02  -1.1159864499565601e-02  -1.1607854744625237e-02  -1.2073930681119558e-02 
 -1.2558828653710228e-02  -1.3063315342411496e-02  -1.3588189030349205e-02  -1.4134280925162350e-02 
 -1.4702456536310554e-02  -1.5293617110641275e-02  -1.5908701128663730e-02  -1.6548685864072637e-02 
 -1.7214589009163492e-02  -1.7907470368882791e-02  -1.8628433626360578e-02  -1.9378628182879519e-02 
 -2.0159251075343623e-02  -2.0971548974421390e-02  -2.1816820266651101e-02  -2.2696417223911702e-02 
 -2.3611748263779261e-02  -2.4564280304406921e-02  -2.5555541217685326e-02  -2.6587122384559483e-02 
 -2.7660681356497456e-02  -2.8777944627223967e-02  -2.9940710518949861e-02  -3.1150852187441985e-02 
 -3.2410320750390569e-02  -3.3721148543638113e-02  -3.5085452509936152e-02  -3.6505437724991714e-02 
 -3.7983401065653274e-02  -3.9521735025163554e-02  -4.1122931680472839e-02  -4.2789586816659814e-02 
 -4.4524404213543312e-02  -4.6330200099587070e-02  -4.8209907778196698e-02  -5.0166582431480936e-02 
 -5.2203406106493183e-02  -5.4323692888882870e-02  -5.6530894268761143e-02  -5.8828604703421987e-02 
 -6.1220567381346506e-02  -6.3710680191656058e-02  -6.6303001902855541e-02  -6.9001758554320017e-02 
 -7.1811350063515147e-02  -7.4736357051395169e-02  -7.7781547887785629e-02  -8.0951885957817118e-02 
 -8.4252537149622095e-02  -8.7688877562524387e-02  -9.1266501433833205e-02  -9.4991229281070705e-02 
 -9.8869116255021025e-02  -1.0290646069734503e-01  -1.0710981289466200e-01  -1.1148598401892153e-01 
 -1.1604205524156233e-01  -1.2078538700634492e-01  -1.2572362844283969e-01  -1.3086472689930584e-01 
 -1.3621693757008946e-01  -1.4178883318866847e-01  -1.4758931375302958e-01  -1.5362761624515514e-01 
 -1.5991332430097566e-01  -1.6645637778115752e-01  -1.7326708218652004e-01  -1.8035611785462491e-01 
 -1.8773454886614738e-01  -1.9541383158091977e-01  -2.0340582271401697e-01  -2.1172278685183749e-01 
 -2.2037740329677974e-01  -2.2938277211674465e-01  -2.3875241926224669e-01  -2.4850030059932038e-01 
 -2.5864080469059181e-01  -2.6918875413977472e-01  -2.8015940529638528e-01  -2.9156844609756621e-01 
 -3.0343199180251473e-01  -3.1576657835205502e-01  -3.2858915306131198e-01  -3.4191706232722135e-01 
 -3.5576803600464763e-01  -3.7016016807522134e-01  -3.8511189320158246e-01  -4.0064195872656799e-01 
 -4.1676939164203108e-01  -4.3351346001548119e-01  -4.5089362832469138e-01  -4.6892950611095591e-01 
 -4.8764078932097188e-01  -5.0704719366559292e-01  -5.2716837928125548e-01  -5.4802386593705632e-01 
 -5.6963293798769032e-01  -5.9201453823030448e-01  -6.1518714978232480e-01  -6.3916866505833003e-01 
 -6.6397624088777873e-01  -6.8962613878297641e-01  -7.1613354933916307e-01  -7.4351239972732530e-01 
 -7.7177514322679164e-01  -8.0093252974052642e-01  -8.3099335624315840e-01  -8.6196419613227704e-01 
 -8.9384910648971583e-01  -9.2664931231398762e-01  -9.6036286686050065e-01  -9.9498428732573163e-01 
 -1.0305041652384561e+00  -1.0669087510788333e+00  -1.1041795128384742e+00  -1.1422926684653216e+00 
 -1.1812186924103560e+00  -1.2209217968129795e+00  -1.2613593882324496e+00  -1.3024815012581976e+00 
 -1.3442302108161825e+00  -1.3865390255353065e+00  -1.4293322651507254e+00  -1.4725244256023482e+00 
 -1.5160195362389606e+00  -1.5597105143623293e+00  -1.6034785232411592e+00  -1.6471923406903266e+00 
 -1.6907077463430833e+00  -1.7338669368374287e+00  -1.7764979792848985e+00  -1.8184143145800062e+00 
 -1.8594143233278797e+00  -1.8992809683992726e+00  -1.9377815293449507e+00  -1.9746674450911843e+00 
 -2.0096742824643354e+00  -2.0425218491225450e+00  -2.0729144703668836e+00  -2.1005414500200965e+00 
 -2.1250777360502200e+00  -2.1461848118265681e+00  -2.1635118337707939e+00  -2.1766970356465056e+00 
 -2.1853694187557808e+00  -2.1891507458169914e+00  -2.1876578542237719e+00  -2.1805053016693843e+00 
 -2.1673083537089930e+00  -2.1476863186760879e+00  -2.1212662304291445e+00  -2.0876868736561964e+00 
 -2.0466031398976479e+00  -1.9976906950751439e+00  -1.9406509311698155e+00  -1.8752161658444857e+00 
 -1.8011550443480793e+00  -1.7182780881134061e+00  -1.6264433242411256e+00  -1.5255619197780201e+00 
 -1.4156037346224501e+00  -1.2966026973524158e+00  -1.1686618996513438e+00  -1.0319582977324766e+00 
 -8.8674690370249887e-01  -7.3336434665012129e-01  -5.7223168288359261e-01  -4.0385633761935696e-01 
 -2.2883306689472682e-01  -4.7843838738458891e-02  1.3834345334411374e-01  3.2887751404248189e-01 
 5.2282745626000504e-01  7.1918792453871949e-01  9.1688553616572910e-01  1.1147866221001022e+00 
 1.3117062295338269e+00  1.5064183301598630e+00  1.6976671631970786e+00  1.8841796292362532e+00 
 2.0646786385045788e+00  2.2378973029809885e+00  2.4025938433462195e+00  2.5575670565650497e+00 
 2.7016721563154373e+00  2.8338367564216216e+00  2.9530767191894975e+00  3.0585115411608270e+00 
 3.1493789058675921e+00  3.2250480053295139e+00  3.2850312266876633e+00  3.3289938212223600e+00 
 3.3567612188217657e+00  3.3683237161341513e+00  3.3638383433275214e+00  3.3436277951358786e+00 
 3.3081763913958917e+00  3.2581231079818265e+00  3.1942517906321948e+00  3.1174787328178453e+00 
 3.0288378663512545e+00  2.9294638813652942e+00  2.8205736604356111e+00  2.7034464766402624e+00 
 2.5794034597338498e+00  2.4497868675382155e+00  2.3159397004566027e+00  2.1791861603597846e+00 
 2.0408133849048338e+00  1.9020547976661153e+00  1.7640753247212322e+00  1.6279586595584292e+00 
 1.4946965346018004e+00  1.3651803355172050e+00  1.2401948591909142e+00  1.1204142262050223e+00 
 1.0063999547001843e+00  8.9860110121076131e-01  7.9735634917985421e-01  7.0289788871654002e-01 
 6.1535689500629942e-01  5.3477038235496444e-01  4.6108918828994716e-01  3.9418682865278770e-01 
 3.3386896048789161e-01  2.7988319433272735e-01  2.3192901029065854e-01  1.8966755173890054e-01 
 1.5273109523535408e-01  1.2073202363730894e-01  9.3271160168521799e-02  6.9945352812429237e-02 
 5.0354229760261660e-02  3.4106076674306172e-02  2.0822814400900398e-02  1.0144080844794859e-02 
 1.7304425470600867e-03  -4.7342201766447907e-03  -9.5410959886006470e-03  -1.2955523520217456e-02 
 -1.5216693282022535e-02  -1.6537888693965656e-02  -1.7107182829710143e-02  -1.7088508366042292e-02 
 -1.6623021236603513e-02  -1.5830683205020162e-02  -1.4811994597974502e-02  -1.3649815395906543e-02 
 -1.2411220417790678e-02  -1.1149342144910954e-02  -9.9051625347167330e-03  -8.7092227532001749e-03 
 -7.5832269210731832e-03  -6.5415225858954009e-03  -5.5924466025095293e-03  -4.7395303667109485e-03 
 -3.9825628733369343e-03  -3.3185138596896250e-03  -2.7423223695191954e-03  -2.2475584703449689e-03 
 -1.8269676290441875e-03  -1.4729084572820638e-03  -1.1776952442510912e-03  -9.3385696715972508e-04 
 -7.3432437646600091e-04  -5.7255635917720263e-04  -4.4261615200470028e-04  -3.3920716549678398e-04 
 -2.5767724439058583e-04  -1.9399917781117319e-04  -1.4473422810060740e-04  -1.0698440768342748e-04 
 -7.8338229947964825e-05  -5.6813718932690405e-05  -4.0801602229860657e-05  -2.9010846036151386e-05 
 -2.0418028044005062e-05  -1.4221485149242399e-05  -9.8007188094086519e-06  -6.6811829783107531e-06 
 -4.5043122959001415e-06  -3.0024593561524702e-06  -1.9782888623257894e-06  -1.2881106452031943e-06 
 -8.2861163067924063e-07  -5.2645742046120645e-07  -3.3026781473110502e-07  -2.0451859738919412e-07 
 -1.2497754033117042e-07  -7.5340595728492817e-08  -4.4790451621820751e-08  -2.6251772160947635e-08 
 -1.5163589222944055e-08  -8.6290870845298617e-09  -4.8360640252969070e-09  -2.6682373863234850e-09 
 -1.4487651490219394e-09  -7.7382802441231133e-10  -4.0643363853506204e-10  -2.0982441915109664e-10 
 -1.0643004494569273e-10  -5.3016989126831540e-11  -2.5926118976614199e-11  -1.2439119454973845e-11 
 -5.8531434392359979e-12  -2.7003819267586750e-12  -1.2208448490843071e-12  -5.4000320675557927e-13 
 -2.3365611412550307e-13  -9.8947140373153657e-14  -4.0686878485277551e-14  -1.6825533764158201e-14 
 -6.4478919816678259e-15  -2.6605250004148903e-15  -1.0092127389161603e-15  -4.7817018062604012e-16 
 -2.2638778592508404e-16  0.0000000000000000e+00  0.0000000000000000e+00  0.0000000000000000e+00 
 0.0000000000000000e+00  0.0000000000000000e+00  0.0000000000000000e+00  0.0000000000000000e+00 
 0.0000000000000000e+00  0.0000000000000000e+00  0.0000000000000000e+00  0.0000000000000000e+00 
 0.0000000000000000e+00  0.0000000000000000e+00  0.0000000000000000e+00  0.0000000000000000e+00 
 0.0000000000000000e+00  0.0000000000000000e+00  0.0000000000000000e+00  0.0000000000000000e+00 
 0.0000000000000000e+00  0.0000000000000000e+00  0.0000000000000000e+00  0.0000000000000000e+00 
 0.0000000000000000e+00  0.0000000000000000e+00  0.0000000000000000e+00  0.0000000000000000e+00 
 0.0000000000000000e+00  0.0000000000000000e+00  0.0000000000000000e+00  0.0000000000000000e+00 
 0.0000000000000000e+00  0.0000000000000000e+00  0.0000000000000000e+00  0.0000000000000000e+00 
 0.0000000000000000e+00  0.0000000000000000e+00  0.0000000000000000e+00  0.0000000000000000e+00 
 0.0000000000000000e+00  0.0000000000000000e+00  0.0000000000000000e+00  0.0000000000000000e+00 
 0.0000000000000000e+00  0.0000000000000000e+00  0.0000000000000000e+00  0.0000000000000000e+00 
 0.0000000000000000e+00  0.0000000000000000e+00  0.0000000000000000e+00  0.0000000000000000e+00 
 0.0000000000000000e+00  0.0000000000000000e+00  0.0000000000000000e+00  0.0000000000000000e+00 
 0.0000000000000000e+00  0.0000000000000000e+00  0.0000000000000000e+00  0.0000000000000000e+00 
 0.0000000000000000e+00  0.0000000000000000e+00  0.0000000000000000e+00  0.0000000000000000e+00 
 0.0000000000000000e+00  0.0000000000000000e+00  0.0000000000000000e+00  0.0000000000000000e+00 
 0.0000000000000000e+00  0.0000000000000000e+00  0.0000000000000000e+00  0.0000000000000000e+00 
 0.0000000000000000e+00  0.0000000000000000e+00  0.0000000000000000e+00  0.0000000000000000e+00 
 0.0000000000000000e+00  0.0000000000000000e+00  0.0000000000000000e+00  0.0000000000000000e+00 
 0.0000000000000000e+00  0.0000000000000000e+00  0.0000000000000000e+00  0.0000000000000000e+00 
 0.0000000000000000e+00  0.0000000000000000e+00  0.0000000000000000e+00  0.0000000000000000e+00 
 0.0000000000000000e+00  0.0000000000000000e+00  0.0000000000000000e+00  0.0000000000000000e+00 
 0.0000000000000000e+00  0.0000000000000000e+00  0.0000000000000000e+00  0.0000000000000000e+00 
 0.0000000000000000e+00  0.0000000000000000e+00  0.0000000000000000e+00  0.0000000000000000e+00 
 0.0000000000000000e+00  0.0000000000000000e+00  0.0000000000000000e+00  0.0000000000000000e+00 
 0.0000000000000000e+00  0.0000000000000000e+00  0.0000000000000000e+00  0.0000000000000000e+00 
 0.0000000000000000e+00  0.0000000000000000e+00  0.0000000000000000e+00  0.0000000000000000e+00 
 0.0000000000000000e+00  0.0000000000000000e+00  0.0000000000000000e+00  0.0000000000000000e+00 
 0.0000000000000000e+00  0.0000000000000000e+00  0.0000000000000000e+00  0.0000000000000000e+00 
 0.0000000000000000e+00  0.0000000000000000e+00  0.0000000000000000e+00  0.0000000000000000e+00 
 0.0000000000000000e+00  0.0000000000000000e+00  0.0000000000000000e+00  0.0000000000000000e+00 
 0.0000000000000000e+00  0.0000000000000000e+00  0.0000000000000000e+00  0.0000000000000000e+00 
 0.0000000000000000e+00  0.0000000000000000e+00  0.0000000000000000e+00  0.0000000000000000e+00 
 0.0000000000000000e+00  0.0000000000000000e+00  0.0000000000000000e+00  0.0000000000000000e+00 
 0.0000000000000000e+00  0.0000000000000000e+00  0.0000000000000000e+00  0.0000000000000000e+00 
 0.0000000000000000e+00  0.0000000000000000e+00  0.0000000000000000e+00  0.0000000000000000e+00 
 0.0000000000000000e+00  0.0000000000000000e+00  0.0000000000000000e+00  0.0000000000000000e+00 
 0.0000000000000000e+00  0.0000000000000000e+00  0.0000000000000000e+00  0.0000000000000000e+00 
 0.0000000000000000e+00  0.0000000000000000e+00  0.0000000000000000e+00  0.0000000000000000e+00 
 0.0000000000000000e+00  0.0000000000000000e+00  0.0000000000000000e+00  0.0000000000000000e+00 
 0.0000000000000000e+00  0.0000000000000000e+00  0.0000000000000000e+00  0.0000000000000000e+00 
 0.0000000000000000e+00  0.0000000000000000e+00  0.0000000000000000e+00  0.0000000000000000e+00 
 0.0000000000000000e+00  0.0000000000000000e+00  0.0000000000000000e+00  0.0000000000000000e+00 
 0.0000000000000000e+00  0.0000000000000000e+00  0.0000000000000000e+00  0.0000000000000000e+00 
 0.0000000000000000e+00  0.0000000000000000e+00  0.0000000000000000e+00  0.0000000000000000e+00 
 0.0000000000000000e+00  0.0000000000000000e+00  0.0000000000000000e+00  0.0000000000000000e+00 
 0.0000000000000000e+00  0.0000000000000000e+00  0.0000000000000000e+00  0.0000000000000000e+00 
 0.0000000000000000e+00  0.0000000000000000e+00  0.0000000000000000e+00  0.0000000000000000e+00 
 0.0000000000000000e+00  0.0000000000000000e+00  0.0000000000000000e+00  0.0000000000000000e+00 
 0.0000000000000000e+00  0.0000000000000000e+00  0.0000000000000000e+00  0.0000000000000000e+00 
 0.0000000000000000e+00  0.0000000000000000e+00  0.0000000000000000e+00  0.0000000000000000e+00 
 0.0000000000000000e+00  0.0000000000000000e+00  0.0000000000000000e+00  0.0000000000000000e+00 
 0.0000000000000000e+00  0.0000000000000000e+00  0.0000000000000000e+00  0.0000000000000000e+00 
 0.0000000000000000e+00  0.0000000000000000e+00  0.0000000000000000e+00  0.0000000000000000e+00 
 0.0000000000000000e+00  0.0000000000000000e+00  0.0000000000000000e+00  0.0000000000000000e+00 
 0.0000000000000000e+00  0.0000000000000000e+00  0.0000000000000000e+00  0.0000000000000000e+00 
 0.0000000000000000e+00  0.0000000000000000e+00  0.0000000000000000e+00  0.0000000000000000e+00 
 0.0000000000000000e+00  0.0000000000000000e+00  0.0000000000000000e+00  0.0000000000000000e+00 
 0.0000000000000000e+00  0.0000000000000000e+00  0.0000000000000000e+00  0.0000000000000000e+00 
 0.0000000000000000e+00  0.0000000000000000e+00  0.0000000000000000e+00  0.0000000000000000e+00 
 0.0000000000000000e+00  0.0000000000000000e+00  0.0000000000000000e+00  0.0000000000000000e+00 
 0.0000000000000000e+00  0.0000000000000000e+00  0.0000000000000000e+00  0.0000000000000000e+00 
 0.0000000000000000e+00  0.0000000000000000e+00  0.0000000000000000e+00  0.0000000000000000e+00 
 0.0000000000000000e+00  0.0000000000000000e+00  0.0000000000000000e+00  0.0000000000000000e+00 
 0.0000000000000000e+00  0.0000000000000000e+00  0.0000000000000000e+00  0.0000000000000000e+00 
 0.0000000000000000e+00  0.0000000000000000e+00  0.0000000000000000e+00  0.0000000000000000e+00 
 0.0000000000000000e+00  0.0000000000000000e+00  0.0000000000000000e+00  0.0000000000000000e+00 
 0.0000000000000000e+00  0.0000000000000000e+00  0.0000000000000000e+00 
  </PP_BETA>
  <PP_DIJ>
 4   Number of nonzero Dij
 1 1 2.2628476029564132e+02 
 2 2 1.3826088838182939e+00 
 3 3 3.0037059181323014e+00 
 4 4 2.7330072658264055e+00 
  </PP_DIJ>
</PP_NONLOCAL>
<PP_PSWFC>
S    0   2.00          Wavefunction
 1.0110707275143970e-08  1.0243004563048771e-08  1.0377032944384123e-08  1.0512815070316381e-08 
 1.0650373888400935e-08  1.0789732646460485e-08  1.0930914896514051e-08  1.1073944498757428e-08 
 1.1218845625595686e-08  1.1365642765728467e-08  1.1514360728288742e-08  1.1665024647035687e-08 
 1.1817659984602482e-08  1.1972292536799658e-08  1.2128948436974754e-08  1.2287654160429041e-08 
 1.2448436528892051e-08  1.2611322715054608e-08  1.2776340247161240e-08  1.2943517013662646e-08 
 1.3112881267929061e-08  1.3284461633025269e-08  1.3458287106548168e-08  1.3634387065527555e-08 
 1.3812791271391101e-08  1.3993529874994289e-08  1.4176633421716132e-08  1.4362132856621639e-08 
 1.4550059529691781e-08  1.4740445201121928e-08  1.4933322046689603e-08  1.5128722663192493e-08 
 1.5326680073957606e-08  1.5527227734422544e-08  1.5730399537789805e-08  1.5936229820755052e-08 
 1.6144753369310389e-08  1.6356005424623552e-08  1.6570021688994019e-08  1.6786838331887131e-08 
 1.7006491996047087e-08  1.7229019803690021e-08  1.7454459362778053e-08  1.7682848773375503e-08 
 1.7914226634088246e-08  1.8148632048587363e-08  1.8386104632218146e-08  1.8626684518695604e-08 
 1.8870412366887568e-08  1.9117329367686624e-08  1.9367477250971906e-08  1.9620898292662018e-08 
 1.9877635321860325e-08  2.0137731728093618e-08  2.0401231468645677e-08  2.0668179075986638e-08 
 2.0938619665299743e-08  2.1212598942106480e-08  2.1490163209991599e-08  2.1771359378429147e-08 
 2.2056234970711005e-08  2.2344838131979136e-08  2.2637217637362980e-08  2.2933422900223317e-08 
 2.3233503980504086e-08  2.3537511593193437e-08  2.3845497116895572e-08  2.4157512602514739e-08 
 2.4473610782052917e-08  2.4793845077522626e-08  2.5118269609976371e-08  2.5446939208654298e-08 
 2.5779909420251559e-08  2.6117236518306988e-08  2.6458977512714653e-08  2.6805190159359864e-08 
 2.7155932969881388e-08  2.7511265221561358e-08  2.7871246967344661e-08  2.8235939045989484e-08 
 2.8605403092350735e-08  2.8979701547797974e-08  2.9358897670769843e-08  2.9743055547466519e-08 
 3.0132240102682243e-08  3.0526517110779569e-08  3.0925953206807260e-08  3.1330615897763766e-08 
 3.1740573574008115e-08  3.2155895520820174e-08  3.2576651930112227e-08  3.3002913912293934e-08 
 3.3434753508292473e-08  3.3872243701730204e-08  3.4315458431261578e-08  3.4764472603071740e-08 
 3.5219362103538544e-08  3.5680203812060526e-08  3.6147075614052717e-08  3.6620056414112559e-08 
 3.7099226149358325e-08  3.7584665802942021e-08  3.8076457417739279e-08  3.8574684110218526e-08 
 3.9079430084491629e-08  3.9590780646548596e-08  4.0108822218678650e-08  4.0633642354080064e-08 
 4.1165329751661326e-08  4.1703974271036189e-08  4.2249666947714880e-08  4.2802500008494446e-08 
 4.3362566887050486e-08  4.3929962239733060e-08  4.4504781961569603e-08  4.5087123202477166e-08 
 4.5677084383687144e-08  4.6274765214385055e-08  4.6880266708568219e-08  4.7493691202124242e-08 
 4.8115142370133172e-08  4.8744725244396255e-08  4.9382546231194242e-08  5.0028713129278386e-08 
 5.0683335148096996e-08  5.1346522926260806e-08  5.2018388550250133e-08  5.2699045573367215e-08 
 5.3388609034936635e-08  5.4087195479757508e-08  5.4794922977810312e-08  5.5511911144221947e-08 
 5.6238281159492410e-08  5.6974155789986421e-08  5.7719659408693606e-08  5.8474918016260537e-08 
 5.9240059262298604e-08  6.0015212466970852e-08  6.0800508642861894e-08  6.1596080517134211e-08 
 6.2402062553975090e-08  6.3218590977337465e-08  6.4045803793978936e-08  6.4883840816802847e-08 
 6.5732843688505103e-08  6.6592955905531122e-08  6.7464322842346676e-08  6.8347091776027111e-08 
 6.9241411911168707e-08  7.0147434405126739e-08  7.1065312393584475e-08  7.1995201016457432e-08 
 7.2937257444137126e-08  7.3891640904079202e-08  7.4858512707740204e-08  7.5838036277867430e-08 
 7.6830377176146839e-08  7.7835703131213759e-08  7.8854184067030672e-08  7.9885992131637538e-08 
 8.0931301726279208e-08  8.1990289534914923e-08  8.3063134554115154e-08  8.4150018123350544e-08 
 8.5251123955678538e-08  8.6366638168832492e-08  8.7496749316719048e-08  8.8641648421328827e-08 
 8.9801529005065996e-08  9.0976587123502332e-08  9.2167021398561153e-08  9.3373033052137272e-08 
 9.4594825940158047e-08  9.5832606587092057e-08  9.7086584220910812e-08  9.8356970808509858e-08 
 9.9643981091595059e-08  1.0094783262304038e-07  1.0226874580372343e-07  1.0360694391984500e-07 
 1.0496265318073916e-07  1.0633610275718019e-07  1.0772752482019320e-07  1.0913715458037480e-07 
 1.1056523032773094e-07  1.1201199347203869e-07  1.1347768858373855e-07  1.1496256343536499e-07 
 1.1646686904352177e-07  1.1799085971140976e-07  1.1953479307191403e-07  1.2109893013125866e-07 
 1.2268353531323529e-07  1.2428887650401500e-07  1.2591522509754913e-07  1.2756285604156896e-07 
 1.2923204788419079e-07  1.3092308282113491e-07  1.3263624674356725e-07  1.3437182928657086e-07 
 1.3613012387825690e-07  1.3791142778952265e-07  1.3971604218446596e-07  1.4154427217146440e-07 
 1.4339642685492846e-07  1.4527281938773731e-07  1.4717376702436662e-07  1.4909959117471823e-07 
 1.5105061745865967e-07  1.5302717576128472e-07  1.5502960028890328e-07  1.5705822962577183e-07 
 1.5911340679157282e-07  1.6119547929965445e-07  1.6330479921604065e-07  1.6544172321922084e-07 
 1.6760661266073180e-07  1.6979983362654051e-07  1.7202175699923986e-07  1.7427275852106800e-07 
 1.7655321885776263e-07  1.7886352366326091e-07  1.8120406364525766e-07  1.8357523463163218e-07 
 1.8597743763775654e-07  1.8841107893469707e-07  1.9087657011832052e-07  1.9337432817931888e-07 
 1.9590477557416304e-07  1.9846834029700076e-07  2.0106545595250945e-07  2.0369656182971808e-07 
 2.0636210297681185e-07  2.0906253027693145e-07  2.1179830052498322e-07  2.1456987650547138e-07 
 2.1737772707136826e-07  2.2022232722403621e-07  2.2310415819421608e-07  2.2602370752409619e-07 
 2.2898146915047803e-07  2.3197794348905313e-07  2.3501363751980596e-07  2.3808906487356088e-07 
 2.4120474591968579e-07  2.4436120785497159e-07  2.4755898479370211e-07  2.5079861785893197e-07 
 2.5408065527498925e-07  2.5740565246122000e-07  2.6077417212699228e-07  2.6418678436797712e-07 
 2.6764406676372552e-07  2.7114660447655837e-07  2.7469499035178938e-07  2.7828982501929841e-07 
 2.8193171699647657e-07  2.8562128279256050e-07  2.8935914701437692e-07  2.9314594247351778e-07 
 2.9698231029496595e-07  3.0086890002719304e-07  3.0480636975374974e-07  3.0879538620637138e-07 
 3.1283662487961955e-07  3.1693077014708336e-07  3.2107851537916210e-07  3.2528056306245279e-07 
 3.2953762492076625e-07  3.3385042203779539e-07  3.3821968498146061e-07  3.4264615392995629e-07 
 3.4713057879952424e-07  3.5167371937397941e-07  3.5627634543601464e-07  3.6093923690031008e-07 
 3.6566318394847490e-07  3.7044898716584923e-07  3.7529745768019320e-07  3.8020941730229382e-07 
 3.8518569866851618e-07  3.9022714538533052e-07  3.9533461217584497e-07  4.0050896502837432e-07 
 4.0575108134707677e-07  4.1106185010468995e-07  4.1644217199740012e-07  4.2189295960187521e-07 
 4.2741513753449916e-07  4.3300964261283920e-07  4.3867742401938168e-07  4.4441944346757346e-07 
 4.5023667537020575e-07  4.5613010701017563e-07  4.6210073871366509e-07  4.6814958402577759e-07 
 4.7427766988866758e-07  4.8048603682220922e-07  4.8677573910724096e-07  4.9314784497143033e-07 
 4.9960343677780200e-07  5.0614361121597299e-07  5.1276947949613930e-07  5.1948216754586145e-07 
 5.2628281620969399e-07  5.3317258145170827e-07  5.4015263456095768e-07  5.4722416235993427e-07 
 5.5438836741606860e-07  5.6164646825632641e-07  5.6899969958495295e-07  5.7644931250442193e-07 
 5.8399657473964611e-07  5.9164277086550262e-07  5.9938920253773742e-07  6.0723718872730282e-07 
 6.1518806595819592e-07  6.2324318854885531e-07  6.3140392885718470e-07  6.3967167752926584e-07 
 6.4804784375183173e-07  6.5653385550856755e-07  6.6513115984031063e-07  6.7384122310922145e-07 
 6.8266553126700178e-07  6.9160559012723602e-07  7.0066292564193239e-07  7.0983908418234700e-07 
 7.1913563282417143e-07  7.2855415963716766e-07  7.3809627397934172e-07  7.4776360679573756e-07 
 7.5755781092195016e-07  7.6748056139244610e-07  7.7753355575379149e-07  7.8771851438288422e-07 
 7.9803718081029375e-07  8.0849132204881042e-07  8.1908272892731298e-07  8.2981321643006812e-07 
 8.4068462404156674e-07  8.5169881609702188e-07  8.6285768213864356e-07  8.7416313727781562e-07 
 8.8561712256329862e-07  8.9722160535559341e-07  9.0897857970759482e-07  9.2089006675167494e-07 
 9.3295811509334293e-07  9.4518480121161678e-07  9.5757222986626875e-07  9.7012253451209181e-07 
 9.8283787772035049e-07  9.9572045160757866e-07  1.0087724782718951e-06  1.0219962102370099e-06 
 1.0353939309040993e-06  1.0489679550117445e-06  1.0627206291041099e-06  1.0766543320075697e-06 
 1.0907714753159837e-06  1.1050745038848254e-06  1.1195658963343893e-06  1.1342481655622888e-06 
 1.1491238592654864e-06  1.1641955604720794e-06  1.1794658880831050e-06  1.1949374974245968e-06 
 1.2106130808101717e-06  1.2264953681144038e-06  1.2425871273572732e-06  1.2588911652999727e-06 
 1.2754103280523673e-06  1.2921475016924218e-06  1.3091056128979021e-06  1.3262876295906920e-06 
 1.3436965615940503e-06  1.3613354613031677e-06  1.3792074243693836e-06  1.3973155903984356e-06 
 1.4156631436631301e-06  1.4342533138308348e-06  1.4530893767062085e-06  1.4721746549895909e-06 
 1.4915125190515075e-06  1.5111063877237350e-06  1.5309597291074137e-06  1.5510760613986869e-06 
 1.5714589537323910e-06  1.5921120270443075e-06  1.6130389549525331e-06  1.6342434646585299e-06 
 1.6557293378684344e-06  1.6775004117352466e-06  1.6995605798225059e-06  1.7219137930901240e-06 
 1.7445640609030299e-06  1.7675154520633451e-06  1.7907720958667925e-06  1.8143381831841027e-06 
 1.8382179675681879e-06  1.8624157663878879e-06  1.8869359619891363e-06  1.9117830028843867e-06 
 1.9369614049712270e-06  1.9624757527810889e-06  1.9883307007590284e-06  2.0145309745755850e-06 
 2.0410813724717419e-06  2.0679867666380814e-06  2.0952521046292387e-06  2.1228824108148342e-06 
 2.1508827878680664e-06  2.1792584182932282e-06  2.2080145659934410e-06  2.2371565778799528e-06 
 2.2666898855243933e-06  2.2966200068554428e-06  2.3269525479014225e-06  2.3576932045803550e-06 
 2.3888477645391428e-06  2.4204221090435347e-06  2.4524222149206320e-06  2.4848541565557640e-06 
 2.5177241079456165e-06  2.5510383448095720e-06  2.5848032467613178e-06  2.6190252995428200e-06 
 2.6537110973228864e-06  2.6888673450625960e-06  2.7245008609499746e-06  2.7606185789063923e-06 
 2.7972275511672549e-06  2.8343349509396569e-06  2.8719480751397757e-06  2.9100743472128972e-06 
 2.9487213200390741e-06  2.9878966789275348e-06  3.0276082447031118e-06  3.0678639768880332e-06 
 3.1086719769826276e-06  3.1500404918485673e-06  3.1919779171984754e-06  3.2344928011958380e-06 
 3.2775938481693417e-06  3.3212899224459302e-06  3.3655900523070129e-06  3.4105034340725007e-06 
 3.4560394363174603e-06  3.5022076042264434e-06  3.5490176640907032e-06  3.5964795279537584e-06 
 3.6446032984109771e-06  3.6933992735690696e-06  3.7428779521716773e-06  3.7930500388974094e-06 
 3.8439264498370721e-06  3.8955183181569628e-06  3.9478369999555393e-06  4.0008940803209567e-06 
 4.0547013795973602e-06  4.1092709598681274e-06  4.1646151316645751e-06  4.2207464609090464e-06 
 4.2776777761016478e-06  4.3354221757603066e-06  4.3939930361242169e-06  4.4534040191312095e-06 
 4.5136690806799643e-06  4.5748024791885495e-06  4.6368187844611533e-06  4.6997328868754841e-06 
 4.7635600069037956e-06  4.8283157049810651e-06  4.8940158917344718e-06  4.9606768385888859e-06 
 5.0283151887637673e-06  5.0969479686775287e-06  5.1665925997761233e-06  5.2372669108033568e-06 
 5.3089891505312008e-06  5.3817780009691866e-06  5.4556525910728090e-06  5.5306325109717819e-06 
 5.6067378267398543e-06  5.6839890957289642e-06  5.7624073824914299e-06  5.8420142753150339e-06 
 5.9228319033969286e-06  6.0048829546834883e-06  6.0881906944044514e-06  6.1727789843310192e-06 
 6.2586723027889312e-06  6.3458957654589253e-06  6.4344751469985377e-06  6.5244369035207401e-06 
 6.6158081959665938e-06  6.7086169144107506e-06  6.8028917033405824e-06  6.8986619879514916e-06 
 6.9959580015030597e-06  7.0948108137827800e-06  7.1952523607262998e-06  7.2973154752454633e-06 
 7.4010339193179159e-06  7.5064424173945546e-06  7.6135766911838685e-06  7.7224734958750480e-06 
 7.8331706578647499e-06  7.9457071140555308e-06  8.0601229527974040e-06  8.1764594565472975e-06 
 8.2947591463250468e-06  8.4150658280483751e-06  8.5374246408333909e-06  8.6618821073515022e-06 
 8.7884861863381689e-06  8.9172863273537144e-06  9.0483335279014917e-06  9.1816803930140693e-06 
 9.3173811974236539e-06  9.4554919504389936e-06  9.5960704636572862e-06  9.7391764216461851e-06 
 9.8848714557380371e-06  1.0033219221085915e-05  1.0184285477138771e-05  1.0338138171701282e-05 
 1.0494847528752847e-05  1.0654486140209172e-05  1.0817129061819903e-05  1.0982853913405928e-05 
 1.1151740983651021e-05  1.1323873339673964e-05  1.1499336941619667e-05  1.1678220762520685e-05 
 1.1860616913694284e-05  1.2046620775954917e-05  1.2236331136937131e-05  1.2429850334840641e-05 
 1.2627284408926319e-05  1.2828743257110558e-05  1.3034340801024724e-05  1.3244195158927385e-05 
 1.3458428826878769e-05  1.3677168868610433e-05  1.3900547114547876e-05  1.4128700370470084e-05 
 1.4361770636318130e-05  1.4599905335694659e-05  1.4843257556627630e-05  1.5091986304205492e-05 
 1.5346256765726623e-05  1.5606240589044014e-05  1.5872116174826601e-05  1.6144068983501982e-05 
 1.6422291857690965e-05  1.6706985360993435e-05  1.6998358134037219e-05  1.7296627268757066e-05 
 1.7602018701930157e-05  1.7914767629057732e-05  1.8235118939749723e-05  1.8563327675841191e-05 
 1.8899659513546124e-05  1.9244391271035930e-05  1.9597811442917452e-05  1.9960220763178739e-05 
 2.0331932798270543e-05  2.0713274572098225e-05  2.1104587224812602e-05  2.1506226707410352e-05 
 2.1918564514284848e-05  2.2341988456007852e-05  2.2776903474771772e-05  2.3223732505082033e-05 
 2.3682917382460298e-05  2.4154919803102586e-05  2.4640222337632800e-05  2.5139329502302628e-05 
 2.5652768891214679e-05  2.6181092373387560e-05  2.6724877358741597e-05  2.7284728137361971e-05 
 2.7861277296695795e-05  2.8455187221660221e-05  2.9067151682983700e-05  2.9697897519473066e-05 
 3.0348186420296963e-05  3.1018816813804460e-05  3.1710625869857317e-05  3.2424491623149762e-05 
 3.3161335225521668e-05  3.3922123335844343e-05  3.4707870656674725e-05  3.5519642627538372e-05 
 3.6358558285416770e-05  3.7225793303785737e-05  3.8122583222382375e-05  3.9050226880774043e-05 
 4.0010090069768922e-05  4.1003609415749669e-05  4.2032296514136635e-05  4.3097742329400719e-05 
 4.4201621880356780e-05  4.5345699230884138e-05  4.6531832807749702e-05  4.7761981068862406e-05 
 4.9038208547073904e-05  5.0362692296572550e-05  5.1737728771006713e-05  5.3165741164735057e-05 
 5.4649287251047145e-05  5.6191067753847215e-05  5.7793935292161855e-05  5.9460903939938733e-05 
 6.1195159446970790e-05  6.3000070170427181e-05  6.4879198770428611e-05  6.6836314727392607e-05 
 6.8875407743526965e-05  7.1000702095896603e-05  7.3216672013968044e-05  7.5528058160480391e-05 
 7.7939885300951417e-05  8.0457481254138502e-05  8.3086497223395131e-05  8.5832929617142570e-05 
 8.8703143475676863e-05  9.1703897631315156e-05  9.4842371739526718e-05  9.8126195330267669e-05 
 1.0156347904133003e-04  1.0516284820921945e-04  1.0893347900798955e-04  1.1288513734269875e-04 
 1.1702822072183506e-04  1.2137380335230985e-04  1.2593368472159670e-04  1.3072044195444238e-04 
 1.3574748625647980e-04  1.4102912378420737e-04  1.4658062131038383e-04  1.5241827708613201e-04 
 1.5855949733620581e-04  1.6502287886221241e-04  1.7182829827039244e-04  1.7899700838615792e-04 
 1.8655174246732511e-04  1.9451682688222986e-04  2.0291830297809250e-04  2.1178405892955746e-04 
 2.2114397242775749e-04  2.3103006514707894e-04  2.4147667001061344e-04  2.5252061236669799e-04 
 2.6420140628866389e-04  2.7656146731866877e-04  2.8964634309509250e-04  3.0350496343229674e-04 
 3.1818991156254612e-04  3.3375771840356939e-04  3.5026918188271853e-04  3.6778971353115830e-04 
 3.8638971476025907e-04  4.0614498544877168e-04  4.2713716770490250e-04  4.4945422792368205e-04 
 4.7319098053872163e-04  4.9844965717040272e-04  5.2534052520166526e-04  5.5398256016990846e-04 
 5.8450417675124733e-04  6.1704402353377678e-04  6.5175184723195994e-04  6.8878943248728295e-04 
 7.2833162393352402e-04  7.7056743778099526e-04  8.1570127079574146e-04  8.6395421521966317e-04 
 9.1556548889866810e-04  9.7079399066105337e-04  1.0299199918200380e-03  1.0932469755653056e-03 
 1.1611036369609329e-03  1.2338460572833068e-03  1.3118600675142416e-03  1.3955638169528073e-03 
 1.4854105641249255e-03  1.5818917084524588e-03  1.6855400824921877e-03  1.7969335259674342e-03 
 1.9166987642874867e-03  2.0455156157770001e-03  2.1841215534118994e-03  2.3333166484701558e-03 
 2.4939689251429059e-03  2.6670201567979782e-03  2.8534921362247789e-03  3.0544934537933104e-03 
 3.2712268190025497e-03  3.5049969623409767e-03  3.7572191556950749e-03  4.0294283906736669e-03 
 4.3232892551130437e-03  4.6406065486277667e-03  4.9833366783033567e-03  5.3535998754086749e-03 
 5.7536932732457037e-03  6.1861048848495777e-03  6.6535285170868331e-03  7.1588796546475453e-03 
 7.7053123433469791e-03  8.2962370968914182e-03  8.9353398446557347e-03  9.6266019298889890e-03 
 1.0374321157921093e-02  1.1183133882190339e-02  1.2058038102044115e-02  1.3004417530075430e-02 
 1.4028066568037194e-02  1.5135216108922593e-02  1.6332560058420733e-02  1.7627282441480041e-02 
 1.9027084928991161e-02  2.0540214585528870e-02  2.2175491601609313e-02  2.3942336733028154e-02 
 2.5850798125626063e-02  2.7911577156453846e-02  3.0136052872061603e-02  3.2536304551923634e-02 
 3.5125131870390749e-02  3.7916072074752193e-02  4.0923413540893877e-02  4.4162205012759755e-02 
 4.7648259778671931e-02  5.1398153988082285e-02  5.5429218268281018e-02  5.9759521763975594e-02 
 6.4407847695697906e-02  6.9393659518129758e-02  7.4737056759262066e-02  8.0458719638576134e-02 
 8.6579841599986163e-02  9.3122048955963058e-02  1.0010730692584273e-01  1.0755781146639012e-01 
 1.1549586643850748e-01  1.2394374583229914e-01  1.3292354098463058e-01  1.4245699296899203e-01 
 1.5256531061587988e-01  1.6326897493049505e-01  1.7458753100894589e-01  1.8653936890769388e-01 
 1.9914149528442937e-01  2.1240929798964939e-01  2.2635630613139751e-01  2.4099394844208466e-01 
 2.5633131302419448e-01  2.7237491171704603e-01  2.8912845238526158e-01  3.0659262235911977e-01 
 3.2476488604167419e-01  3.4363929933265119e-01  3.6320634301666938e-01  3.8345277665714261e-01 
 4.0436151388669872e-01  4.2591151937465715e-01  4.4807772728646494e-01  4.7083098084118258e-01 
 4.9413799272302139e-01  5.1796132668095574e-01  5.4225940167076514e-01  5.6698652129640592e-01 
 5.9209293294571574e-01  6.1752492265270142e-01  6.4322495303708294e-01  6.6913185229713468e-01 
 6.9518106178662964e-01  7.2130494790182365e-01  7.4743318076617971e-01  7.7349317779634874e-01 
 7.9941060532139108e-01  8.2510992695412244e-01  8.5051498433620987e-01  8.7554959481350092e-01 
 9.0013815156777754e-01  9.2420621415638482e-01  9.4768108034757947e-01  9.7049233261673518e-01 
 9.9257235396013488e-01  1.0138568074270680e+00  1.0342850719863450e+00  1.0538006244377931e+00 
 1.0723513538984188e+00  1.0898897932527736e+00  1.1063732525026366e+00  1.1217638436805089e+00 
 1.1360283964578464e+00  1.1491382766068237e+00  1.1610691329836853e+00  1.1718006085871970e+00 
 1.1813160541019796e+00  1.1896022770929124e+00  1.1966493512864878e+00  1.2024505090969873e+00 
 1.2070020069778160e+00  1.2103031397119133e+00  1.2123562565078900e+00  1.2131667591201192e+00 
 1.2127431046280481e+00  1.2110967934109456e+00  1.2082423354253866e+00  1.2041971929859114e+00 
 1.1989817009396135e+00  1.1926189667470335e+00  1.1851347537277082e+00  1.1765573508532905e+00 
 1.1669174322149893e+00  1.1562479088463538e+00  1.1445837750806633e+00  1.1319619511459156e+00 
 1.1184211232920394e+00  1.1040015824199187e+00  1.0887450619392773e+00  1.0726945754129846e+00 
 1.0558942544358183e+00  1.0383891871326476e+00  1.0202252576318753e+00  1.0014489868641732e+00 
 9.8210737504545009e-01  9.6224774621985798e-01  9.4191759525843910e-01  9.2116443772800360e-01 
 9.0003566283598702e-01  8.7857839101634727e-01  8.5683933436073467e-01  8.3486466257689307e-01 
 8.1269987379743391e-01  7.9038967088421241e-01  7.6797784363438559e-01  7.4550715726649297e-01 
 7.2301924753168023e-01  7.0055452276764141e-01  6.7815207317283943e-01  6.5584958753339284e-01 
 6.3368327759976717e-01  6.1168781026020247e-01  5.8989624760554038e-01  5.6833999494894538e-01 
 5.4704875681422327e-01  5.2605050085431437e-01  5.0537142962403048e-01  4.8503596008854855e-01 
 4.6506671070954159e-01  4.4548449591383538e-01  4.2630832771524918e-01  4.0755542422900004e-01 
 3.8924122478986251e-01  3.7137941136029712e-01  3.5398193589301402e-01  3.3705905329392782e-01 
 3.2061935961614269e-01  3.0466983510339696e-01  2.8921589169219486e-01  2.7426142457547770e-01 
 2.5980886742688830e-01  2.4585925088458560e-01  2.3241226389353106e-01  2.1946631750889822e-01 
 2.0701861077010045e-01  1.9506519825940077e-01  1.8360105897108836e-01  1.7262016612747744e-01 
 1.6211555758754417e-01  1.5207940650876756e-01  1.4250309193662367e-01  1.3337726901124755e-01 
 1.2469193849674913e-01  1.1643651535538582e-01  1.0859989610616114e-01  1.0117052472533378e-01 
 9.4136456864693366e-02  8.7485422182188452e-02  8.1204884598482172e-02  7.5282100312166686e-02 
 6.9704173425567686e-02  6.4458109052222476e-02  5.9530863796132490e-02  5.4909393511650612e-02 
 5.0580698271255962e-02  4.6531864486412992e-02  4.2750104144116730e-02  3.9222791138497089e-02 
 3.5937494692924586e-02  3.2882009883351812e-02  3.0044385288083633e-02  2.7412947802741908e-02 
 2.4976324671834988e-02  2.2723462800026864e-02  2.0643645416901318e-02  1.8726506178717500e-02 
 1.6962040799350972e-02  1.5340616310309535e-02  1.3852978056418481e-02  1.2490254539503198e-02 
 1.1243960227184754e-02  1.0105996447774072e-02  9.0686504952367051e-03  8.1245930703610116e-03 
 7.2668741855991537e-03  6.4889176616209623e-03  5.7845143434888261e-03  5.1478141635175985e-03 
 4.5733171763911052e-03  4.0558636899894968e-03  3.5906236126708063e-03  3.1730851344757846e-03 
 2.7990428559182923e-03  2.4645854737170322e-03  2.1660831280546603e-03  1.9001745107468675e-03 
 1.6637538281332619e-03  1.4539577066028943e-03  1.2681521224568982e-03  1.1039194314042908e-03 
 9.5904556642661606e-04  8.3150746606146242e-04  7.1946078845396488e-04  6.2122795985158810e-04 
 5.3528659961427896e-04  4.6025835737380726e-04  3.9489819174157777e-04  3.3808411397024041e-04 
 2.8880741428162580e-04  2.4616338321256089e-04  2.0934253533243856e-04  1.7762233807623888e-04 
 1.5035944423139527e-04  1.2698242282728291e-04  1.0698497980673151e-04  8.9919656908515070e-05 
 7.5391994651506528e-05  6.3055143173482630e-05  5.2604902924503930e-05  4.3775175826743261e-05 
 3.6333806466934831e-05  3.0078792159183643e-05  2.4834840277901265e-05  2.0450251085173712e-05 
 1.6794104335465061e-05  1.3753728204792106e-05  1.1232429533462804e-05  9.1474649641910411e-06 
 7.4282332752023435e-06  6.0146700267008093e-06  4.8558265363945647e-06  3.9086161551631034e-06 
 3.1367118088199254e-06  2.5095797896105768e-06  2.0016358070058238e-06  1.5915103284603598e-06 
 1.2614112462652889e-06  9.9657288695264337e-07  7.8478132718788410e-07  6.1596688842257062e-07 
 4.8185554685348002e-07  3.7567181177403108e-07  2.9188639166725829e-07  2.2600268184986857e-07 
 1.7437676950662484e-07  1.3406626171291446e-07  1.0270380036734422e-07  7.8391636253169235e-08 
 5.9614094594969088e-08  4.5165178727423238e-08  3.4088929384112291e-08  2.5630487387613756e-08 
 1.9196100049275193e-08  1.4320569303508877e-08  1.0640865449513226e-08  7.8748272529155417e-09 
 5.8040398878102328e-09  4.2601294769895696e-09  3.1138393744974376e-09  2.2663612298465095e-09 
 1.6424855051018275e-09  1.1852135334645313e-09  8.5153827908016940e-10  6.0915537196698902e-10 
 4.3391126558721795e-10  3.0783284955532517e-10  2.1761374475775007e-10  1.5345787116381960e-10 
 0.0000000000000000e+00  0.0000000000000000e+00  0.0000000000000000e+00  0.0000000000000000e+00 
 0.0000000000000000e+00  0.0000000000000000e+00  0.0000000000000000e+00  0.0000000000000000e+00 
 0.0000000000000000e+00  0.0000000000000000e+00  0.0000000000000000e+00  0.0000000000000000e+00 
 0.0000000000000000e+00  0.0000000000000000e+00  0.0000000000000000e+00  0.0000000000000000e+00 
 0.0000000000000000e+00  0.0000000000000000e+00  0.0000000000000000e+00  0.0000000000000000e+00 
 0.0000000000000000e+00  0.0000000000000000e+00  0.0000000000000000e+00  0.0000000000000000e+00 
 0.0000000000000000e+00  0.0000000000000000e+00  0.0000000000000000e+00  0.0000000000000000e+00 
 0.0000000000000000e+00  0.0000000000000000e+00  0.0000000000000000e+00  0.0000000000000000e+00 
 0.0000000000000000e+00  0.0000000000000000e+00  0.0000000000000000e+00  0.0000000000000000e+00 
 0.0000000000000000e+00  0.0000000000000000e+00  0.0000000000000000e+00  0.0000000000000000e+00 
 0.0000000000000000e+00  0.0000000000000000e+00  0.0000000000000000e+00  0.0000000000000000e+00 
 0.0000000000000000e+00  0.0000000000000000e+00  0.0000000000000000e+00  0.0000000000000000e+00 
 0.0000000000000000e+00  0.0000000000000000e+00  0.0000000000000000e+00  0.0000000000000000e+00 
 0.0000000000000000e+00  0.0000000000000000e+00  0.0000000000000000e+00  0.0000000000000000e+00 
 0.0000000000000000e+00  0.0000000000000000e+00  0.0000000000000000e+00  0.0000000000000000e+00 
 0.0000000000000000e+00  0.0000000000000000e+00  0.0000000000000000e+00  0.0000000000000000e+00 
 0.0000000000000000e+00  0.0000000000000000e+00  0.0000000000000000e+00  0.0000000000000000e+00 
 0.0000000000000000e+00  0.0000000000000000e+00  0.0000000000000000e+00  0.0000000000000000e+00 
 0.0000000000000000e+00  0.0000000000000000e+00  0.0000000000000000e+00  0.0000000000000000e+00 
 0.0000000000000000e+00  0.0000000000000000e+00  0.0000000000000000e+00  0.0000000000000000e+00 
 0.0000000000000000e+00  0.0000000000000000e+00  0.0000000000000000e+00  0.0000000000000000e+00 
 0.0000000000000000e+00  0.0000000000000000e+00  0.0000000000000000e+00  0.0000000000000000e+00 
 0.0000000000000000e+00  0.0000000000000000e+00  0.0000000000000000e+00  0.0000000000000000e+00 
 0.0000000000000000e+00  0.0000000000000000e+00  0.0000000000000000e+00  0.0000000000000000e+00 
 0.0000000000000000e+00  0.0000000000000000e+00  0.0000000000000000e+00  0.0000000000000000e+00 
 0.0000000000000000e+00  0.0000000000000000e+00  0.0000000000000000e+00  0.0000000000000000e+00 
 0.0000000000000000e+00  0.0000000000000000e+00  0.0000000000000000e+00  0.0000000000000000e+00 
 0.0000000000000000e+00  0.0000000000000000e+00  0.0000000000000000e+00  0.0000000000000000e+00 
 0.0000000000000000e+00  0.0000000000000000e+00  0.0000000000000000e+00  0.0000000000000000e+00 
 0.0000000000000000e+00  0.0000000000000000e+00  0.0000000000000000e+00  0.0000000000000000e+00 
 0.0000000000000000e+00  0.0000000000000000e+00  0.0000000000000000e+00  0.0000000000000000e+00 
 0.0000000000000000e+00  0.0000000000000000e+00  0.0000000000000000e+00  0.0000000000000000e+00 
 0.0000000000000000e+00  0.0000000000000000e+00  0.0000000000000000e+00  0.0000000000000000e+00 
 0.0000000000000000e+00  0.0000000000000000e+00  0.0000000000000000e+00  0.0000000000000000e+00 
 0.0000000000000000e+00  0.0000000000000000e+00  0.0000000000000000e+00  0.0000000000000000e+00 
 0.0000000000000000e+00  0.0000000000000000e+00  0.0000000000000000e+00  0.0000000000000000e+00 
 0.0000000000000000e+00  0.0000000000000000e+00  0.0000000000000000e+00  0.0000000000000000e+00 
 0.0000000000000000e+00  0.0000000000000000e+00  0.0000000000000000e+00  0.0000000000000000e+00 
 0.0000000000000000e+00  0.0000000000000000e+00  0.0000000000000000e+00  0.0000000000000000e+00 
 0.0000000000000000e+00  0.0000000000000000e+00  0.0000000000000000e+00  0.0000000000000000e+00 
 0.0000000000000000e+00  0.0000000000000000e+00  0.0000000000000000e+00  0.0000000000000000e+00 
 0.0000000000000000e+00  0.0000000000000000e+00  0.0000000000000000e+00  0.0000000000000000e+00 
 0.0000000000000000e+00  0.0000000000000000e+00  0.0000000000000000e+00  0.0000000000000000e+00 
 0.0000000000000000e+00  0.0000000000000000e+00  0.0000000000000000e+00  0.0000000000000000e+00 
 0.0000000000000000e+00  0.0000000000000000e+00  0.0000000000000000e+00  0.0000000000000000e+00 
 0.0000000000000000e+00  0.0000000000000000e+00  0.0000000000000000e+00  0.0000000000000000e+00 
 0.0000000000000000e+00  0.0000000000000000e+00  0.0000000000000000e+00  0.0000000000000000e+00 
 0.0000000000000000e+00  0.0000000000000000e+00  0.0000000000000000e+00 
P    1   2.00          Wavefunction
 7.6495972306360921e-12  7.8510948842556569e-12  8.0579001775688396e-12  8.2701529188596424e-12 
 8.4879965990959641e-12  8.7115784889350391e-12  8.9410497382840873e-12  9.1765654784835320e-12 
 9.4182849271817609e-12  9.6663714959724477e-12  9.9209929008671157e-12  1.0182321275677660e-11 
 1.0450533288385497e-11  1.0725810260575964e-11  1.1008338290018762e-11  1.1298308376477274e-11 
 1.1595916550831834e-11  1.1901364007604219e-11  1.2214857240972992e-11  1.2536608184371590e-11 
 1.2866834353763597e-11  1.3205758994692000e-11  1.3553611233201907e-11  1.3910626230738686e-11 
 1.4277045343126273e-11  1.4653116283733165e-11  1.5039093290936344e-11  1.5435237299996350e-11 
 1.5841816119459765e-11  1.6259104612208269e-11  1.6687384881276730e-11  1.7126946460565946e-11 
 1.7578086510578919e-11  1.8041110019313040e-11  1.8516330008443988e-11  1.9004067744940708e-11 
 1.9504652958254535e-11  2.0018424063229331e-11  2.0545728388883264e-11  2.1086922413216959e-11 
 2.1642372004206748e-11  2.2212452667145886e-11  2.2797549798501028e-11  2.3398058946455535e-11 
 2.4014386078315769e-11  2.4646947854961114e-11  2.5296171912523352e-11  2.5962497151485696e-11 
 2.6646374033397059e-11  2.7348264885402054e-11  2.8068644212792648e-11  2.8807999019792726e-11 
 2.9566829138792505e-11  3.0345647568255262e-11  3.1144980819524979e-11  3.1965369272769169e-11 
 3.2807367542297703e-11  3.3671544851504445e-11  3.4558485417685334e-11  3.5468788846992880e-11 
 3.6403070539794331e-11  3.7361962106707284e-11  3.8346111795594190e-11  3.9356184929804330e-11 
 4.0392864357959581e-11  4.1456850915588050e-11  4.2548863898917613e-11  4.3669641551149656e-11 
 4.4819941561541981e-11  4.6000541577637856e-11  4.7212239730987964e-11  4.8455855176720364e-11 
 4.9732228647323300e-11  5.1042223021015399e-11  5.2386723905087211e-11  5.3766640234608770e-11 
 5.5182904886907835e-11  5.6636475312233952e-11  5.8128334181035203e-11  5.9659490048284801e-11 
 6.1230978035307016e-11  6.2843860529562881e-11  6.4499227902869458e-11  6.6198199248537468e-11 
 6.7941923137926401e-11  6.9731578396927794e-11  7.1568374902902286e-11  7.3453554402608914e-11 
 7.5388391351679591e-11  7.7374193776206354e-11  7.9412304157024005e-11  8.1504100337285781e-11 
 8.3650996453945563e-11  8.5854443893776825e-11  8.8115932274573963e-11  9.0436990452200003e-11 
 9.2819187554160977e-11  9.5264134040406233e-11  9.7773482792071457e-11  1.0034893022890052e-10 
 1.0299221745610198e-10  1.0570513144141496e-10  1.0848950622318071e-10  1.1134722415023647e-10 
 1.1428021715446954e-10  1.1729046805689245e-10  1.2038001190812175e-10  1.2355093736416703e-10 
 1.2680538809846003e-10  1.3014556425107853e-10  1.3357372391614515e-10  1.3709218466840612e-10 
 1.4070332513002234e-10  1.4440958657863202e-10  1.4821347459777236e-10  1.5211756077077530e-10 
 1.5612448441928346e-10  1.6023695438756084e-10  1.6445775087380550e-10  1.6878972730970141e-10 
 1.7323581228948075e-10  1.7779901154980103e-10  1.8248241000177478e-10  1.8728917381652685e-10 
 1.9222255256568815e-10  1.9728588141827385e-10  2.0248258339543080e-10  2.0781617168457907e-10 
 2.1329025201451160e-10  2.1890852509305846e-10  2.2467478910896303e-10  2.3059294229966221e-10 
 2.3666698558670699e-10  2.4290102528060373e-10  2.4929927585690714e-10  2.5586606280543980e-10 
 2.6260582555456582e-10  2.6952312047249576e-10  2.7662262394765103e-10  2.8390913555017166e-10 
 2.9138758127670436e-10  2.9906301688066475e-10  3.0694063129022530e-10  3.1502575011634082e-10 
 3.2332383925318156e-10  3.3184050857341088e-10  3.4058151572080291e-10  3.4955277000276773e-10 
 3.5876033638541260e-10  3.6821043959384352e-10  3.7790946832047760e-10  3.8786397954421199e-10 
 3.9808070296337015e-10  4.0856654554542261e-10  4.1932859619655867e-10  4.3037413055426558e-10 
 4.4171061590615668e-10  4.5334571623837450e-10  4.6528729741698132e-10  4.7754343250584158e-10 
 4.9012240722459144e-10  5.0303272555038614e-10  5.1628311546721376e-10  5.2988253486666113e-10 
 5.4384017760412391e-10  5.5816547971455338e-10  5.7286812579194751e-10  5.8795805553689339e-10 
 6.0344547047659593e-10  6.1934084086193086e-10  6.3565491274618889e-10  6.5239871525029721e-10 
 6.6958356801943199e-10  6.8722108887606155e-10  7.0532320167459819e-10  7.2390214436296959e-10 
 7.4297047725656083e-10  7.6254109153012111e-10  7.8262721793338110e-10  8.0324243573627005e-10 
 8.2440068190978818e-10  8.4611626054873668e-10  8.6840385254268114e-10  8.9127852550168855e-10 
 9.1475574394355069e-10  9.3885137974938068e-10  9.6358172289465683e-10  9.8896349246297112e-10 
 1.0150138479499267e-09  1.0417504008648376e-09  1.0691912266380679e-09  1.0973548768420707e-09 
 1.1262603917343877e-09  1.1559273131310980e-09  1.1863756976194175e-09  1.2176261301183873e-09 
 1.2496997377968268e-09  1.2826182043579596e-09  1.3164037847003798e-09  1.3510793199652678e-09 
 1.3866682529800451e-09  1.4231946441089003e-09  1.4606831875209214e-09  1.4991592278868303e-09 
 1.5386487775156164e-09  1.5791785339426623e-09  1.6207758979812566e-09  1.6634689922497144e-09 
 1.7072866801866218e-09  1.7522585855670897e-09  1.7984151125331978e-09  1.8457874661522015e-09 
 1.8944076735163932e-09  1.9443086053989018e-09  1.9955239984800831e-09  2.0480884781595297e-09 
 2.1020375819691484e-09  2.1574077836031379e-09  2.2142365175811239e-09  2.2725622045611518e-09 
 2.3324242773196508e-09  2.3938632074159604e-09  2.4569205325594560e-09  2.5216388846977981e-09 
 2.5880620188453077e-09  2.6562348426709907e-09  2.7262034468662124e-09  2.7980151363125972e-09 
 2.8717184620712332e-09  2.9473632542148457e-09  3.0250006555251442e-09  3.1046831560781705e-09 
 3.1864646287410455e-09  3.2704003656041463e-09  3.3565471153733823e-09  3.4449631217478677e-09 
 3.5357081628089913e-09  3.6288435914475323e-09  3.7244323768562033e-09  3.8225391471157147e-09 
 3.9232302329031813e-09  4.0265737123524875e-09  4.1326394570969604e-09  4.2414991795255668e-09 
 4.3532264812845924e-09  4.4678969030576939e-09  4.5855879756579935e-09  4.7063792724668634e-09 
 4.8303524632548901e-09  4.9575913694214812e-09  5.0881820206905366e-09  5.2222127133005939e-09 
 5.3597740697288603e-09  5.5009590999896107e-09  5.6458632645484650e-09  5.7945845388951804e-09 
 5.9472234798187406e-09  6.1038832934295998e-09  6.2646699049752408e-09  6.4296920304963192e-09 
 6.5990612503719862e-09  6.7728920848042438e-09  6.9513020712924835e-09  7.1344118441507471e-09 
 7.3223452161216163e-09  7.5152292621420809e-09  7.7131944053181659e-09  7.9163745051666229e-09 
 8.1249069481835785e-09  8.3389327408014723e-09  8.5585966047974568e-09  8.7840470752178901e-09 
 9.0154366008853945e-09  9.2529216475566814e-09  9.4966628038011354e-09  9.7468248896719965e-09 
 1.0003577068243910e-08  1.0267092960092577e-08  1.0537550760794154e-08  1.0815133361524254e-08 
 1.1100028472838371e-08  1.1392428751717826e-08  1.1692531931967489e-08  1.2000540958053877e-08 
 1.2316664122474526e-08  1.2641115206751972e-08  1.2974113626148144e-08  1.3315884578197530e-08 
 1.3666659195160044e-08  1.4026674700497276e-08  1.4396174569478421e-08  1.4775408694025200e-08 
 1.5164633551907818e-08  1.5564112380407052e-08  1.5974115354560612e-08  1.6394919770115112e-08 
 1.6826810231308020e-08  1.7270078843607536e-08  1.7725025411541578e-08  1.8191957641750467e-08 
 1.8671191351401750e-08  1.9163050682109015e-08  1.9667868319500496e-08  2.0185985718587026e-08 
 2.0717753335082993e-08  2.1263530862837953e-08  2.1823687477540844e-08  2.2398602086862957e-08 
 2.2988663587210289e-08  2.3594271127260549e-08  2.4215834378464608e-08  2.4853773812697023e-08 
 2.5508520987245371e-08  2.6180518837332845e-08  2.6870221976374110e-08  2.7578097004169548e-08 
 2.8304622823248553e-08  2.9050290963578244e-08  2.9815605915859619e-08  3.0601085473639213e-08 
 3.1407261084470386e-08  3.2234678210364736e-08  3.3083896697780362e-08  3.3955491157400463e-08 
 3.4850051353962665e-08  3.5768182606406185e-08  3.6710506198611344e-08  3.7677659801013113e-08 
 3.8670297903378221e-08  3.9689092259042695e-08  4.0734732340915430e-08  4.1807925809560493e-08 
 4.2909398993680574e-08  4.4039897383331543e-08  4.5200186136207802e-08  4.6391050597346704e-08 
 4.7613296832610179e-08  4.8867752176310925e-08  5.0155265793360701e-08  5.1476709256328788e-08 
 5.2832977137808207e-08  5.4224987618499286e-08  5.5653683111430180e-08  5.7120030902746190e-08 
 5.8625023809510699e-08  6.0169680854973212e-08  6.1755047961771896e-08  6.3382198663550756e-08 
 6.5052234835485447e-08  6.6766287444223570e-08  6.8525517317760806e-08  7.0331115935787432e-08 
 7.2184306241054517e-08  7.4086343472324543e-08  7.6038516019485994e-08  7.8042146301427982e-08 
 8.0098591667286514e-08  8.2209245321692175e-08  8.4375537274664345e-08  8.6598935316816444e-08 
 8.8880946020554488e-08  9.1223115767969584e-08  9.3627031806144988e-08  9.6094323330617679e-08 
 9.8626662597755709e-08  1.0122576606683186e-07  1.0389339557259890e-07  1.0663135952919010e-07 
 1.0944151416619522e-07  1.1232576479778326e-07  1.1528606712576921e-07  1.1832442857754580e-07 
 1.2144290967982785e-07  1.2464362546918307e-07  1.2792874694035002e-07  1.3130050253337330e-07 
 1.3476117966061265e-07  1.3831312627471532e-07  1.4195875247866886e-07  1.4570053217908586e-07 
 1.4954100478390190e-07  1.5348277694570377e-07  1.5752852435193825e-07  1.6168099356328745e-07 
 1.6594300390153428e-07  1.7031744938827727e-07  1.7480730073589578e-07  1.7941560739220344e-07 
 1.8414549964027220e-07  1.8900019075494904e-07  1.9398297921763355e-07  1.9909725099092818e-07 
 2.0434648185482064e-07  2.0973423980610597e-07  2.1526418752280414e-07  2.2094008489538252e-07 
 2.2676579162664227e-07  2.3274526990218549e-07  2.3888258713343362e-07  2.4518191877522583e-07 
 2.5164755122008750e-07  2.5828388477131875e-07  2.6509543669711809e-07  2.7208684436802002e-07 
 2.7926286847999600e-07  2.8662839636563678e-07  2.9418844539590477e-07  3.0194816647502406e-07 
 3.0991284763114871e-07  3.1808791770553183e-07  3.2647895014299944e-07  3.3509166688662118e-07 
 3.4393194237955111e-07  3.5300580767711098e-07  3.6231945467227624e-07  3.7187924043782557e-07 
 3.8169169168851334e-07  3.9176350936672935e-07  4.0210157335521769e-07  4.1271294732053711e-07 
 4.2360488369106082e-07  4.3478482877343232e-07  4.4626042801151821e-07  4.5803953139202393e-07 
 4.7013019900107380e-07  4.8254070673619032e-07  4.9527955217825151e-07  5.0835546062815019e-07 
 5.2177739131303168e-07  5.3555454376714521e-07  5.4969636439250294e-07  5.6421255320471425e-07 
 5.7911307076953840e-07  5.9440814533587385e-07  6.1010828017109976e-07  6.2622426110487364e-07 
 6.4276716428769518e-07  6.5974836417075518e-07  6.7717954171381082e-07  6.9507269282804444e-07 
 7.1344013706111240e-07  7.3229452653182341e-07  7.5164885512214259e-07  7.7151646793448493e-07 
 7.9191107102252771e-07  8.1284674140406257e-07  8.3433793736469583e-07  8.5639950906152443e-07 
 8.7904670943621794e-07  9.0229520544728114e-07  9.2616108963161406e-07  9.5066089200584005e-07 
 9.7581159231825437e-07  1.0016306326626218e-06  1.0281359304654749e-06  1.0553458918589594e-06 
 1.0832794254517439e-06  1.1119559565109307e-06  1.1413954415684147e-06  1.1716183834656045e-06 
 1.2026458468509547e-06  1.2344994741452877e-06  1.2672015019904388e-06  1.3007747781973567e-06 
 1.3352427792103865e-06  1.3706296281051070e-06  1.4069601131377509e-06  1.4442597068649304e-06 
 1.4825545858531124e-06  1.5218716509980467e-06  1.5622385484751153e-06  1.6036836913424239e-06 
 1.6462362818192901e-06  1.6899263342636783e-06  1.7347846988730922e-06  1.7808430861343775e-06 
 1.8281340920489343e-06  1.8766912241609054e-06  1.9265489284170067e-06  1.9777426168878567e-06 
 2.0303086963818641e-06  2.0842845979840228e-06  2.1397088075532920e-06  2.1966208972136532e-06 
 2.2550615578753789e-06  2.3150726328246043e-06  2.3766971524208766e-06  2.4399793699440601e-06 
 2.5049647986337316e-06  2.5717002499660218e-06  2.6402338732148369e-06  2.7106151963463801e-06 
 2.7828951682980577e-06  2.8571262026950355e-06  2.9333622230600953e-06  3.0116587095748617e-06 
 3.0920727474530592e-06  3.1746630769891390e-06  3.2594901453484651e-06  3.3466161601682136e-06 
 3.4361051450412504e-06  3.5280229969585545e-06  3.6224375457891611e-06  3.7194186158802483e-06 
 3.8190380898637455e-06  3.9213699747598995e-06  4.0264904704723274e-06  4.1344780407736138e-06 
 4.2454134868850444e-06  4.3593800237589722e-06  4.4764633591774941e-06  4.5967517757864047e-06 
 4.7203362161891514e-06  4.8473103712314473e-06  4.9777707716134958e-06  5.1118168829733653e-06 
 5.2495512045920660e-06  5.3910793718781688e-06  5.5365102627975319e-06  5.6859561084219036e-06 
 5.8395326077786181e-06  5.9973590471927641e-06  6.1595584243226376e-06  6.3262575770993854e-06 
 6.4975873177922722e-06  6.6736825724322410e-06  6.8546825258381321e-06  7.0407307725023765e-06 
 7.2319754736061603e-06  7.4285695204477110e-06  7.6306707045821387e-06  7.8384418949865942e-06 
 8.0520512225807527e-06  8.2716722724499136e-06  8.4974842841360679e-06  8.7296723603815351e-06 
 8.9684276847300090e-06  9.2139477484113632e-06  9.4664365869590446e-06  9.7261050270330348e-06 
 9.9931709439465886e-06  1.0267859530421755e-05  1.0550403577127052e-05  1.0841043765580702e-05 
 1.1140028974034521e-05  1.1447616596987170e-05  1.1764072879011209e-05  1.2089673263615813e-05 
 1.2424702757907233e-05  1.2769456313851169e-05  1.3124239226986126e-05  1.3489367553484375e-05 
 1.3865168546507385e-05  1.4251981112856157e-05  1.4650156290973373e-05  1.5060057751414497e-05 
 1.5482062320968578e-05  1.5916560531677326e-05  1.6363957196072630e-05  1.6824672010029207e-05 
 1.7299140184709789e-05  1.7787813109166401e-05  1.8291159045252650e-05  1.8809663856598967e-05 
 1.9343831773506080e-05  1.9894186195721604e-05  2.0461270535181310e-05  2.1045649100920887e-05 
 2.1647908028495840e-05  2.2268656256387761e-05  2.2908526552024789e-05  2.3568176590203132e-05 
 2.4248290086866172e-05  2.4949577991378169e-05  2.5672779740621938e-05  2.6418664578454856e-05 
 2.7188032944276106e-05  2.7981717934690869e-05  2.8800586842505727e-05  2.9645542777554308e-05 
 3.0517526374135142e-05  3.1417517590145007e-05  3.2346537603313583e-05  3.3305650810288385e-05 
 3.4295966934686700e-05  3.5318643250623241e-05  3.6374886928641351e-05  3.7465957511423443e-05 
 3.8593169527135441e-05  3.9757895248771748e-05  4.0961567608415086e-05  4.2205683275911511e-05 
 4.3491805912087561e-05  4.4821569607308149e-05  4.6196682516891741e-05  4.7618930705669479e-05 
 4.9090182214798560e-05  5.0612391364824001e-05  5.2187603309928898e-05  5.3817958859328536e-05 
 5.5505699582851608e-05  5.7253173218918371e-05  5.9062839404378577e-05  6.0937275747014594e-05 
 6.2879184262957993e-05  6.4891398202815596e-05  6.6976889291964277e-05  6.9138775412259658e-05 
 7.1380328754322713e-05  7.3704984471631438e-05  7.6116349869860528e-05  7.8618214167297610e-05 
 8.1214558864726481e-05  8.3909568765927543e-05  8.6707643692912322e-05  8.9613410943202885e-05 
 9.2631738539906654e-05  9.5767749329037533e-05  9.9026835982523979e-05  1.0241467696963855e-04 
 1.0593725356421299e-04  1.0960086795999120e-04  1.1341216257185010e-04  1.1737814060641559e-04 
 1.2150618799185456e-04  1.2580409676336891e-04  1.3028009000819283e-04  1.3494284848174866e-04 
 1.3980153901509148e-04  1.4486584484292079e-04  1.5014599799131727e-04  1.5565281387503051e-04 
 1.6139772826566495e-04  1.6739283680456042e-04  1.7365093724761106e-04  1.8018557464380137e-04 
 1.8701108966494406e-04  1.9414267032108411e-04  2.0159640731438934e-04  2.0938935330419217e-04 
 2.1753958637731193e-04  2.2606627804098992e-04  2.3498976608087802e-04  2.4433163265366836e-04 
 2.5411478801332614e-04  2.6436356030165933e-04  2.7510379186833806e-04  2.8636294262266479e-04 
 2.9817020095963776e-04  3.1055660284638910e-04  3.2355515970218101e-04  3.3720099575611484e-04 
 3.5153149562184508e-04  3.6658646288824387e-04  3.8240829058949901e-04  3.9904214448792700e-04 
 4.1653616017828406e-04  4.3494165510400088e-04  4.5431335666405276e-04  4.7470964768460129e-04 
 4.9619283063270987e-04  5.1882941206089154e-04  5.4269040889167125e-04  5.6785167828139467e-04 
 5.9439427294292763e-04  6.2240482395842667e-04  6.5197595327685248e-04  6.8320671826718965e-04 
 7.1620309088835121e-04  7.5107847424145651e-04  7.8795425949054873e-04  8.2696042637496166e-04 
 8.6823619079150541e-04  9.1193070319859108e-04  9.5820380188850376e-04  1.0072268254894565e-03 
 1.0591834893970828e-03  1.1142708311967905e-03  1.1727002305252526e-03  1.2346985092323549e-03 
 1.3005091181454143e-03  1.3703934172064733e-03  1.4446320562520633e-03  1.5235264642338648e-03 
 1.6074004552389823e-03  1.6966019602606198e-03  1.7915048942941266e-03  1.8925111689896685e-03 
 2.0000528617807956e-03  2.1145945531270975e-03  2.2366358442576116e-03  2.3667140685776052e-03 
 2.5054072107021171e-03  2.6533370479014631e-03  2.8111725295822329e-03  2.9796334112760577e-03 
 3.1594941604607069e-03  3.3515881523847632e-03  3.5568121748978830e-03  3.7761312620908775e-03 
 4.0105838773087411e-03  4.2612874667978910e-03  4.5294444058663419e-03  4.8163483599487815e-03 
 5.1233910833511235e-03  5.4520696786704544e-03  5.8039943399119144e-03  6.1808966021150175e-03 
 6.5846381198145206e-03  7.0172199958463948e-03  7.4807926808139469e-03  7.9776664618927112e-03 
 8.5103225575107796e-03  9.0814248317219841e-03  9.6938321387169384e-03  1.0350611303808445e-02 
 1.1055050742296258e-02  1.1810674711769236e-02  1.2621258186544783e-02  1.3490842334977354e-02 
 1.4423750571189328e-02  1.5424605142289287e-02  1.6498344200246842e-02  1.7650239294197966e-02 
 1.8885913203976163e-02  2.0211358019031369e-02  2.1632953348554286e-02  2.3157484528536009e-02 
 2.4792160669653070e-02  2.6544632366303725e-02  2.8423008861898750e-02  3.0435874438742173e-02 
 3.2592303772696521e-02  3.4901875963544847e-02  3.7374686921847040e-02  4.0021359762529053e-02 
 4.2853052824920627e-02  4.5881464909048889e-02  4.9118837289386999e-02  5.2577952040747541e-02 
 5.6272126187514607e-02  6.0215201167962203e-02  6.4421527091161584e-02  6.8905941256202238e-02 
 7.3683740403506753e-02  7.8770646177356518e-02  8.4182763298868937e-02  8.9936529981095678e-02 
 9.6048660164130772e-02  1.0253607720949465e-01  1.0941583877076824e-01  1.1670505265232053e-01 
 1.2442078358035513e-01  1.3257995094005862e-01  1.4119921767810248e-01  1.5029487072866765e-01 
 1.5988269348954623e-01  1.6997783104693040e-01  1.8059464901533320e-01  1.9174658701257913e-01 
 2.0344600791669654e-01  2.1570404413793443e-01  2.2853044217052015e-01  2.4193340665191307e-01 
 2.5591944504283698e-01  2.7049321384735847e-01  2.8565736702826111e-01  3.0141240696382371e-01 
 3.1775653798087766e-01  3.3468552224689968e-01  3.5219253768672137e-01  3.7026803768903505e-01 
 3.8889961275900370e-01  4.0807185500720444e-01  4.2776622745242621e-01  4.4796094151133981e-01 
 4.6863084764031920e-01  4.8974734570143852e-01  5.1127832299645104e-01  5.3318812874913624e-01 
 5.5543759380522062e-01  5.7798410320566429e-01  6.0078172697836352e-01  6.2378141115476105e-01 
 6.4693122713580276e-01  6.7017667383552326e-01  6.9346102428545131e-01  7.1672570710993744e-01 
 7.3991071354659099e-01  7.6295502207257149e-01  7.8579703448463167e-01  8.0837501870228945e-01 
 8.3062755402520516e-01  8.5249397376062730e-01  8.7391479802888627e-01  8.9483214646105724e-01 
 9.1519011711129483e-01  9.3493511533569684e-01  9.5401611609188142e-01  9.7238484648271983e-01 
 9.8999588304560993e-01  1.0068066694406830e+00  1.0227774722710572e+00  1.0378713021962003e+00 
 1.0520538311328920e+00  1.0652933329514240e+00  1.0775606684817149e+00  1.0888293354263077e+00 
 1.0990754839889454e+00  1.1082780568123691e+00  1.1164189213841356e+00  1.1234829763539300e+00 
 1.1294582520233907e+00  1.1343359870001666e+00  1.1381106744231830e+00  1.1407800759366420e+00 
 1.1423452042530786e+00  1.1428102768638542e+00  1.1421826443680356e+00  1.1404726972048547e+00 
 1.1376937544973684e+00  1.1338619384159401e+00  1.1289960370734318e+00  1.1231173585491909e+00 
 1.1162495782513313e+00  1.1084185814873133e+00  1.0996523028270393e+00  1.0899805636075512e+00 
 1.0794349087367812e+00  1.0680484437973379e+00  1.0558556733219351e+00  1.0428923410028421e+00 
 1.0291952725031284e+00  1.0148022214532695e+00  9.9975171913990213e-01  9.8408292832221456e-01 
 9.6783550154532383e-01  9.5104944425650362e-01  9.3376498297029298e-01  9.1602243867559119e-01 
 8.9786210562690882e-01  8.7932413561500888e-01  8.6044842690736612e-01  8.4127452220824250e-01 
 8.2184150699199798e-01  8.0218791679513124e-01  7.8235164912467969e-01  7.6236988077483037e-01 
 7.4227899048757351e-01  7.2211448688270308e-01  7.0191094157351652e-01  6.8170192740310143e-01 
 6.6151996173450711e-01  6.4139645472337181e-01  6.2136166251267744e-01  6.0144464529195307e-01 
 5.8167323016574768e-01  5.6207397877741239e-01  5.4267215963371584e-01  5.2349172507331798e-01 
 5.0455529281764200e-01  4.8588413203624109e-01  4.6749815385053273e-01  4.4941590618999794e-01 
 4.3165457290391279e-01  4.1422997701975928e-01  3.9715658802697223e-01  3.8044753305197671e-01 
 3.6411461177769966e-01  3.4816831495004319e-01  3.3261784630066421e-01  3.1747114770532209e-01 
 3.0273492738971475e-01  2.8841469098259520e-01  2.7451477521353990e-01  2.6103838404711449e-01 
 2.4798762703776214e-01  2.3536355968944467e-01  2.2316622560221014e-01  2.1139470018751827e-01 
 2.0004713573503619e-01  1.8912080761555866e-01  1.7861216140765793e-01  1.6851686073954611e-01 
 1.5882983564238640e-01  1.4954533121684449e-01  1.4065695642097195e-01  1.3215773279449824e-01 
 1.2404014294218887e-01  1.1629617860704516e-01  1.0891738817274735e-01  1.0189492344376010e-01 
 9.5219585560855136e-02  8.8881869919399240e-02  8.2872009967544735e-02  7.7180019771356564e-02 
 7.1795735243856795e-02  6.6708853944896354e-02  6.1908973368616206e-02  5.7385627644981445e-02 
 5.3128322591408830e-02  4.9126569059820539e-02  4.5369914533503461e-02  4.1847972936901914e-02 
 3.8550452629902122e-02  3.5467182566259227e-02  3.2588136603570121e-02  2.9903455959606761e-02 
 2.7403469816910758e-02  2.5078714084323807e-02  2.2919948330609115e-02  2.0918170911589852e-02 
 1.9064632318225340e-02  1.7350846778838244e-02  1.5768602154381511e-02  1.4309968171090173e-02 
 1.2967303040175914e-02  1.1733258519358237e-02  1.0600783475962682e-02  9.5631260160175709e-03 
 8.6138342481996335e-03  7.7467557555617765e-03  6.9560358516678328e-03  6.2361147009683052e-03 
 5.5817233859909547e-03  4.9878790061146754e-03  4.4498788941812768e-03  3.9632940381320973e-03 
 3.5239617951646563e-03  3.1279779854649181e-03  2.7716884515486084e-03  2.4516801675937049e-03 
 2.1647719808273744e-03  1.9080050642174226e-03  1.6786331564088031e-03  1.4741126610452997e-03 
 1.2920926734521279e-03  1.1304049981665058e-03  9.8705421605946113e-04  8.6020785486098082e-04 
 7.4818671184821663e-04  6.4945537234705213e-04  5.6261296259201661e-04  4.8638417044562379e-04 
 4.1961056254829213e-04  3.6124222170137694e-04  3.1032972371990391e-04  2.6601646866342230e-04 
 2.2753137729153005e-04  1.9418195981688526e-04  1.6534776055823552e-04  1.4047417893817076e-04 
 1.1906666442816867e-04  1.0068528051513405e-04  8.4939630542633021e-05  7.1484136356343773e-05 
 6.0013659043960413e-05  5.0259449689836307e-05  4.1985416947528578e-05  3.4984697351730048e-05 
 2.9076513627077269e-05  2.4103305786798964e-05  1.9928119532522582e-05  1.6432236348670220e-05 
 1.3513029715703479e-05  1.1082032028634241e-05  9.0631970852877017e-06  7.3913433875686799e-06 
 6.0107639638690125e-06  4.8739889578267227e-06  3.9406878246386613e-06  3.1766986184836997e-06 
 2.5531725315415640e-06  2.0458225456162130e-06  1.6342657713788107e-06  1.3014497685277903e-06 
 1.0331538544568142e-06  8.1755711202274006e-07  6.4486549238187129e-07  5.0699107124334821e-07 
 3.9727715184366362e-07  3.1026351195103499e-07  2.4148666259447169e-07  1.8731052110950125e-07 
 1.4478339936131373e-07  1.1151766916472894e-07  8.5588891067775475e-08  6.5451580402536150e-08 
 4.9869136857499050e-08  3.7855782161405988e-08  2.8628636435387257e-08  2.1568319220386764e-08 
 1.6186688117071118e-08  1.2100528470361510e-08  9.0101837141423648e-09  6.6822699837781899e-09 
 4.9357524857932656e-09  3.6307768980643808e-09  2.6597486814405284e-09  1.9402384275424528e-09 
 1.4093639396438263e-09  1.0193612078820997e-09  7.3410822888274455e-10  5.2640903391399001e-10 
 3.7588150100356691e-10  2.6732258396013404e-10  1.8944942833324425e-10  1.3393528846767016e-10 
 0.0000000000000000e+00  0.0000000000000000e+00  0.0000000000000000e+00  0.0000000000000000e+00 
 0.0000000000000000e+00  0.0000000000000000e+00  0.0000000000000000e+00  0.0000000000000000e+00 
 0.0000000000000000e+00  0.0000000000000000e+00  0.0000000000000000e+00  0.0000000000000000e+00 
 0.0000000000000000e+00  0.0000000000000000e+00  0.0000000000000000e+00  0.0000000000000000e+00 
 0.0000000000000000e+00  0.0000000000000000e+00  0.0000000000000000e+00  0.0000000000000000e+00 
 0.0000000000000000e+00  0.0000000000000000e+00  0.0000000000000000e+00  0.0000000000000000e+00 
 0.0000000000000000e+00  0.0000000000000000e+00  0.0000000000000000e+00  0.0000000000000000e+00 
 0.0000000000000000e+00  0.0000000000000000e+00  0.0000000000000000e+00  0.0000000000000000e+00 
 0.0000000000000000e+00  0.0000000000000000e+00  0.0000000000000000e+00  0.0000000000000000e+00 
 0.0000000000000000e+00  0.0000000000000000e+00  0.0000000000000000e+00  0.0000000000000000e+00 
 0.0000000000000000e+00  0.0000000000000000e+00  0.0000000000000000e+00  0.0000000000000000e+00 
 0.0000000000000000e+00  0.0000000000000000e+00  0.0000000000000000e+00  0.0000000000000000e+00 
 0.0000000000000000e+00  0.0000000000000000e+00  0.0000000000000000e+00  0.0000000000000000e+00 
 0.0000000000000000e+00  0.0000000000000000e+00  0.0000000000000000e+00  0.0000000000000000e+00 
 0.0000000000000000e+00  0.0000000000000000e+00  0.0000000000000000e+00  0.0000000000000000e+00 
 0.0000000000000000e+00  0.0000000000000000e+00  0.0000000000000000e+00  0.0000000000000000e+00 
 0.0000000000000000e+00  0.0000000000000000e+00  0.0000000000000000e+00  0.0000000000000000e+00 
 0.0000000000000000e+00  0.0000000000000000e+00  0.0000000000000000e+00  0.0000000000000000e+00 
 0.0000000000000000e+00  0.0000000000000000e+00  0.0000000000000000e+00  0.0000000000000000e+00 
 0.0000000000000000e+00  0.0000000000000000e+00  0.0000000000000000e+00  0.0000000000000000e+00 
 0.0000000000000000e+00  0.0000000000000000e+00  0.0000000000000000e+00  0.0000000000000000e+00 
 0.0000000000000000e+00  0.0000000000000000e+00  0.0000000000000000e+00  0.0000000000000000e+00 
 0.0000000000000000e+00  0.0000000000000000e+00  0.0000000000000000e+00  0.0000000000000000e+00 
 0.0000000000000000e+00  0.0000000000000000e+00  0.0000000000000000e+00  0.0000000000000000e+00 
 0.0000000000000000e+00  0.0000000000000000e+00  0.0000000000000000e+00  0.0000000000000000e+00 
 0.0000000000000000e+00  0.0000000000000000e+00  0.0000000000000000e+00  0.0000000000000000e+00 
 0.0000000000000000e+00  0.0000000000000000e+00  0.0000000000000000e+00  0.0000000000000000e+00 
 0.0000000000000000e+00  0.0000000000000000e+00  0.0000000000000000e+00  0.0000000000000000e+00 
 0.0000000000000000e+00  0.0000000000000000e+00  0.0000000000000000e+00  0.0000000000000000e+00 
 0.0000000000000000e+00  0.0000000000000000e+00  0.0000000000000000e+00  0.0000000000000000e+00 
 0.0000000000000000e+00  0.0000000000000000e+00  0.0000000000000000e+00  0.0000000000000000e+00 
 0.0000000000000000e+00  0.0000000000000000e+00  0.0000000000000000e+00  0.0000000000000000e+00 
 0.0000000000000000e+00  0.0000000000000000e+00  0.0000000000000000e+00  0.0000000000000000e+00 
 0.0000000000000000e+00  0.0000000000000000e+00  0.0000000000000000e+00  0.0000000000000000e+00 
 0.0000000000000000e+00  0.0000000000000000e+00  0.0000000000000000e+00  0.0000000000000000e+00 
 0.0000000000000000e+00  0.0000000000000000e+00  0.0000000000000000e+00  0.0000000000000000e+00 
 0.0000000000000000e+00  0.0000000000000000e+00  0.0000000000000000e+00  0.0000000000000000e+00 
 0.0000000000000000e+00  0.0000000000000000e+00  0.0000000000000000e+00  0.0000000000000000e+00 
 0.0000000000000000e+00  0.0000000000000000e+00  0.0000000000000000e+00  0.0000000000000000e+00 
 0.0000000000000000e+00  0.0000000000000000e+00  0.0000000000000000e+00  0.0000000000000000e+00 
 0.0000000000000000e+00  0.0000000000000000e+00  0.0000000000000000e+00  0.0000000000000000e+00 
 0.0000000000000000e+00  0.0000000000000000e+00  0.0000000000000000e+00  0.0000000000000000e+00 
 0.0000000000000000e+00  0.0000000000000000e+00  0.0000000000000000e+00  0.0000000000000000e+00 
 0.0000000000000000e+00  0.0000000000000000e+00  0.0000000000000000e+00  0.0000000000000000e+00 
 0.0000000000000000e+00  0.0000000000000000e+00  0.0000000000000000e+00 
P    1   4.00          Wavefunction
 4.6417239320290646e-12  4.7639913472551039e-12  4.8894794023964508e-12  5.0182729321754419e-12 
 5.1504590059421227e-12  5.2861269865364890e-12  5.4253685907012252e-12  5.5682779510857814e-12 
 5.7149516798836793e-12  5.8654889341461022e-12  6.0199914828159041e-12  6.1785637755273612e-12 
 6.3413130132181760e-12  6.5083492206014766e-12  6.6797853205467903e-12  6.8557372104202907e-12 
 7.0363238404359292e-12  7.2216672940703969e-12  7.4118928705963116e-12  7.6071291697894032e-12 
 7.8075081788669759e-12  8.0131653617164027e-12  8.2242397504740132e-12  8.4408740395162282e-12 
 8.6632146819265351e-12  8.8914119885035130e-12  9.1256202293767784e-12  9.3659977382996617e-12 
 9.6127070196890086e-12  9.8659148584845364e-12  1.0125792432902003e-11  1.0392515430156387e-11 
 1.0666264165233356e-11  1.0947223702789280e-11  1.1235583982262226e-11  1.1531539946278492e-11 
 1.1835291672441509e-11  1.2147044508592193e-11  1.2467009211632189e-11  1.2795402090003880e-11 
 1.3132445149923433e-11  1.3478366245465803e-11  1.3833399232603120e-11  1.4197784127300588e-11 
 1.4571767267776837e-11  1.4955601481038338e-11  1.5349546253800529e-11  1.5753867907911166e-11 
 1.6168839780394533e-11  1.6594742408238188e-11  1.7031863718047179e-11  1.7480499220693950e-11 
 1.7940952211095586e-11  1.8413533973253291e-11  1.8898563990692934e-11  1.9396370162448770e-11 
 1.9907289024736385e-11  2.0431665978464789e-11  2.0969855522741399e-11  2.1522221494527774e-11 
 2.2089137314608175e-11  2.2670986240037198e-11  2.3268161623237109e-11  2.3881067177920150e-11 
 2.4510117252015470e-11  2.5155737107785296e-11  2.5818363209319643e-11  2.6498443517603953e-11 
 2.7196437793359161e-11  2.7912817907858893e-11  2.8648068161933923e-11  2.9402685613379610e-11 
 3.0177180412987550e-11  3.0972076149428718e-11  3.1787910203221258e-11  3.2625234110022081e-11 
 3.3484613933488130e-11  3.4366630647959085e-11  3.5271880531220486e-11  3.6200975567612638e-11 
 3.7154543861757894e-11  3.8133230063185973e-11  3.9137695802144454e-11  4.0168620136888963e-11 
 4.1226700012755627e-11  4.2312650733325939e-11  4.3427206444002702e-11  4.4571120628323984e-11 
 4.5745166617350526e-11  4.6950138112471094e-11  4.8186849721979156e-11  4.9456137511783614e-11 
 5.0758859570625972e-11  5.2095896590186035e-11  5.3468152460468309e-11  5.4876554880871688e-11 
 5.6322055987355359e-11  5.7805632996125226e-11  5.9328288864275809e-11  6.0891052967834206e-11 
 6.2494981797664839e-11  6.4141159673705083e-11  6.5830699478014806e-11  6.7564743407135572e-11 
 6.9344463744267790e-11  7.1171063651788322e-11  7.3045777984643807e-11  7.4969874125170152e-11 
 7.6944652839902100e-11  7.8971449158952645e-11  8.1051633278556251e-11  8.3186611487386540e-11 
 8.5377827117274603e-11  8.7626761518970244e-11  8.9934935063606782e-11  9.2303908170545360e-11 
 9.4735282362294631e-11  9.7230701347218362e-11  9.9791852130763433e-11  1.0242046615595909e-10 
 1.0511832047395889e-10  1.0788723894541648e-10  1.1072909347350754e-10  1.1364580526943157e-10 
 1.1663934615124896e-10  1.1971173987693175e-10  1.2286506351252887e-10  1.2610144883637143e-10 
 1.2942308378026707e-10  1.3283221390865780e-10  1.3633114393674162e-10  1.3992223928858375e-10 
 1.4360792769627190e-10  1.4739070084119552e-10  1.5127311603856001e-10  1.5525779796627349e-10 
 1.5934744043937631e-10  1.6354480823121184e-10  1.6785273894257103e-10  1.7227414492007326e-10 
 1.7681201522508167e-10  1.8146941765448338e-10  1.8624950081470109e-10  1.9115549625033885e-10 
 1.9619072062890035e-10  2.0135857798305757e-10  2.0666256201198562e-10  2.1210625844331972e-10 
 2.1769334745733136e-10  2.2342760617496273e-10  2.2931291121140179e-10  2.3535324129692410e-10 
 2.4155267996677433e-10  2.4791541832190503e-10  2.5444575786244083e-10  2.6114811339578226e-10 
 2.6802701602131648e-10  2.7508711619375387e-10  2.8233318686715961e-10  2.8977012672180763e-10 
 2.9740296347603930e-10  3.0523685728536471e-10  3.1327710423110611e-10  3.2152913990094183e-10 
 3.2999854306377282e-10  3.3869103944139410e-10  3.4761250557952563e-10  3.5676897282081592e-10 
 3.6616663138250813e-10  3.7581183454152385e-10  3.8571110292979555e-10  3.9587112894275277e-10 
 4.0629878126394146e-10  4.1700110950883793e-10  4.2798534899099625e-10  4.3925892561375303e-10 
 4.5082946089079758e-10  4.6270477709900140e-10  4.7489290256699311e-10  4.8740207710305349e-10 
 5.0024075756600440e-10  5.1341762358285364e-10  5.2694158341706910e-10  5.4082177999144465e-10 
 5.5506759706963502e-10  5.6968866560053847e-10  5.8469487022981699e-10  6.0009635598296139e-10 
 6.1590353512441607e-10  6.3212709419740759e-10  6.4877800124923193e-10  6.6586751324689542e-10 
 6.8340718368811615e-10  7.0140887041284036e-10  7.1988474362055343e-10  7.3884729409880806e-10 
 7.5830934166853786e-10  7.7828404385186499e-10  7.9878490476826932e-10  8.1982578426512984e-10 
 8.4142090728882227e-10  8.6358487350270335e-10  8.8633266715849551e-10  9.0967966722774283e-10 
 9.3364165780019572e-10  9.5823483875615731e-10  9.8347583672000871e-10  1.0093817163023291e-09 
 1.0359699916382073e-09  1.0632586382295587e-09  1.0912661050994532e-09  1.1200113272666810e-09 
 1.1495137385489914e-09  1.1797932847036722e-09  1.2108704369143562e-09  1.2427662056331790e-09 
 1.2755021547876582e-09  1.3091004163619035e-09  1.3435837053620211e-09  1.3789753351758453e-09 
 1.4152992333373848e-09  1.4525799577066537e-09  1.4908427130758356e-09  1.5301133682130174e-09 
 1.5704184733550272e-09  1.6117852781612190e-09  1.6542417501403428e-09  1.6978165935629857e-09 
 1.7425392688723712e-09  1.7884400126066663e-09  1.8355498578462687e-09  1.8839006551999236e-09 
 1.9335250943438690e-09  1.9844567261285947e-09  2.0367299852681737e-09  2.0903802136275343e-09 
 2.1454436841234249e-09  2.2019576252552681e-09  2.2599602462824983e-09  2.3194907630654398e-09 
 2.3805894245872135e-09  2.4432975401746367e-09  2.5076575074365411e-09  2.5737128409384406e-09 
 2.6415082016329498e-09  2.7110894270659024e-09  2.7825035623786054e-09  2.8557988921272565e-09 
 2.9310249729410408e-09  3.0082326670410597e-09  3.0874741766427807e-09  3.1688030792653082e-09 
 3.2522743639714194e-09  3.3379444685628895e-09  3.4258713177563280e-09  3.5161143623653802e-09 
 3.6087346195158621e-09  3.7037947139210538e-09  3.8013589202451486e-09  3.9014932065835600e-09 
 4.0042652790895483e-09  4.1097446277774361e-09  4.2180025735334473e-09  4.3291123163660444e-09 
 4.4431489849284632e-09  4.5601896873470632e-09  4.6803135633899078e-09  4.8036018380109865e-09 
 4.9301378763063811e-09  5.0600072399196538e-09  5.1932977449347160e-09  5.3300995212954421e-09 
 5.4705050737923664e-09  5.6146093446577976e-09  5.7625097778118811e-09  5.9143063848031620e-09 
 6.0701018124884206e-09  6.2300014124977286e-09  6.3941133125318588e-09  6.5625484895404738e-09 
 6.7354208448307727e-09  6.9128472811575880e-09  7.0949477818473104e-09  7.2818454920093681e-09 
 7.4736668018904346e-09  7.6705414324279887e-09  7.8726025230613714e-09  8.0799867218599923e-09 
 8.2928342780299724e-09  8.5112891368620951e-09  8.7354990371855723e-09  8.9656156113939685e-09 
 9.2017944881112549e-09  9.4441953975678304e-09  9.6929822797582043e-09  9.9483233954539441e-09 
 1.0210391440147376e-08  1.0479363661003668e-08  1.0755421976900864e-08  1.1038753101639584e-08 
 1.1329548670406341e-08  1.1628005369576595e-08  1.1934325069945950e-08  1.2248714963480296e-08 
 1.2571387703678110e-08  1.2902561549640562e-08  1.3242460513947698e-08  1.3591314514441518e-08 
 1.3949359530019483e-08  1.4316837760544783e-08  1.4693997790982466e-08  1.5081094759873463e-08 
 1.5478390532261604e-08  1.5886153877191645e-08  1.6304660649899638e-08  1.6734193978820098e-08 
 1.7175044457537824e-08  1.7627510341815587e-08  1.8091897751832477e-08  1.8568520879771259e-08 
 1.9057702202896732e-08  1.9559772702271117e-08  2.0075072087256096e-08  2.0603949025955353e-08 
 2.1146761381755556e-08  2.1703876456127894e-08  2.2275671237856687e-08  2.2862532658866041e-08 
 2.3464857856820144e-08  2.4083054444677400e-08  2.4717540787383692e-08  2.5368746285894685e-08 
 2.6037111668722641e-08  2.6723089291208001e-08  2.7427143442721848e-08  2.8149750662010508e-08 
 2.8891400060899620e-08  2.9652593656580554e-08  3.0433846712708276e-08  3.1235688089546003e-08 
 3.2058660603398029e-08  3.2903321395578991e-08  3.3770242311174548e-08  3.4660010287854973e-08 
 3.5573227755010791e-08  3.6510513043486541e-08  3.7472500806196258e-08  3.8459842449912149e-08 
 3.9473206578525903e-08  4.0513279448089799e-08  4.1580765433953780e-08  4.2676387510322818e-08 
 4.3800887742567775e-08  4.4955027792632561e-08  4.6139589437889001e-08  4.7355375103801122e-08 
 4.8603208410770006e-08  4.9883934735540969e-08  5.1198421787564906e-08  5.2547560200716574e-08 
 5.3932264140783845e-08  5.5353471929153030e-08  5.6812146683127420e-08  5.8309276973328000e-08 
 5.9845877498637889e-08  6.1422989779164651e-08  6.3041682867708096e-08  6.4703054080234287e-08 
 6.6408229745870550e-08  6.8158365976950908e-08  6.9954649459655456e-08  7.1798298265803082e-08 
 7.3690562686372020e-08  7.5632726087338876e-08  7.7626105788443685e-08  7.9672053965505203e-08 
 8.1771958576928135e-08  8.3927244315062434e-08  8.6139373583092999e-08  8.8409847498157702e-08 
 9.0740206921410722e-08  9.3132033515769416e-08  9.5586950832102799e-08  9.8106625424642017e-08 
 1.0069276799641573e-07  1.0334713457553460e-07  1.0607152772317483e-07  1.0886779777413305e-07 
 1.1173784411085145e-07  1.1468361647183661e-07  1.1770711629542304e-07  1.2081039809985920e-07 
 1.2399557090072226e-07  1.2726479966669792e-07  1.3062030681478935e-07  1.3406437374605334e-07 
 1.3759934242299101e-07  1.4122761698975568e-07  1.4495166543637262e-07  1.4877402130820207e-07 
 1.5269728546191180e-07  1.5672412786926423e-07  1.6085728947006124e-07  1.6509958407562812e-07 
 1.6945390032426241e-07  1.7392320369011301e-07  1.7851053854699974e-07  1.8321903028872981e-07 
 1.8805188750751290e-07  1.9301240423212564e-07  1.9810396222752573e-07  2.0333003335767009e-07 
 2.0869418201333908e-07  2.1420006760683045e-07  2.1985144713543933e-07  2.2565217781570119e-07 
 2.3160621979043488e-07  2.3771763891068652e-07  2.4399060959473988e-07  2.5042941776642559e-07 
 2.5703846387503301e-07  2.6382226599919797e-07  2.7078546303721779e-07  2.7793281798631799e-07 
 2.8526922131348006e-07  2.9279969442051779e-07  3.0052939320617833e-07  3.0846361172813257e-07 
 3.1660778596781009e-07  3.2496749770113163e-07  3.3354847847828859e-07  3.4235661371582135e-07 
 3.5139794690435855e-07  3.6067868393548289e-07  3.7020519755130862e-07  3.7998403192047187e-07 
 3.9002190734435789e-07  4.0032572509751609e-07  4.1090257240634973e-07  4.2175972757029686e-07 
 4.3290466522986928e-07  4.4434506178605966e-07  4.5608880097578131e-07  4.6814397960816493e-07 
 4.8051891346670276e-07  4.9322214338240198e-07  5.0626244148328507e-07  5.1964881762576986e-07 
 5.3339052601364304e-07  5.4749707201055024e-07  5.6197821915213289e-07  5.7684399636415689e-07 
 5.9210470539320893e-07  6.0777092845676233e-07  6.2385353611967578e-07  6.4036369540441880e-07 
 6.5731287814261236e-07  6.7471286957571968e-07  6.9257577721303393e-07  7.1091403995539466e-07 
 7.2974043749338422e-07  7.4906809998907747e-07  7.6891051805075791e-07  7.8928155301036970e-07 
 8.1019544751383781e-07  8.3166683643478338e-07  8.5371075812254760e-07  8.7634266599587194e-07 
 8.9957844049400758e-07  9.2343440139748883e-07  9.4792732053127882e-07  9.7307443486349340e-07 
 9.9889346001342915e-07  1.0254026041831589e-06  1.0526205825275334e-06  1.0805666319780097e-06 
 1.1092605265363494e-06  1.1387225930548815e-06  1.1689737275206890e-06  1.2000354118617975e-06 
 1.2319297312941766e-06  1.2646793922291361e-06  1.2983077407615146e-06  1.3328387817599066e-06 
 1.3682971985810450e-06  1.4047083734314092e-06  1.4420984084000747e-06  1.4804941471878576e-06 
 1.5199231975588666e-06  1.5604139545416874e-06  1.6019956244086026e-06  1.6446982494624724e-06 
 1.6885527336621938e-06  1.7335908691189952e-06  1.7798453634972401e-06  1.8273498683549067e-06 
 1.8761390084604564e-06  1.9262484121244323e-06  1.9777147425858597e-06  2.0305757304953041e-06 
 2.0848702075383294e-06  2.1406381412451047e-06  2.1979206710339498e-06  2.2567601455388454e-06 
 2.3172001612731813e-06  2.3792856026844834e-06  2.4430626836573435e-06  2.5085789905244940e-06 
 2.5758835266487437e-06  2.6450267586414313e-06  2.7160606642862122e-06  2.7890387822401692e-06 
 2.8640162635877522e-06  2.9410499253266227e-06  3.0201983058682825e-06  3.1015217226403879e-06 
 3.1850823318818436e-06  3.2709441907262320e-06  3.3591733216737754e-06  3.4498377795570041e-06 
 3.5430077211104312e-06  3.6387554772600488e-06  3.7371556282542170e-06  3.8382850817635677e-06 
 3.9422231540839859e-06  4.0490516545834736e-06  4.1588549735408180e-06  4.2717201735315161e-06 
 4.3877370845243843e-06  4.5069984028605407e-06  4.6295997942954311e-06  4.7556400012938023e-06 
 4.8852209547774261e-06  5.0184478905357652e-06  5.1554294705208009e-06  5.2962779092588328e-06 
 5.4411091056243334e-06  5.5900427802339941e-06  5.7432026187326940e-06  5.9007164212577634e-06 
 6.0627162583831823e-06  6.2293386338616117e-06  6.4007246544993304e-06  6.5770202075173533e-06 
 6.7583761457711893e-06  6.9449484812221236e-06  7.1368985870744850e-06  7.3343934090161213e-06 
 7.5376056860236205e-06  7.7467141812193701e-06  7.9619039232947733e-06  8.1833664590427030e-06 
 8.4113001175728761e-06  8.6459102868161628e-06  8.8874097029581862e-06  9.1360187534791250e-06 
 9.3919657945151242e-06  9.6554874832979249e-06  9.9268291264728108e-06  1.0206245045141268e-05 
 1.0493998957523882e-05  1.0790364380191191e-05  1.1095625048865740e-05  1.1410075359857375e-05 
 1.1734020833256750e-05  1.2067778599078331e-05  1.2411677907615284e-05  1.2766060665343925e-05 
 1.3131281997795603e-05  1.3507710840899294e-05  1.3895730562389011e-05  1.4295739614966920e-05 
 1.4708152223016089e-05  1.5133399104766621e-05  1.5571928231935743e-05  1.6024205628987312e-05 
 1.6490716214288922e-05  1.6971964685586646e-05  1.7468476452368474e-05  1.7980798617848929e-05 
 1.8509501013479302e-05  1.9055177289071732e-05  1.9618446061821476e-05  2.0199952127720986e-05 
 2.0800367739083458e-05  2.1420393952132280e-05  2.2060762048868475e-05  2.2722235037701243e-05 
 2.3405609237618847e-05  2.4111715950989476e-05  2.4841423230415759e-05  2.5595637745424607e-05 
 2.6375306755156332e-05  2.7181420193627539e-05  2.8015012874580690e-05  2.8877166823403996e-05 
 2.9769013744108786e-05  3.0691737629892003e-05  3.1646577526390251e-05  3.2634830457352956e-05 
 3.3657854523128276e-05  3.4717072183070095e-05  3.5813973733741483e-05  3.6950120995613441e-05 
 3.8127151221842112e-05  3.9346781243657120e-05  4.0610811867914286e-05  4.1921132543462466e-05 
 4.3279726314152753e-05  4.4688675077586168e-05  4.6150165170058095e-05  4.7666493299625040e-05 
 4.9240072850796328e-05  5.0873440586051995e-05  5.2569263771216150e-05  5.4330347753684156e-05 
 5.6159644024622621e-05  5.8060258798545917e-05  6.0035462146135654e-05  6.2088697718823207e-05 
 6.4223593106518175e-05  6.6443970872950747e-05  6.8753860316427335e-05  7.1157510007388504e-05 
 7.3659401158037948e-05  7.6264261883494369e-05  7.8977082418438041e-05  8.1803131358103434e-05 
 8.4747972997741358e-05  8.7817485850369013e-05  9.1017882428782226e-05  9.4355730384456800e-05 
 9.7837975103158624e-05  1.0147196386485989e-04  1.0526547168397083e-04  1.0922672895499595e-04 
 1.1336445103856866e-04  1.1768786993347214e-04  1.2220676819178528e-04  1.2693151524677344e-04 
 1.3187310633666041e-04  1.3704320422204639e-04  1.4245418391058847e-04  1.4811918061972235e-04 
 1.5405214122679744e-04  1.6026787947614180e-04  1.6678213523439912e-04  1.7361163810912899e-04 
 1.8077417577129121e-04  1.8828866735001167e-04  1.9617524229812924e-04  2.0445532515965444e-04 
 2.1315172670563720e-04  2.2228874194327503e-04  2.3189225554464988e-04  2.4198985528651914e-04 
 2.5261095414140950e-04  2.6378692171317184e-04  2.7555122576750784e-04  2.8793958467011486e-04 
 3.0099013161244339e-04  3.1474359157801545e-04  3.2924347208128298e-04  3.4453626879660867e-04 
 3.6067168728764245e-04  3.7770288214771528e-04  3.9568671497049071e-04  4.1468403268763213e-04 
 4.3475996793736671e-04  4.5598426326528386e-04  4.7843162110727057e-04  5.0218208166500191e-04 
 5.2732143095773377e-04  5.5394164152122196e-04  5.8214134842638648e-04  6.1202636350786714e-04 
 6.4371023092697017e-04  6.7731482744573339e-04  7.1297101106017509e-04  7.5081932193233540e-04 
 7.9101073987372682e-04  8.3370750296849383e-04  8.7908399228416110e-04  9.2732768800255806e-04 
 9.7864020271452878e-04  1.0332383980605291e-03  1.0913555913662403e-03  1.1532428594188773e-03 
 1.2191704470567609e-03  1.2894292888026297e-03  1.3643326523605174e-03  1.4442179134169497e-03 
 1.5294484718395619e-03  1.6204158200493195e-03  1.7175417750553462e-03  1.8212808863819951e-03 
 1.9321230328840824e-03  2.0505962222346305e-03  2.1772696076759598e-03  2.3127567374441513e-03 
 2.4577190531021240e-03  2.6128696538397249e-03  2.7789773446106093e-03  2.9568709867634933e-03 
 3.1474441705759246e-03  3.3516602297957287e-03  3.5705576189199481e-03  3.8052556744715776e-03 
 4.0569607819456758e-03  4.3269729703598802e-03  4.6166929564275695e-03  4.9276296602382861e-03 
 5.2614082139386450e-03  5.6197784842117694e-03  6.0046241283043204e-03  6.4179722018909121e-03 
 6.8620033351359635e-03  7.3390624908462017e-03  7.8516703155321037e-03  8.4025350904375750e-03 
 8.9945652850731989e-03  9.6308827104156277e-03  1.0314836262626220e-02  1.1050016240807268e-02 
 1.1840269213863944e-02  1.2689713401887110e-02  1.3602754526531122e-02  1.4584102072554854e-02 
 1.5638785888953868e-02  1.6772173042883053e-02  1.7989984822814404e-02  1.9298313769078649e-02 
 2.0703640590116999e-02  2.2212850801466191e-02  2.3833250901806175e-02  2.5572583876450974e-02 
 2.7439043793651956e-02  2.9441289233265514e-02  3.1588455261041246e-02  3.3890163635420835e-02 
 3.6356530907796926e-02  3.8998174052255717e-02  4.1826213237607109e-02  4.4852271333784839e-02 
 4.8088469727376584e-02  5.1547420008115810e-02  5.5242211080729769e-02  5.9186391255752931e-02 
 6.3393944880004757e-02  6.7879263083614680e-02  7.2657108246943380e-02  7.7742571828544479e-02 
 8.3151025245266907e-02  8.8898063558170620e-02  9.4999441793039791e-02  1.0147100381110230e-01 
 1.0832860374228830e-01  1.1558802009692536e-01  1.2326486277762584e-01  1.3137447331506225e-01 
 1.3993181874143926e-01  1.4895137958439847e-01  1.5844703250163000e-01  1.6843192807278864e-01 
 1.7891836421275625e-01  1.8991765556591250e-01  2.0143999908963237e-01  2.1349433585227037e-01 
 2.2608820888524170e-01  2.3922761678326052e-01  2.5291686269629787e-01  2.6715839846299755e-01 
 2.8195266395747648e-01  2.9729792230476859e-01  3.1319009248249718e-01  3.2962258194583993e-01 
 3.4658612321815147e-01  3.6406861975384597e-01  3.8205500762042982e-01  4.0052714043308418e-01 
 4.1946370525720239e-01  4.3884017665200520e-01  4.5862881455140636e-01  4.7879870935205199e-01 
 4.9931587473368727e-01  5.2014338591021492e-01  5.4124155879296409e-01  5.6256816437345658e-01 
 5.8407867260001267e-01  6.0572652085735090e-01  6.2746340333047146e-01  6.4923957845050195e-01 
 6.7100419179488535e-01  6.9270561095922678e-01  7.1429176697465657e-01  7.3571049401480215e-01 
 7.5690985594757798e-01  7.7783844565145099e-01  7.9844564217299852e-01  8.1868181300978704e-01 
 8.3849845474994777e-01  8.5784827446065581e-01  8.7668522457349107e-01  8.9496451254719056e-01 
 9.1264261048946016e-01  9.2967728789258897e-01  9.4602768573176710e-01  9.6165445055968912e-01 
 9.7651984223973776e-01  9.9058795476951123e-01  1.0038249349967350e+00  1.0161991818909046e+00 
 1.0276815434391273e+00  1.0382454940505745e+00  1.0478672852481894e+00  1.0565260666060527e+00 
 1.0642039763134323e+00  1.0708862023996948e+00  1.0765610166278941e+00  1.0812197835188113e+00 
 1.0848569470702800e+00  1.0874699976328057e+00  1.0890594211992359e+00  1.0896286331344445e+00 
 1.0891838981520432e+00  1.0877342381588491e+00  1.0852913294399775e+00  1.0818693905456020e+00 
 1.0774850621580494e+00  1.0721572801569477e+00  1.0659071430527070e+00  1.0587577749176920e+00 
 1.0507341849044047e+00  1.0418631243966687e+00  1.0321729427903501e+00  1.0216934428430371e+00 
 1.0104557364677471e+00  9.9849210177255343e-01  9.8583584206826591e-01  9.7252114748488661e-01 
 9.5858295975106111e-01  9.4405684060291994e-01  9.2897884420792787e-01  9.1338539390606965e-01 
 8.9731316349219248e-01  8.8079896320400763e-01  8.6387963051883765e-01  8.4659192580675846e-01 
 8.2897243187008762e-01  8.1105746226854736e-01  7.9288296856017371e-01  7.7448445619963135e-01 
 7.5589690414863275e-01  7.3715468909786452e-01  7.1829151423572557e-01  6.9934034250334576e-01 
 6.8033333428241161e-01  6.6130178947037399e-01  6.4227609390544704e-01  6.2328567011057778e-01 
 6.0435893233064053e-01  5.8552324584006865e-01  5.6680489049872385e-01  5.4822902853194200e-01 
 5.2981967650647765e-01  5.1159968146770385e-01  4.9359070119518955e-01  4.7581318852399368e-01 
 4.5828637966787006e-01  4.4102828647070585e-01  4.2405569249837732e-01  4.0738415287165697e-01 
 3.9102799773164221e-01  3.7500033921290338e-01  3.5931308179467275e-01  3.4397693589069056e-01 
 3.2900143452543940e-01  3.1439495294013836e-01  3.0016473096490004e-01  2.8631689798792864e-01 
 2.7285650034822007e-01  2.5978753097479962e-01  2.4711296109306818e-01  2.3483477381728515e-01 
 2.2295399944757144e-01  2.1147075229002799e-01  2.0038426881960106e-01  1.8969294700715797e-01 
 1.7939438663478458e-01  1.6948543042654601e-01  1.5996220582586726e-01  1.5082016725517719e-01 
 1.4205413869844011e-01  1.3365835645263935e-01  1.2562651190011676e-01  1.1795179415981269e-01 
 1.1062693248184936e-01  1.0364423825646940e-01  9.6995646515027123e-02  9.0672756807466143e-02 
 8.4666873347440857e-02  7.8969044322905732e-02  7.3570100276548131e-02  6.8460691466844331e-02 
 6.3631324126741884e-02  5.9072395542996002e-02  5.4774227885009158e-02  5.0727100717651623e-02 
 4.6921282138004491e-02  4.3347058481298245e-02  3.9994762546566157e-02  3.6854800297846664e-02 
 3.3917676002067756e-02  3.1174015770175839e-02  2.8614589473816360e-02  2.6230331015792738e-02 
 2.4012356938792927e-02  2.1951983363463934e-02  2.0040741253831863e-02  1.8270390015281655e-02 
 1.6632929437771702e-02  1.5120610004590161e-02  1.3725941594672572e-02  1.2441700614124586e-02 
 1.1260935600145842e-02  1.0176971347867105e-02  9.1834116173313916e-03  8.2741404842242919e-03 
 7.4433224037970822e-03  6.6854010623996138e-03  5.9950970954017642e-03  5.3674047538502696e-03 
 4.7975876047982469e-03  4.2811733521206808e-03  3.8139478656885133e-03  3.3919485069199098e-03 
 3.0114568381317012e-03  2.6689908017651981e-03  2.3612964535163527e-03  2.0853393307228639e-03 
 1.8382955341177359e-03  1.6175425973228058e-03  1.4206502143030760e-03  1.2453708905118658e-03 
 1.0896305787067473e-03  9.5151935548495957e-04  8.2928218954990212e-04  7.2130984764844476e-04 
 6.2612997907785688e-04  5.4239841470968882e-04  4.6889071166697347e-04  4.0449397016307695e-04 
 3.4819894459937125e-04  2.9909246685030423e-04  2.5635019575617274e-04  2.1922970320689943e-04 
 1.8706390383938605e-04  1.5925483228681843e-04  1.3526776910725567e-04  1.1462571397497633e-04 
 9.6904202433751734e-05  8.1726460476540087e-05  6.8758889425182005e-05  5.7706872020985273e-05 
 4.8310889298689000e-05  4.0342936688843461e-05  3.3603226868195166e-05  2.7917166143796340e-05 
 2.3132590603591906e-05  1.9117247883071315e-05  1.5756510172595812e-05  1.2951304011105075e-05 
 1.0616242466470739e-05  8.6779454778056495e-06  7.0735344172804254e-06  5.7492873050322230e-06 
 4.6594415671894088e-06  3.7651317506916637e-06  3.0334501866353960e-06  2.4366192140222229e-06 
 1.9512642264058828e-06  1.5577774741853793e-06  1.2397632352366541e-06  9.8355564723448766e-07 
 7.7780116842839209e-07  6.1309829287551512e-07  4.8168778531216481e-07  3.7718731509159185e-07 
 2.9436495403391877e-07  2.2894655665142328e-07  1.7745256091108427e-07  1.3706023213834489e-07 
 1.0548782121154318e-07  8.0897520818566241e-08  6.1814480746466361e-08  4.7059485894281031e-08 
 3.5693210243743314e-08  2.6970237981094445e-08  2.0301291138296986e-08  1.5222323464724798e-08 
 1.1369334792969311e-08  8.4579310073603655e-09  6.2668039411408215e-09  4.6244351592662016e-09 
 3.3984396019245593e-09  2.4870613516772451e-09  1.8124161193780658e-09  1.3151450755811982e-09 
 9.5020391341560549e-10  6.8356091355723644e-10  4.8961956029486126e-10  3.4921607107672035e-10 
 2.4807107053604314e-10  1.7559847048163139e-10  1.2399421240128135e-10  0.0000000000000000e+00 
 0.0000000000000000e+00  0.0000000000000000e+00  0.0000000000000000e+00  0.0000000000000000e+00 
 0.0000000000000000e+00  0.0000000000000000e+00  0.0000000000000000e+00  0.0000000000000000e+00 
 0.0000000000000000e+00  0.0000000000000000e+00  0.0000000000000000e+00  0.0000000000000000e+00 
 0.0000000000000000e+00  0.0000000000000000e+00  0.0000000000000000e+00  0.0000000000000000e+00 
 0.0000000000000000e+00  0.0000000000000000e+00  0.0000000000000000e+00  0.0000000000000000e+00 
 0.0000000000000000e+00  0.0000000000000000e+00  0.0000000000000000e+00  0.0000000000000000e+00 
 0.0000000000000000e+00  0.0000000000000000e+00  0.0000000000000000e+00  0.0000000000000000e+00 
 0.0000000000000000e+00  0.0000000000000000e+00  0.0000000000000000e+00  0.0000000000000000e+00 
 0.0000000000000000e+00  0.0000000000000000e+00  0.0000000000000000e+00  0.0000000000000000e+00 
 0.0000000000000000e+00  0.0000000000000000e+00  0.0000000000000000e+00  0.0000000000000000e+00 
 0.0000000000000000e+00  0.0000000000000000e+00  0.0000000000000000e+00  0.0000000000000000e+00 
 0.0000000000000000e+00  0.0000000000000000e+00  0.0000000000000000e+00  0.0000000000000000e+00 
 0.0000000000000000e+00  0.0000000000000000e+00  0.0000000000000000e+00  0.0000000000000000e+00 
 0.0000000000000000e+00  0.0000000000000000e+00  0.0000000000000000e+00  0.0000000000000000e+00 
 0.0000000000000000e+00  0.0000000000000000e+00  0.0000000000000000e+00  0.0000000000000000e+00 
 0.0000000000000000e+00  0.0000000000000000e+00  0.0000000000000000e+00  0.0000000000000000e+00 
 0.0000000000000000e+00  0.0000000000000000e+00  0.0000000000000000e+00  0.0000000000000000e+00 
 0.0000000000000000e+00  0.0000000000000000e+00  0.0000000000000000e+00  0.0000000000000000e+00 
 0.0000000000000000e+00  0.0000000000000000e+00  0.0000000000000000e+00  0.0000000000000000e+00 
 0.0000000000000000e+00  0.0000000000000000e+00  0.0000000000000000e+00  0.0000000000000000e+00 
 0.0000000000000000e+00  0.0000000000000000e+00  0.0000000000000000e+00  0.0000000000000000e+00 
 0.0000000000000000e+00  0.0000000000000000e+00  0.0000000000000000e+00  0.0000000000000000e+00 
 0.0000000000000000e+00  0.0000000000000000e+00  0.0000000000000000e+00  0.0000000000000000e+00 
 0.0000000000000000e+00  0.0000000000000000e+00  0.0000000000000000e+00  0.0000000000000000e+00 
 0.0000000000000000e+00  0.0000000000000000e+00  0.0000000000000000e+00  0.0000000000000000e+00 
 0.0000000000000000e+00  0.0000000000000000e+00  0.0000000000000000e+00  0.0000000000000000e+00 
 0.0000000000000000e+00  0.0000000000000000e+00  0.0000000000000000e+00  0.0000000000000000e+00 
 0.0000000000000000e+00  0.0000000000000000e+00  0.0000000000000000e+00  0.0000000000000000e+00 
 0.0000000000000000e+00  0.0000000000000000e+00  0.0000000000000000e+00  0.0000000000000000e+00 
 0.0000000000000000e+00  0.0000000000000000e+00  0.0000000000000000e+00  0.0000000000000000e+00 
 0.0000000000000000e+00  0.0000000000000000e+00  0.0000000000000000e+00  0.0000000000000000e+00 
 0.0000000000000000e+00  0.0000000000000000e+00  0.0000000000000000e+00  0.0000000000000000e+00 
 0.0000000000000000e+00  0.0000000000000000e+00  0.0000000000000000e+00  0.0000000000000000e+00 
 0.0000000000000000e+00  0.0000000000000000e+00  0.0000000000000000e+00  0.0000000000000000e+00 
 0.0000000000000000e+00  0.0000000000000000e+00  0.0000000000000000e+00  0.0000000000000000e+00 
 0.0000000000000000e+00  0.0000000000000000e+00  0.0000000000000000e+00  0.0000000000000000e+00 
 0.0000000000000000e+00  0.0000000000000000e+00  0.0000000000000000e+00  0.0000000000000000e+00 
 0.0000000000000000e+00  0.0000000000000000e+00  0.0000000000000000e+00  0.0000000000000000e+00 
 0.0000000000000000e+00  0.0000000000000000e+00  0.0000000000000000e+00  0.0000000000000000e+00 
 0.0000000000000000e+00  0.0000000000000000e+00  0.0000000000000000e+00  0.0000000000000000e+00 
 0.0000000000000000e+00  0.0000000000000000e+00  0.0000000000000000e+00  0.0000000000000000e+00 
 0.0000000000000000e+00  0.0000000000000000e+00  0.0000000000000000e+00  0.0000000000000000e+00 
 0.0000000000000000e+00  0.0000000000000000e+00  0.0000000000000000e+00 
D    2   2.00          Wavefunction
 1.6683221720755424e-15  1.7346721522242281e-15  1.8036609032144804e-15  1.8753933702412002e-15 
 1.9499786722206036e-15  2.0275302677811449e-15  2.1081661278559837e-15  2.1920089151395370e-15 
 2.2791861706811042e-15  2.3698305078994145e-15  2.4640798143132276e-15  2.5620774612948521e-15 
 2.6639725221656769e-15  2.7699199989654545e-15  2.8800810582403198e-15  2.9946232762082059e-15 
 3.1137208936746161e-15  3.2375550810865129e-15  3.3663142141275349e-15  3.5001941602737712e-15 
 3.6393985767459947e-15  3.7841392203116018e-15  3.9346362694075365e-15  4.0911186590741885e-15 
 4.2538244292097785e-15  4.4230010866750011e-15  4.5989059817987350e-15  4.7818066998575776e-15 
 4.9719814681247109e-15  5.1697195791072974e-15  5.3753218306162404e-15  5.5891009833377287e-15 
 5.8113822366026354e-15  6.0425037230774900e-15  6.2828170231295591e-15  6.5326876996484793e-15 
 6.7924958541380099e-15  7.0626367049238210e-15  7.3435211883569073e-15  7.6355765839271381e-15 
 7.9392471642379031e-15  8.2549948708305392e-15  8.5833000168866678e-15  8.9246620178773250e-15 
 9.2796001512703740e-15  9.6486543464518467e-15  1.0032386006062887e-14  1.0431378860001619e-14 
 1.0846239853389127e-14  1.1277600069850277e-14  1.1726115691513866e-14  1.2192468997192450e-14 
 1.2677369400260319e-14  1.3181554527808322e-14  1.3705791342717299e-14  1.4250877310356856e-14 
 1.4817641611684395e-14  1.5406946404589654e-14  1.6019688135403579e-14  1.6656798902566528e-14 
 1.7319247874530261e-14  1.8008042764050611e-14  1.8724231361113490e-14  1.9468903126826127e-14 
 2.0243190850698204e-14  2.1048272373833838e-14  2.1885372380655810e-14  2.2755764261887553e-14 
 2.3660772051626888e-14  2.4601772441458150e-14  2.5580196874666536e-14  2.6597533723740498e-14 
 2.7655330554474405e-14  2.8755196480115801e-14  2.9898804609138232e-14  3.1087894590363304e-14 
 3.2324275259303459e-14  3.3609827389751234e-14  3.4946506554800520e-14  3.6336346101652232e-14 
 3.7781460244729410e-14  3.9284047281807136e-14  4.0846392938049583e-14  4.2470873843041079e-14 
 4.4159961146100636e-14  4.5916224275379193e-14  4.7742334846458243e-14  4.9641070726395396e-14 
 5.1615320259399101e-14  5.3668086660560754e-14  5.5802492584327623e-14  5.8021784874666539e-14 
 6.0329339504143857e-14  6.2728666709435400e-14  6.5223416331078146e-14  6.7817383365586788e-14 
 7.0514513738380682e-14  7.3318910306303435e-14  7.6234839098865590e-14  7.9266735807704912e-14 
 8.2419212534136009e-14  8.5697064805053483e-14  8.9105278867861390e-14  9.2649039275525882e-14 
 9.6333736773289234e-14  1.0016497649904329e-13  1.0414858650983541e-13  1.0829062664747878e-13 
 1.1259739775675244e-13  1.1707545127021438e-13  1.2173159917420757e-13  1.2657292437121978e-13 
 1.3160679145435994e-13  1.3684085791034121e-13  1.4228308576801329e-13  1.4794175371016256e-13 
 1.5382546966700609e-13  1.5994318391053490e-13  1.6630420266962757e-13  1.7291820228664367e-13 
 1.7979524393703325e-13  1.8694578893435357e-13  1.9438071464397461e-13  2.0211133102968207e-13 
 2.1014939785834791e-13  2.1850714258884056e-13  2.2719727897238729e-13  2.3623302639268399e-13 
 2.4562812997517161e-13  2.5539688149607116e-13  2.6555414112298240e-13  2.7611536002011902e-13 
 2.8709660385256812e-13  2.9851457722532670e-13  3.1038664909429417e-13  3.2273087918787476e-13 
 3.3556604547938302e-13  3.4891167275204332e-13  3.6278806230003692e-13  3.7721632281077783e-13 
 3.9221840247539509e-13  4.0781712237626971e-13  4.2403621120241364e-13  4.4090034134550169e-13 
 4.5843516643146520e-13  4.7666736034474004e-13  4.9562465780453533e-13  5.1533589655484451e-13 
 5.3583106123238111e-13  5.5714132897917136e-13  5.7929911686918805e-13  6.0233813122117295e-13 
 6.2629341887266396e-13  6.5120142049322246e-13  6.7710002601796512e-13  7.0402863228572363e-13 
 7.3202820296951290e-13  7.6114133089047702e-13  7.9141230281010134e-13  8.2288716679925701e-13 
 8.5561380228655996e-13  8.8964199289260122e-13  9.2502350216084904e-13  9.6181215230042013e-13 
 1.0000639060605117e-12  1.0398369518610338e-12  1.0811917923089579e-12  1.1241913362350177e-12 
 1.1689009943907858e-12  1.2153887789516916e-12  1.2637254069773509e-12  1.3139844079865941e-12 
 1.3662422358108361e-12  1.4205783848959428e-12  1.4770755112295163e-12  1.5358195580775543e-12 
 1.5968998867217609e-12  1.6604094123963832e-12  1.7264447456313744e-12  1.7951063392168882e-12 
 1.8664986410126788e-12  1.9407302528348615e-12  2.0179140956617363e-12  2.0981675814099938e-12 
 2.1816127915426130e-12  2.2683766627801547e-12  2.3585911801979652e-12  2.4523935780030282e-12 
 2.5499265482959056e-12  2.6513384581353353e-12  2.7567835752356943e-12  2.8664223026406727e-12 
 2.9804214227301412e-12  3.0989543509314303e-12  3.2222013995209483e-12  3.3503500519174654e-12 
 3.4835952478843284e-12  3.6221396800744594e-12  3.7661941023692808e-12  3.9159776504805894e-12 
 4.0717181753031489e-12  4.2336525895250505e-12  4.4020272280231977e-12  4.5770982225921012e-12 
 4.7591318915760932e-12  4.9484051449976712e-12  5.1452059057982708e-12  5.3498335478323260e-12 
 5.5625993512808659e-12  5.7838269761775028e-12  6.0138529547671436e-12  6.2530272034464598e-12 
 6.5017135550648945e-12  6.7602903123960065e-12  7.0291508236211221e-12  7.3087040807007616e-12 
 7.5993753415441684e-12  7.9016067769233929e-12  8.2158581431161030e-12  8.5426074813004060e-12 
 8.8823518447656640e-12  9.2356080550455947e-12  9.6029134881239865e-12  9.9848268919090688e-12 
 1.0381929236220154e-11  1.0794824596579696e-11  1.1224141073155221e-11  1.1670531746249166e-11 
 1.2134675669790230e-11  1.2617278904337677e-11  1.3119075591170057e-11  1.3640829069092459e-11 
 1.4183333035661307e-11  1.4747412754593287e-11  1.5333926311195345e-11  1.5943765917725613e-11 
 1.6577859270671249e-11  1.7237170962008010e-11  1.7922703946588704e-11  1.8635501067892785e-11 
 1.9376646644458455e-11  2.0147268119410765e-11  2.0948537775595214e-11  2.1781674518926337e-11 
 2.2647945732664303e-11  2.3548669205440686e-11  2.4485215135966654e-11  2.5459008217473587e-11 
 2.6471529805057309e-11  2.7524320169223429e-11  2.8618980839062386e-11  2.9757177038619022e-11 
 3.0940640220163645e-11  3.2171170698218574e-11  3.3450640388347907e-11  3.4780995654877082e-11 
 3.6164260271875421e-11  3.7602538501906147e-11  3.9098018297228398e-11  4.0652974628321748e-11 
 4.2269772944797331e-11  4.3950872773961744e-11  4.5698831462508280e-11  4.7516308067029155e-11 
 4.9406067399267692e-11  5.1370984232265794e-11  5.3414047673806105e-11  5.5538365713803518e-11 
 5.7747169952565007e-11  6.0043820517111975e-11  6.2431811173045929e-11  6.4914774639735322e-11 
 6.7496488116911060e-11  7.0180879031080116e-11  7.2972031010501016e-11  7.5874190097812680e-11 
 7.8891771209769985e-11  8.2029364853915692e-11  8.5291744112408658e-11  8.8683871903636118e-11 
 9.2210908532659199e-11  9.5878219541981451e-11  9.9691383874586861e-11  1.0365620236166929e-10 
 1.0777870654796920e-10  1.1206516786814773e-10  1.1652210718816230e-10  1.2115630472616341e-10 
 1.2597481036801074e-10  1.3098495439310588e-10  1.3619435862686520e-10  1.4161094803680485e-10 
 1.4724296278988561e-10  1.5309897078946708e-10  1.5918788071095115e-10  1.6551895555595454e-10 
 1.7210182674563726e-10  1.7894650877463829e-10  1.8606341444792000e-10  1.9346337072371137e-10 
 2.0115763518666446e-10  2.0915791317629562e-10  2.1747637559678229e-10  2.2612567743522302e-10 
 2.3511897701654752e-10  2.4446995602438511e-10  2.5419284031836596e-10  2.6430242157954314e-10 
 2.7481407981688344e-10  2.8574380676908749e-10  2.9710823023736247e-10  3.0892463938618798e-10 
 3.2121101105059224e-10  3.3398603708998526e-10  3.4726915283019332e-10  3.6108056663699306e-10 
 3.7544129066617017e-10  3.9037317283691861e-10  4.0589893007725909e-10  4.2204218289209299e-10 
 4.3882749130652626e-10  4.5628039223918912e-10  4.7442743836245759e-10  4.9329623850874891e-10 
 5.1291549968441729e-10  5.3331507075522917e-10  5.5452598786993886e-10  5.7658052169113967e-10 
 5.9951222650531767e-10  6.2335599128689692e-10  6.4814809279404783e-10  6.7392625077712431e-10 
 7.0072968538381332e-10  7.2859917684843516e-10  7.5757712755630862e-10  7.8770762657772059e-10 
 8.1903651676980212e-10  8.5161146454852847e-10  8.8548203243713234e-10  9.2069975450145895e-10 
 9.5731821478718025e-10  9.9539312887837793e-10  1.0349824287017584e-09  1.0761463507057153e-09 
 1.1189475275486038e-09  1.1634510834359383e-09  1.2097247332518044e-09  1.2578388856355516e-09 
 1.3078667501608632e-09  1.3598844487805528e-09  1.4139711317069528e-09  1.4702090979045248e-09 
 1.5286839203783659e-09  1.5894845764496057e-09  1.6527035832162967e-09  1.7184371384063267e-09 
 1.7867852668371029e-09  1.8578519727053403e-09  1.9317453979391629e-09  2.0085779868540080e-09 
 2.0884666573634482e-09  2.1715329790060530e-09  2.2579033580598321e-09  2.3477092300266336e-09 
 2.4410872597801342e-09  2.5381795496827563e-09  2.6391338559890666e-09  2.7441038138658293e-09 
 2.8532491713721037e-09  2.9667360327564536e-09  3.0847371114426046e-09  3.2074319930896899e-09 
 3.3350074091286346e-09  3.4676575211922933e-09  3.6055842168735692e-09  3.7489974172631545e-09 
 3.8981153967364813e-09  4.0531651154783025e-09  4.2143825652527854e-09  4.3820131289472964e-09 
 4.5563119544391629e-09  4.7375443433566365e-09  4.9259861553281130e-09  5.1219242283373807e-09 
 5.3256568158274358e-09  5.5374940412209482e-09  5.7577583705523380e-09  5.9867851039340597e-09 
 6.2249228866087033e-09  6.4725342403685032e-09  6.7299961161551543e-09  6.9977004686853314e-09 
 7.2760548539811518e-09  7.5654830507200222e-09  7.8664257063548473e-09  8.1793410089937424e-09 
 8.5047053860679023e-09  8.8430142308575705e-09  9.1947826579888012e-09  9.5605462890583887e-09 
 9.9408620695906240e-09  1.0336309118577830e-08  1.0747489611906832e-08  1.1175029701025610e-08 
 1.1619580468258864e-08  1.2081818920237566e-08  1.2562449020966439e-08  1.3062202766114439e-08 
 1.3581841300176943e-08  1.4122156078224484e-08  1.4683970074021767e-08  1.5268139036372494e-08 
 1.5875552795619714e-08  1.6507136622309376e-08  1.7163852640105184e-08  1.7846701295126947e-08 
 1.8556722883971938e-08  1.9294999142769678e-08  2.0062654899715195e-08  2.0860859793624187e-08 
 2.1690830061155998e-08  2.2553830395456797e-08  2.3451175879086410e-08  2.4384233994207522e-08 
 2.5354426713136239e-08  2.6363232672477791e-08  2.7412189434201511e-08  2.8502895837144407e-08 
 2.9637014442573590e-08  3.0816274077584662e-08  3.2042472480265519e-08  3.3317479050714037e-08 
 3.4643237712163743e-08  3.6021769886643152e-08  3.7455177589774139e-08  3.8945646649500976e-08 
 4.0495450053735940e-08  4.2106951432109327e-08  4.3782608677222591e-08  4.5524977711021778e-08 
 4.7336716402136890e-08  4.9220588640270381e-08  5.1179468573964800e-08  5.3216345018337468e-08 
 5.5334326039637776e-08  5.7536643723762088e-08  5.9826659136151617e-08  6.2207867480801766e-08 
 6.4683903466425963e-08  6.7258546888145876e-08  6.9935728433421747e-08  7.2719535721292083e-08 
 7.5614219584363787e-08  7.8624200603379302e-08  8.1754075904590437e-08  8.5008626230586823e-08 
 8.8392823295665634e-08  9.1911837437281276e-08  9.5571045575590592e-08  9.9376039493601474e-08 
 1.0333263445094770e-07  1.0744687814484945e-07  1.1172506003237738e-07  1.1617372102872048e-07 
 1.2079966359676533e-07  1.2560996224392682e-07  1.3061197444282905e-07  1.3581335199312329e-07 
 1.4122205284244623e-07  1.4684635338526820e-07  1.5269486125915955e-07  1.5877652865881648e-07 
 1.6510066618903284e-07  1.7167695727868722e-07  1.7851547317873671e-07  1.8562668856816681e-07 
 1.9302149779284930e-07  2.0071123176330477e-07  2.0870767553845451e-07  2.1702308662358525e-07 
 2.2567021401193347e-07  2.3466231800053562e-07  2.4401319081227977e-07  2.5373717805744316e-07 
 2.6384920106940412e-07  2.7436478015068664e-07  2.8530005876702538e-07  2.9667182872874033e-07 
 3.0849755640037788e-07  3.2079540998131915e-07  3.3358428790187636e-07  3.4688384838129816e-07 
 3.6071454019609248e-07  3.7509763470914483e-07  3.9005525921227995e-07  4.0561043163717484e-07 
 4.2178709669189878e-07  4.3861016348282163e-07  4.5610554468421988e-07  4.7430019732060248e-07 
 4.9322216522960261e-07  5.1290062327623336e-07  5.3336592339237859e-07  5.5464964251862719e-07 
 5.7678463252891826e-07  5.9980507222200335e-07  6.2374652146740712e-07  6.4864597759743917e-07 
 6.7454193414084139e-07  7.0147444199787650e-07  7.2948517316110055e-07  7.5861748709067005e-07 
 7.8891649985789869e-07  8.2042915617584161e-07  8.5320430444100240e-07  8.8729277491581901e-07 
 9.2274746118741734e-07  9.5962340504422463e-07  9.9797788491843067e-07  1.0378705080489956e-06 
 1.0793633065269215e-06  1.1225208373918753e-06  1.1674102869569754e-06  1.2141015795466463e-06 
 1.2626674908409422e-06  1.3131837660286477e-06  1.3657292429808083e-06  1.4203859806661465e-06 
 1.4772393930401253e-06  1.5363783886501928e-06  1.5978955162111143e-06  1.6618871164161807e-06 
 1.7284534802625998e-06  1.7976990141825030e-06  1.8697324122848003e-06  1.9446668360276190e-06 
 2.0226201016562814e-06  2.1037148757578232e-06  2.1880788792998535e-06  2.2758451005392877e-06 
 2.3671520172051068e-06  2.4621438283788582e-06  2.5609706965172501e-06  2.6637890000828692e-06 
 2.7707615972718630e-06  2.8820581013514715e-06  2.9978551681456093e-06  3.1183367962333012e-06 
 3.2436946404528945e-06  3.3741283393345052e-06  3.5098458571143470e-06  3.6510638410174134e-06 
 3.7980079945296314e-06  3.9509134674171099e-06  4.1100252632886022e-06  4.2755986655379471e-06 
 4.4478996825461056e-06  4.6272055130676080e-06  4.8138050327740153e-06  5.0079993029773934e-06 
 5.2101021026099786e-06  5.4204404845924959e-06  5.6393553577829349e-06  5.8672020957603459e-06 
 6.1043511737645982e-06  6.3511888351830410e-06  6.6081177890492629e-06  6.8755579400974547e-06 
 7.1539471529988409e-06  7.4437420524944073e-06  7.7454188612309199e-06  8.0594742772056285e-06 
 8.3864263928289622e-06  8.7268156577248175e-06  9.0812058875046413e-06  9.4501853208751831e-06 
 9.8343677275707881e-06  1.0234393569739874e-05  1.0650931219562503e-05  1.1084678236031866e-05 
 1.1536362703998134e-05  1.2006744638748515e-05  1.2496617459583744e-05  1.3006809536048738e-05 
 1.3538185810684994e-05  1.4091649502395039e-05  1.4668143894745675e-05  1.5268654213787974e-05 
 1.5894209600238764e-05  1.6545885181151971e-05  1.7224804246509335e-05  1.7932140536480528e-05 
 1.8669120645442970e-05  1.9437026549214081e-05  2.0237198262333644e-05  2.1071036632643938e-05 
 2.1940006280851236e-05  2.2845638693216407e-05  2.3789535476016422e-05  2.4773371780944506e-05 
 2.5798899911176982e-05  2.6867953118431404e-05  2.7982449601976296e-05  2.9144396721230222e-05 
 3.0355895434309813e-05  3.1619144975655833e-05  3.2936447786687122e-05  3.4310214714306781e-05 
 3.5742970493018655e-05  3.7237359527407672e-05  3.8796151992799212e-05  4.0422250273047519e-05 
 4.2118695755611753e-05  4.3888676005371449e-05  4.5735532340011158e-05  4.7662767831277880e-05 
 4.9674055757988117e-05  5.1773248538341594e-05  5.3964387170895625e-05  5.6251711215472163e-05 
 5.8639669347321925e-05  6.1132930520061934e-05  6.3736395775248499e-05  6.6455210738953062e-05 
 6.9294778848391370e-05  7.2260775354523047e-05  7.5359162149607836e-05  7.8596203471986619e-05 
 8.1978482543868721e-05  8.5512919201666542e-05  8.9206788582441493e-05  9.3067740934334484e-05 
 9.7103822623463849e-05  1.0132349841471344e-04  1.0573567510911899e-04  1.1034972662622564e-04 
 1.1517552062585237e-04  1.2022344677019657e-04  1.2550444673417040e-04  1.3103004607931435e-04 
 1.3681238811462314e-04  1.4286426987617133e-04  1.4919918036660016e-04  1.5583134120534731e-04 
 1.6277574985103078e-04  1.7004822556867741e-04  1.7766545832657624e-04  1.8564506082048828e-04 
 1.9400562383682681e-04  2.0276677518129424e-04  2.1194924241540024e-04  2.2157491966036182e-04 
 2.3166693874618092e-04  2.4224974500329535e-04  2.5334917801519827e-04  2.6499255767290658e-04 
 2.7720877589624773e-04  2.9002839441272596e-04  3.0348374901234592e-04  3.1760906072632669e-04 
 3.3244055440928555e-04  3.4801658523831905e-04  3.6437777367862766e-04  3.8156714950406080e-04 
 3.9963030550237318e-04  4.1861556153923991e-04  4.3857413970237549e-04  4.5956035129760355e-04 
 4.8163179652265111e-04  5.0484957770198144e-04  5.2927852702734863e-04  5.5498744981418585e-04 
 5.8204938435363774e-04  6.1054187951426440e-04  6.4054729132641112e-04  6.7215309986619245e-04 
 7.0545224784525481e-04  7.4054350240714592e-04  7.7753184173155797e-04  8.1652886815409035e-04 
 8.5765324962177886e-04  9.0103119142366105e-04  9.4679694026132092e-04  9.9509332285683399e-04 
 1.0460723214350321e-03  1.0998956885635942e-03  1.1567356039882957e-03  1.2167753762618147e-03 
 1.2802101921328120e-03  1.3472479168374675e-03  1.4181099486181320e-03  1.4930321309829615e-03 
 1.5722657264159734e-03  1.6560784554484175e-03  1.7447556052090599e-03  1.8386012117820481e-03 
 1.9379393209156058e-03  2.0431153318415220e-03  2.1544974291829106e-03  2.2724781081442233e-03 
 2.3974757983909975e-03  2.5299365922349195e-03  2.6703360829397169e-03  2.8191813191519909e-03 
 2.9770128816347529e-03  3.1444070886359251e-03  3.3219783363548096e-03  3.5103815810711655e-03 
 3.7103149695681607e-03  3.9225226245054911e-03  4.1477975913749845e-03  4.3869849535899457e-03 
 4.6409851221124549e-03  4.9107573057997692e-03  5.1973231683416629e-03  5.5017706772528957e-03 
 5.8252581498668930e-03  6.1690185006346848e-03  6.5343636932527292e-03  6.9226894002098168e-03 
 7.3354798712403080e-03  7.7743130108827588e-03  8.2408656638517860e-03  8.7369191052201530e-03 
 9.2643647304593724e-03  9.8252099381840267e-03  1.0421584195969971e-02  1.1055745276854543e-02 
 1.1730085651062417e-02  1.2447139014122272e-02  1.3209586928836638e-02  1.4020265554533297e-02 
 1.4882172432660606e-02  1.5798473293092842e-02  1.6772508840495845e-02  1.7807801474785157e-02 
 1.8908061894115140e-02  2.0077195523006051e-02  2.1319308702197066e-02  2.2638714570671487e-02 
 2.4039938564117062e-02  2.5527723447959401e-02  2.7107033797159605e-02  2.8783059829340558e-02 
 3.0561220492664999e-02  3.2447165705419938e-02  3.4446777640677169e-02  3.6566170946924666e-02 
 3.8811691794440717e-02  4.1189915637645610e-02  4.3707643585939052e-02  4.6371897279784503e-02 
 4.9189912175125514e-02  5.2169129147565670e-02  5.5317184337862271e-02  5.8641897171633997e-02 
 6.2151256497839605e-02  6.5853404801130638e-02  6.9756620450608875e-02  7.3869297949167079e-02 
 7.8199926140150228e-02  8.2757064307718134e-02  8.7549316070000591e-02  9.2585300906284695e-02 
 9.7873623078716984e-02  1.0342283760548035e-01  1.0924141282019155e-01  1.1533768892079363e-01 
 1.2171983178643418e-01  1.2839578124544238e-01  1.3537319294007191e-01  1.4265937298580447e-01 
 1.5026120479509250e-01  1.5818506775087013e-01  1.6643674788411542e-01  1.7502134132309197e-01 
 1.8394315200637676e-01  1.9320558592663103e-01  2.0281104490805926e-01  2.1276082350331474e-01 
 2.2305501289770779e-01  2.3369241561432683e-01  2.4467047425905655e-01  2.5598521656208362e-01 
 2.6763121771955561e-01  2.7960157978050854e-01  2.9188792685831916e-01  3.0448041449477331e-01 
 3.1736775162195574e-01  3.3053723411381386e-01  3.4397478961947148e-01  3.5766503390854604e-01 
 3.7159133906667680e-01  3.8573591338464486e-01  4.0007989162955376e-01  4.1460343265228627e-01 
 4.2928581923578807e-01  4.4410555321867029e-01  4.5904043795020127e-01  4.7406764081766045e-01 
 4.8916373143803527e-01  5.0430469596280048e-01  5.1946593377169081e-01  5.3462224793567570e-01 
 5.4974784351764461e-01  5.6481634712932971e-01  5.7980085881424503e-01  5.9467404806381330e-01 
 6.0940824164743146e-01  6.2397558894273220e-01  6.3834823478135760e-01  6.5249848836774604e-01 
 6.6639899820960091e-01  6.8002292147481347e-01  6.9334408208933618e-01  7.0633711439938984e-01 
 7.1897759075117873e-01  7.3124213247035275e-01  7.4310850447597165e-01  7.5455569421315549e-01 
 7.6556397582135982e-01  7.7611496054912921e-01  7.8619163444152196e-01  7.9577838430431758e-01 
 8.0486101291463275e-01  8.1342674441361129e-01  8.2146422078833392e-01  8.2896349032728067e-01 
 8.3591598891440777e-01  8.4231451500830523e-01  8.4815319913216214e-01  8.5342746867517594e-01 
 8.5813400877515811e-01  8.6227072001472271e-01  8.6583667361958983e-01  8.6883206479768416e-01 
 8.7125816480357343e-01  8.7311727225382774e-01  8.7441266415732477e-01  8.7514854706455925e-01 
 8.7533000867840949e-01  8.7496297020803249e-01  8.7405413969432344e-01  8.7261096648024528e-01 
 8.7064159694762888e-01  8.6815483160664741e-01  8.6516008358476104e-01  8.6166733852491351e-01 
 8.5768711588621027e-01  8.5323043161308421e-01  8.4830876211400519e-01  8.4293400949929465e-01 
 8.3711846801657452e-01  8.3087479160930211e-01  8.2421596253251439e-01  8.1715526096194846e-01 
 8.0970623553780152e-01  8.0188267479117725e-01  7.9369857940899868e-01  7.8516813530132445e-01 
 7.7630568744315642e-01  7.6712571447059374e-01  7.5764280401828865e-01  7.4787162879131164e-01 
 7.3782692336963263e-01  7.2752346174732740e-01  7.1697603561133638e-01  7.0619943336605229e-01 
 6.9520841990998072e-01  6.8401771655701693e-01  6.7264198417597443e-01  6.6109580342583352e-01 
 6.4939365819798400e-01  6.3754991921064064e-01  6.2557882835967815e-01  6.1349448381881810e-01 
 6.0131082587106399e-01  5.8904162345465394e-01  5.7670046140231190e-01  5.6430072834884071e-01 
 5.5185560527867350e-01  5.3937805468176714e-01  5.2688081028323752e-01  5.1437636730945502e-01 
 5.0187697325099079e-01  4.8939461908091680e-01  4.7694103088557527e-01  4.6452766186415062e-01 
 4.5216568465320406e-01  4.3986598393284249e-01  4.2763914927261409e-01  4.1549546817746252e-01 
 4.0344491929715404e-01  3.9149716576659643e-01  3.7966154864944940e-01  3.6794708046329805e-01 
 3.5636243877145923e-01  3.4491595983413481e-01  3.3361563232003971e-01  3.2246909108873878e-01 
 3.1148361106354078e-01  3.0066610122478360e-01  2.9002309876345628e-01  2.7956076344509334e-01 
 2.6928487224345410e-01  2.5920081431233571e-01  2.4931358637162596e-01  2.3962778859004766e-01 
 2.3014762105164813e-01  2.2087688089563068e-01  2.1181896021931884e-01  2.0297684483216877e-01 
 1.9435311394398530e-01  1.8594994086317321e-01  1.7776909477175773e-01  1.6981194363222488e-01 
 1.6207945826794024e-01  1.5457221764420462e-01  1.4729041536135085e-01  1.4023386735514076e-01 
 1.3340202078355651e-01  1.2679396406335031e-01  1.2040843800487967e-01  1.1424384797966537e-01 
 1.0829827704312028e-01  1.0256949992504863e-01  9.7054997790676958e-02  9.1751973668357287e-02 
 8.6657368436191651e-02  8.1767877256116991e-02  7.7079966343561679e-02  7.2589889962416915e-02 
 6.8293707536669704e-02  6.4187300774655939e-02  6.0266390708414275e-02  5.6526554557257816e-02 
 5.2963242333033275e-02  4.9571793113709739e-02  4.6347450921761325e-02  4.3285380154025624e-02 
 4.0380680520053835e-02  3.7628401456119245e-02  3.5023555991721390e-02  3.2561134054326014e-02 
 3.0236115205953935e-02  2.8043480811857487e-02  2.5978225646742851e-02  2.4035368947717031e-02 
 2.2209964925352245e-02  2.0497112745030646e-02  1.8891965990205744e-02  1.7389741617597279e-02 
 1.5985728411880864e-02  1.4675294944429446e-02  1.3453897037406683e-02  1.2317084731290572e-02 
 1.1260508750978426e-02  1.0279926463211363e-02  9.3712073163249535e-03  8.5303377523974488e-03 
 7.7534255817928886e-03  7.0367038108044080e-03  6.3765339148058450e-03  5.7694085515102942e-03 
 5.2119537119236789e-03  4.7009303099928281e-03  4.2332352157206576e-03  3.8059017405050249e-03 
 3.4160995875150281e-03  3.0611342839224551e-03  2.7384461156436304e-03  2.4456085888214536e-03 
 2.1803264455100080e-03  1.9404332638533290e-03  1.7238886754322392e-03  1.5287752343609311e-03 
 1.3532949741356382e-03  1.1957656891717560e-03  1.0546169784248756e-03  9.2838608849655829e-04 
 8.1571359320597254e-04  7.1533894579841239e-04  6.2609593880009703e-04  5.4690810505730110e-04 
 4.7678409176032000e-04  4.1481303729295219e-04  3.6015997860978428e-04  3.1206131456906137e-04 
 2.6982034827902074e-04  2.3280292908864141e-04  2.0043321240551760e-04  1.7218955308663904e-04 
 1.4760054575173667e-04  1.2624122303959932e-04  1.0772942058808717e-04  9.1722315387731597e-05 
 7.7913142152743662e-05  6.6028090484625257e-05  5.5823383881945536e-05  4.7082540081828585e-05 
 3.9613810808175315e-05  3.3247797749964553e-05  2.7835240499221931e-05  2.3244971239434153e-05 
 1.9362030186561454e-05  1.6085935140051501e-05  1.3329097993075655e-05  1.1015380670017022e-05 
 9.0787826973501681e-06  7.4622524596900415e-06  6.1166141366404150e-06  4.9996023472919719e-06 
 4.0749966372937200e-06  3.3118481179825457e-06  2.6837907980283171e-06  2.1684304257774107e-06 
 1.7468039758113992e-06  1.4029032576296976e-06  1.1232564899192253e-06  8.9656206339126278e-07 
 7.1336910216955383e-07  5.6579982246156417e-07  4.4730907272499754e-07  3.5247681745833650e-07 
 2.7682969349198249e-07  2.1668812028669670e-07  1.6903578192494283e-07  1.3140861644363771e-07 
 1.0180074665728898e-07  7.8585064877560775e-08  6.0446441579492822e-08  4.6325765084046251e-08 
 3.5373236014371023e-08  2.6909537186295125e-08  2.0393677465233366e-08  1.5396467876606233e-08 
 1.1578730929983657e-08  8.6734708270806265e-09  6.4713441397667834e-09  4.8088688579921949e-09 
 3.5588956086118874e-09  2.6229395017152209e-09  1.9250355997789811e-09  1.4068365036085657e-09 
 1.0237180232119968e-09  7.4169929907200832e-10  5.3501793528789192e-10  3.8422950234030542e-10 
 2.7472489151303186e-10  1.9557911084704670e-10  1.3866180166407304e-10  9.7953578638177952e-11 
 6.9023162835368241e-11  0.0000000000000000e+00  0.0000000000000000e+00  0.0000000000000000e+00 
 0.0000000000000000e+00  0.0000000000000000e+00  0.0000000000000000e+00  0.0000000000000000e+00 
 0.0000000000000000e+00  0.0000000000000000e+00  0.0000000000000000e+00  0.0000000000000000e+00 
 0.0000000000000000e+00  0.0000000000000000e+00  0.0000000000000000e+00  0.0000000000000000e+00 
 0.0000000000000000e+00  0.0000000000000000e+00  0.0000000000000000e+00  0.0000000000000000e+00 
 0.0000000000000000e+00  0.0000000000000000e+00  0.0000000000000000e+00  0.0000000000000000e+00 
 0.0000000000000000e+00  0.0000000000000000e+00  0.0000000000000000e+00  0.0000000000000000e+00 
 0.0000000000000000e+00  0.0000000000000000e+00  0.0000000000000000e+00  0.0000000000000000e+00 
 0.0000000000000000e+00  0.0000000000000000e+00  0.0000000000000000e+00  0.0000000000000000e+00 
 0.0000000000000000e+00  0.0000000000000000e+00  0.0000000000000000e+00  0.0000000000000000e+00 
 0.0000000000000000e+00  0.0000000000000000e+00  0.0000000000000000e+00  0.0000000000000000e+00 
 0.0000000000000000e+00  0.0000000000000000e+00  0.0000000000000000e+00  0.0000000000000000e+00 
 0.0000000000000000e+00  0.0000000000000000e+00  0.0000000000000000e+00  0.0000000000000000e+00 
 0.0000000000000000e+00  0.0000000000000000e+00  0.0000000000000000e+00  0.0000000000000000e+00 
 0.0000000000000000e+00  0.0000000000000000e+00  0.0000000000000000e+00  0.0000000000000000e+00 
 0.0000000000000000e+00  0.0000000000000000e+00  0.0000000000000000e+00  0.0000000000000000e+00 
 0.0000000000000000e+00  0.0000000000000000e+00  0.0000000000000000e+00  0.0000000000000000e+00 
 0.0000000000000000e+00  0.0000000000000000e+00  0.0000000000000000e+00  0.0000000000000000e+00 
 0.0000000000000000e+00  0.0000000000000000e+00  0.0000000000000000e+00  0.0000000000000000e+00 
 0.0000000000000000e+00  0.0000000000000000e+00  0.0000000000000000e+00  0.0000000000000000e+00 
 0.0000000000000000e+00  0.0000000000000000e+00  0.0000000000000000e+00  0.0000000000000000e+00 
 0.0000000000000000e+00  0.0000000000000000e+00  0.0000000000000000e+00  0.0000000000000000e+00 
 0.0000000000000000e+00  0.0000000000000000e+00  0.0000000000000000e+00  0.0000000000000000e+00 
 0.0000000000000000e+00  0.0000000000000000e+00  0.0000000000000000e+00  0.0000000000000000e+00 
 0.0000000000000000e+00  0.0000000000000000e+00  0.0000000000000000e+00  0.0000000000000000e+00 
 0.0000000000000000e+00  0.0000000000000000e+00  0.0000000000000000e+00  0.0000000000000000e+00 
 0.0000000000000000e+00  0.0000000000000000e+00  0.0000000000000000e+00  0.0000000000000000e+00 
 0.0000000000000000e+00  0.0000000000000000e+00  0.0000000000000000e+00  0.0000000000000000e+00 
 0.0000000000000000e+00  0.0000000000000000e+00  0.0000000000000000e+00  0.0000000000000000e+00 
 0.0000000000000000e+00  0.0000000000000000e+00  0.0000000000000000e+00  0.0000000000000000e+00 
 0.0000000000000000e+00  0.0000000000000000e+00  0.0000000000000000e+00  0.0000000000000000e+00 
 0.0000000000000000e+00  0.0000000000000000e+00  0.0000000000000000e+00  0.0000000000000000e+00 
 0.0000000000000000e+00  0.0000000000000000e+00  0.0000000000000000e+00  0.0000000000000000e+00 
 0.0000000000000000e+00  0.0000000000000000e+00  0.0000000000000000e+00 
D    2   3.00          Wavefunction
 1.4221124113508505e-15  1.4786705101642836e-15  1.5374779519566449e-15  1.5986241941880495e-15 
 1.6622022520852016e-15  1.7283088401354976e-15  1.7970445192084251e-15  1.8685138495280487e-15 
 1.9428255497292835e-15  2.0200926622399196e-15  2.1004327252399675e-15  2.1839679514599088e-15 
 2.2708254140898453e-15  2.3611372400823413e-15  2.4550408111430176e-15  2.5526789727146369e-15 
 2.6542002512725920e-15  2.7597590802623371e-15  2.8695160350224656e-15  2.9836380770507915e-15 
 3.1022988079850131e-15  3.2256787336843104e-15  3.3539655388136013e-15  3.4873543723481421e-15 
 3.6260481444327887e-15  3.7702578350475015e-15  3.9202028149486155e-15  4.0761111793741174e-15 
 4.2382200950205361e-15  4.4067761608192724e-15  4.5820357830611935e-15  4.7642655654400972e-15 
 4.9537427146084223e-15  5.1507554618620755e-15  5.3556035015959025e-15  5.5685984471967371e-15 
 5.7900643050675305e-15  6.0203379675036740e-15  6.2597697251712400e-15  6.5087237999667439e-15 
 6.7675788990689939e-15  7.0367287910258691e-15  7.3165829047523384e-15  7.6075669523509329e-15 
 7.9101235767021064e-15  8.2247130248095640e-15  8.5518138479248845e-15  8.8919236295164374e-15 
 9.2455597421899926e-15  9.6132601347124274e-15  9.9955841503357643e-15  1.0393113377666359e-14 
 1.0806452535373581e-14  1.1236230392083798e-14  1.1683100722858994e-14  1.2147743303715031e-14 
 1.2630864945692388e-14  1.3133200570052418e-14  1.3655514326234683e-14  1.4198600754276016e-14 
 1.4763285993459589e-14  1.5350429039032516e-14  1.5960923048903804e-14  1.6595696702310266e-14 
 1.7255715612517325e-14  1.7941983795703601e-14  1.8655545198263780e-14  1.9397485284853085e-14 
 2.0168932689589097e-14  2.0971060932922668e-14  2.1805090206789702e-14  2.2672289230759278e-14 
 2.3573977182001758e-14  2.4511525702012675e-14  2.5486360983145077e-14  2.6499965938124282e-14 
 2.7553882455845402e-14  2.8649713746885002e-14  2.9789126782294999e-14  3.0973854829388640e-14 
 3.2205700088375999e-14  3.3486536433859731e-14  3.4818312265361630e-14  3.6203053471216008e-14 
 3.7642866510338687e-14  3.9139941616559505e-14  4.0696556130392739e-14  4.2315077963313890e-14 
 4.3997969199812354e-14  4.5747789842699773e-14  4.7567201707371112e-14  4.9458972470942627e-14 
 5.1425979882426043e-14  5.3471216140343663e-14  5.5597792444443493e-14  5.7808943728438391e-14 
 6.0108033580968822e-14  6.2498559362274803e-14  6.4984157524360748e-14  6.7568609142745846e-14 
 7.0255845668215288e-14  7.3049954907321557e-14  7.5955187240733490e-14  7.8975962088892434e-14 
 8.2116874634810825e-14  8.5382702814240420e-14  8.8778414583842794e-14  9.2309175478419366e-14 
 9.5980356468696151e-14  9.9797542131617165e-14  1.0376653914557468e-13  1.0789338512349932e-13 
 1.1218435779724728e-13  1.1664598456725521e-13  1.2128505243199070e-13  1.2610861831230174e-13 
 1.3112401978637211e-13  1.3633888625161105e-13  1.4176115053045827e-13  1.4739906093775763e-13 
 1.5326119382805760e-13  1.5935646664192450e-13  1.6569415147111512e-13  1.7228388916324417e-13 
 1.7913570398740183e-13  1.8626001888303185e-13  1.9366767131526599e-13  2.0136992976083434e-13 
 2.0937851084962946e-13  2.1770559718800125e-13  2.2636385589089389e-13  2.3536645785101692e-13 
 2.4472709777436297e-13  2.5446001501254936e-13  2.6458001522367455e-13  2.7510249289463980e-13 
 2.8604345475919702e-13  2.9741954414734628e-13  3.0924806630312429e-13  3.2154701470929563e-13 
 3.3433509845899439e-13  3.4763177071595191e-13  3.6145725830660545e-13  3.7583259248910423e-13 
 3.9077964094601688e-13  4.0632114104941048e-13  4.2248073444890170e-13  4.3928300303529719e-13 
 4.5675350633453161e-13  4.7491882038878574e-13  4.9380657818393221e-13  5.1344551168480859e-13 
 5.3386549554225881e-13  5.5509759253843410e-13  5.7717410083948391e-13  6.0012860312751758e-13 
 6.2399601768657752e-13  6.4881265152033722e-13  6.7461625558232637e-13  7.0144608220269988e-13 
 7.2934294479891014e-13  7.5834927996111425e-13  7.8850921200676457e-13  8.1986862010257786e-13 
 8.5247520805599708e-13  8.8637857688230784e-13  9.2163030025780505e-13  9.5828400297378591e-13 
 9.9639544251071933e-13  1.0360225938566796e-12  1.0772257376990751e-12  1.1200675521238309e-12 
 1.1646132079615177e-12  1.2109304679254728e-12  1.2590897896927216e-12  1.3091644330845113e-12 
 1.3612305715095020e-12  1.4153674078391424e-12  1.4716572948915091e-12  1.5301858607068849e-12 
 1.5910421388056576e-12  1.6543187036266825e-12  1.7201118113521500e-12  1.7885215463331793e-12 
 1.8596519733388900e-12  1.9336112958605534e-12  2.0105120207116461e-12  2.0904711291741993e-12 
 2.1736102549517958e-12  2.2600558691999283e-12  2.3499394729151899e-12  2.4433977969759701e-12 
 2.5405730101389637e-12  2.6416129353079142e-12  2.7466712744035729e-12  2.8559078421769738e-12 
 2.9694888093217033e-12  3.0875869552549945e-12  3.2103819309522065e-12  3.3380605322345022e-12 
 3.4708169839254882e-12  3.6088532353090645e-12  3.7523792673379877e-12  3.9016134120604556e-12 
 4.0567826847506620e-12  4.2181231292485814e-12  4.3858801770343138e-12  4.5603090205832859e-12 
 4.7416750015702194e-12  4.9302540145124717e-12  5.1263329264667937e-12  5.3302100134179643e-12 
 5.5421954140231817e-12  5.7626116014024790e-12  5.9917938736928826e-12  6.2300908641125969e-12 
 6.4778650713111631e-12  6.7354934108123980e-12  7.0033677883890360e-12  7.2818956962413158e-12 
 7.5715008328865232e-12  7.8726237477024543e-12  8.1857225111054254e-12  8.5112734113823088e-12 
 8.8497716792366966e-12  9.2017322411515273e-12  9.5676905027141398e-12  9.9482031630955747e-12 
 1.0343849061923092e-11  1.0755230059834374e-11  1.1182971954052928e-11  1.1627725430377642e-11 
 1.2090167053034769e-11  1.2571000293898211e-11  1.3070956602643950e-11  1.3590796519466650e-11 
 1.4131310832051272e-11  1.4693321778559851e-11  1.5277684298463659e-11  1.5885287333123656e-11 
 1.6517055178097894e-11  1.7173948889233274e-11  1.7856967744680798e-11  1.8567150765058647e-11 
 1.9305578294075751e-11  2.0073373642020692e-11  2.0871704794616250e-11  2.1701786189839502e-11 
 2.2564880565410694e-11  2.3462300879761681e-11  2.4395412309406542e-11  2.5365634325753169e-11 
 2.6374442854515627e-11  2.7423372521012594e-11  2.8514018984768025e-11  2.9648041366965944e-11 
 3.0827164774452763e-11  3.2053182924127095e-11  3.3327960871710163e-11  3.4653437849048429e-11 
 3.6031630214265364e-11  3.7464634519251171e-11  3.8954630699157212e-11  4.0503885388748492e-11 
 4.2114755370659602e-11  4.3789691160801068e-11  4.5531240736371156e-11  4.7342053412145646e-11 
 4.9224883870943327e-11  5.1182596354399947e-11  5.3218169020427194e-11  5.5334698473986713e-11 
 5.7535404478073344e-11  5.9823634852075567e-11  6.2202870564966858e-11  6.4676731031077457e-11 
 6.7248979616505077e-11  6.9923529364543127e-11  7.2704448948838706e-11  7.5595968863338953e-11 
 7.8602487858444886e-11  8.1728579633166756e-11  8.4978999793463914e-11  8.8358693087358448e-11 
 9.1872800927831926e-11  9.5526669214953430e-11  9.9325856469142354e-11  1.0327614228794253e-10 
 1.0738353613917786e-10  1.1165428650387025e-10  1.1609489038283360e-10  1.2071210318141231e-10 
 1.2551294898740636e-10  1.3050473125782541e-10  1.3569504393073522e-10  1.4109178297910886e-10 
 1.4670315842426499e-10  1.5253770682717901e-10  1.5860430427667711e-10  1.6491217989428086e-10 
 1.7147092987625855e-10  1.7829053209425347e-10  1.8538136127671382e-10  1.9275420479423026e-10 
 2.0042027907280880e-10  2.0839124666006125e-10  2.1667923397029117e-10  2.2529684973548591e-10 
 2.3425720419030059e-10  2.4357392902023858e-10  2.5326119810339374e-10  2.6333374907732931e-10 
 2.7380690576392552e-10  2.8469660148633304e-10  2.9601940331352986e-10  3.0779253726939110e-10 
 3.2003391454465061e-10  3.3276215875166173e-10  3.4599663426345155e-10  3.5975747568021608e-10 
 3.7406561846812061e-10  3.8894283081705695e-10  4.0441174676586354e-10  4.2049590064544860e-10 
 4.3721976289226326e-10  4.5460877728665836e-10  4.7268939967283462e-10  4.9148913821934507e-10 
 5.1103659528146749e-10  5.3136151092919423e-10  5.5249480820713756e-10  5.7446864019527555e-10 
 5.9731643894222038e-10  6.2107296634553601e-10  6.4577436705660751e-10  6.7145822349064574e-10 
 6.9816361302562211e-10  7.2593116747726802e-10  7.5480313494073802e-10  7.8482344409315427e-10 
 8.1603777105499225e-10  8.4849360891217631e-10  8.8224034000481100e-10  9.1732931109269205e-10 
 9.5381391151213298e-10  9.9174965444319994e-10  1.0311942614111993e-09  1.0722077501511938e-09 
 1.1148525259694587e-09  1.1591934767411146e-09  1.2052980716887375e-09  1.2532364640925072e-09 
 1.3030815980884600e-09  1.3549093197176505e-09  1.4087984923955178e-09  1.4648311169775032e-09 
 1.5230924566039725e-09  1.5836711665148174e-09  1.6466594290316748e-09  1.7121530939136105e-09 
 1.7802518243003201e-09  1.8510592484654375e-09  1.9246831176114100e-09  2.0012354699466414e-09 
 2.0808328012952029e-09  2.1635962424993842e-09  2.2496517438857706e-09  2.3391302670762897e-09 
 2.4321679844369410e-09  2.5289064864685699e-09  2.6294929974562222e-09  2.7340805997062296e-09 
 2.8428284667133134e-09  2.9559021056136773e-09  3.0734736092942403e-09  3.1957219185429893e-09 
 3.3228330946407257e-09  3.4550006028105537e-09  3.5924256069580225e-09  3.7353172761521524e-09 
 3.8838931033155583e-09  4.0383792366105875e-09  4.1990108240278566e-09  4.3660323717037655e-09 
 4.5396981165147033e-09  4.7202724135174367e-09  4.9080301388280346e-09  5.1032571085553234e-09 
 5.3062505144295000e-09  5.5173193767921790e-09  5.7367850156407575e-09  5.9649815404477455e-09 
 6.2022563595045084e-09  6.4489707095689140e-09  6.7055002066274812e-09  6.9722354186151944e-09 
 7.2495824609698067e-09  7.5379636159326378e-09  7.8378179765443660e-09  8.1496021163223025e-09 
 8.4737907856452199e-09  8.8108776359128414e-09  9.1613759725899684e-09  9.5258195382896206e-09 
 9.9047633270959643e-09  1.0298784431375868e-08  1.0708482922378080e-08  1.1134482765971168e-08 
 1.1577432774925526e-08  1.2038007599201199e-08  1.2516908755761995e-08  1.3014865699497448e-08 
 1.3532636936897612e-08  1.4071011184191918e-08  1.4630808571732071e-08  1.5212881896470446e-08 
 1.5818117924460051e-08  1.6447438745379480e-08  1.7101803181167036e-08  1.7782208250931962e-08 
 1.8489690694398159e-08  1.9225328556226453e-08  1.9990242833656242e-08  2.0785599190005474e-08 
 2.1612609736670468e-08  2.2472534886373600e-08  2.3366685280517700e-08  2.4296423793621495e-08 
 2.5263167617930397e-08  2.6268390431422255e-08  2.7313624652557314e-08  2.8400463785257450e-08 
 2.9530564857740646e-08  3.0705650958983100e-08  3.1927513876734535e-08  3.3198016841170800e-08 
 3.4519097378433768e-08  3.5892770278480367e-08  3.7321130681842566e-08  3.8806357290086002e-08 
 4.0350715704950179e-08  4.1956561901355055e-08  4.3626345839669627e-08  4.5362615222857757e-08 
 4.7168019404344735e-08  4.9045313452686016e-08  5.0997362379367256e-08  5.3027145536323156e-08 
 5.5137761190030545e-08  5.7332431279311472e-08  5.9614506364273430e-08  6.1987470774117183e-08 
 6.4454947961858861e-08  6.7020706074342170e-08  6.9688663746259960e-08  7.2462896127260690e-08 
 7.5347641151589624e-08  7.8347306060099150e-08  8.1466474184870283e-08  8.4709912007105370e-08 
 8.8082576499392460e-08  9.1589622763898126e-08  9.5236411978521778e-08  9.9028519663541148e-08 
 1.0297174428179557e-07  1.0707211618599342e-07  1.1133590692729088e-07  1.1576963893987628e-07 
 1.2038009561690386e-07  1.2517433179375790e-07  1.3015968465529141e-07  1.3534378508437577e-07 
 1.4073456946981931e-07  1.4634029199246413e-07  1.5216953740905678e-07  1.5823123435430484e-07 
 1.6453466918238554e-07  1.7108950037006313e-07  1.7790577350449918e-07  1.8499393687980968e-07 
 1.9236485772743211e-07  2.0002983910642161e-07  2.0800063748089350e-07  2.1628948101298063e-07 
 2.2490908860086817e-07  2.3387268969272274e-07  2.4319404490863607e-07  2.5288746750406661e-07 
 2.6296784570968581e-07  2.7345066598401981e-07  2.8435203721682975e-07  2.9568871592279244e-07 
 3.0747813246673665e-07  3.1973841836345443e-07  3.3248843469695514e-07  3.4574780170595680e-07 
 3.5953692958442577e-07  3.7387705054807728e-07  3.8879025221995518e-07  4.0429951239050301e-07 
 4.2042873520994578e-07  4.3720278887331439e-07  4.5464754486106971e-07  4.7278991880103192e-07 
 4.9165791302019390e-07  5.1128066085800183e-07  5.3168847281582786e-07  5.5291288462065129e-07 
 5.7498670728440133e-07  5.9794407924401510e-07  6.2182052067103964e-07  6.4665299004353678e-07 
 6.7247994307719213e-07  6.9934139411684612e-07  7.2727898009418984e-07  7.5633602716211480e-07 
 7.8655762012116745e-07  8.1799067475876289e-07  8.5068401322726232e-07  8.8468844259273584e-07 
 9.2005683669220825e-07  9.5684422144347394e-07  9.9510786375813499e-07  1.0349073642154277e-06 
 1.0763047536616220e-06  1.1193645939073894e-06  1.1641540827034730e-06  1.2107431631833668e-06 
 1.2592046379704727e-06  1.3096142881563982e-06  1.3620509973667321e-06  1.4165968811407690e-06 
 1.4733374218623154e-06  1.5323616094898865e-06  1.5937620883463723e-06  1.6576353102405931e-06 
 1.7240816942061462e-06  1.7932057931566018e-06  1.8651164677704235e-06  1.9399270679341065e-06 
 2.0177556220878599e-06  2.0987250348348732e-06  2.1829632931927316e-06  2.2706036818840657e-06 
 2.3617850080829171e-06  2.4566518360538111e-06  2.5553547321420773e-06  2.6580505205966357e-06 
 2.7649025507304110e-06  2.8760809759487252e-06  2.9917630452025472e-06  3.1121334074514956e-06 
 3.2373844297509666e-06  3.3677165296088825e-06  3.5033385222903546e-06  3.6444679837831798e-06 
 3.7913316301735865e-06  3.9441657142201890e-06  4.1032164399548094e-06  4.2687403961817333e-06 
 4.4410050097923478e-06  4.6202890198600075e-06  4.8068829735305472e-06  5.0010897447773936e-06 
 5.2032250771466881e-06  5.4136181516775853e-06  5.6326121812461072e-06  5.8605650326476690e-06 
 6.0978498778041306e-06  6.3448558755559604e-06  6.6019888855792222e-06  6.8696722160508885e-06 
 7.1483474067746210e-06  7.4384750495730911e-06  7.7405356478523558e-06  8.0550305173491813e-06 
 8.3824827301838786e-06  8.7234381044595394e-06  9.0784662417740096e-06  9.4481616151439903e-06 
 9.8331447099817165e-06  1.0234063220914290e-05  1.0651593307394659e-05  1.1086440911221548e-05 
 1.1539343139264701e-05  1.2011069714881643e-05  1.2502424501713816e-05  1.3014247103764228e-05 
 1.3547414545886222e-05  1.4102843039054949e-05  1.4681489835049967e-05  1.5284355175450843e-05 
 1.5912484340137891e-05  1.6566969800799396e-05  1.7248953485275166e-05  1.7959629158916038e-05 
 1.8700244929511027e-05  1.9472105882729934e-05  2.0276576855450838e-05  2.1115085354790957e-05 
 2.1989124631137657e-05  2.2900256913985563e-05  2.3850116819928778e-05  2.4840414942735502e-05 
 2.5872941636048861e-05  2.6949570999915162e-05  2.8072265083041626e-05  2.9243078313433027e-05 
 3.0464162170854370e-05  3.1737770115417249e-05  3.3066262787495281e-05  3.4452113495143535e-05 
 3.5897914006230597e-05  3.7406380663597094e-05  3.8980360842733362e-05  4.0622839772729333e-05 
 4.2336947742595309e-05  4.4125967716490276e-05  4.5993343382931517e-05  4.7942687664701687e-05 
 4.9977791717925471e-05  5.2102634450665680e-05  5.4321392593396537e-05  5.6638451355858683e-05 
 5.9058415707098582e-05  6.1586122317951804e-05  6.4226652207860003e-05  6.6985344140725489e-05 
 6.9867808817519796e-05  7.2879943916587516e-05  7.6027950036038360e-05  7.9318347596318592e-05 
 8.2757994765010362e-05  8.6354106470148731e-05  9.0114274572887103e-05  9.4046489275208199e-05 
 9.8159161843589481e-05  1.0246114873511798e-04  1.0696177721853462e-04  1.1167087258910138e-04 
 1.1659878708306142e-04  1.2175643060482673e-04  1.2715530338792909e-04  1.3280753071923492e-04 
 1.3872589986500017e-04  1.4492389934707111e-04  1.5141576072796926e-04  1.5821650307477854e-04 
 1.6534198028374575e-04  1.7280893146035626e-04  1.8063503456342854e-04  1.8883896353654448e-04 
 1.9744044916597008e-04  2.0646034392119678e-04  2.1592069105243441e-04  2.2584479823888848e-04 
 2.3625731610256001e-04  2.4718432192470408e-04  2.5865340892608859e-04  2.7069378149789842e-04 
 2.8333635679767964e-04  2.9661387315420594e-04  3.1056100575673341e-04  3.2521449013790877e-04 
 3.4061325399578049e-04  3.5679855793905912e-04  3.7381414578117932e-04  3.9170640505297268e-04 
 4.1052453845107350e-04  4.3032074698972191e-04  4.5115042567760904e-04  4.7307237259902520e-04 
 4.9614901234004694e-04  5.2044663476604565e-04  5.4603565022665534e-04  5.7299086233872983e-04 
 6.0139175957699739e-04  6.3132282698631235e-04  6.6287387941887585e-04  6.9614041779478698e-04 
 7.3122400998502772e-04  7.6823269802274246e-04  8.0728143346165868e-04  8.4849254281994151e-04 
 8.9199622517388403e-04  9.3793108409879057e-04  9.8644469629437497e-04  1.0376942193790883e-03 
 1.0918470414920986e-03  1.1490814755031992e-03  1.2095875007997038e-03  1.2735675557952865e-03 
 1.3412373844885739e-03  1.4128269405888094e-03  1.4885813529217199e-03  1.5687619560302260e-03 
 1.6536473900913089e-03  1.7435347744811946e-03  1.8387409595350956e-03  1.9396038612637789e-03 
 2.0464838840056850e-03  2.1597654362084358e-03  2.2798585447452598e-03  2.4072005733776361e-03 
 2.5422580511725813e-03  2.6855286168681069e-03  2.8375430853498983e-03  2.9988676425518239e-03 
 3.1701061752178968e-03  3.3519027420582242e-03  3.5449441928904792e-03  3.7499629423746544e-03 
 3.9677399049150843e-03  4.1991075972115091e-03  4.4449534147816567e-03  4.7062230885412722e-03 
 4.9839243272033354e-03  5.2791306508346379e-03  5.5929854203726438e-03  5.9267060672453954e-03 
 6.2815885264378693e-03  6.6590118753951924e-03  7.0604431800305109e-03  7.4874425477974753e-03 
 7.9416683862773962e-03  8.4248828640028951e-03  8.9389575682762325e-03  9.4858793525257994e-03 
 1.0067756363262285e-02  1.0686824233933093e-02  1.1345452429916723e-02  1.2046150725537504e-02 
 1.2791575790308771e-02  1.3584537857625117e-02  1.4428007444823946e-02  1.5325122088930353e-02 
 1.6279193057502361e-02  1.7293711988829227e-02  1.8372357410337357e-02  1.9519001078472251e-02 
 2.0737714077610006e-02  2.2032772609783213e-02  2.3408663401275783e-02  2.4870088646561529e-02 
 2.6421970404762674e-02  2.8069454358940947e-02  2.9817912844277521e-02  3.1672947047738688e-02 
 3.3640388279365566e-02  3.5726298214070223e-02  3.7936968002962680e-02  4.0278916154924849e-02 
 4.2758885092479569e-02  4.5383836290945050e-02  4.8160943916219272e-02  5.1097586883857196e-02 
 5.4201339269602487e-02  5.7479959008005142e-02  6.0941374819462373e-02  6.4593671304650754e-02 
 6.8445072135972534e-02  7.2503921254946174e-02  7.6778661948849636e-02  8.1277813626106629e-02 
 8.6009946035697574e-02  9.0983650581244233e-02  9.6207508268765063e-02  1.0169005370656892e-01 
 1.0743973446030927e-01  1.1346486497593215e-01  1.1977357424355599e-01  1.2637374641471544e-01 
 1.3327295373163725e-01  1.4047838140224864e-01  1.4799674446896618e-01  1.5583419726660380e-01 
 1.6399623671712715e-01  1.7248760141383490e-01  1.8131216912620440e-01  1.9047285590699567e-01 
 1.9997152028991463e-01  2.0980887602286166e-01  2.1998441632685473e-01  2.3049635182822786e-01 
 2.4134156321798453e-01  2.5251556858223378e-01  2.6401250448973040e-01  2.7582511951966132e-01 
 2.8794477901844623e-01  3.0036148036849819e-01  3.1306387868857444e-01  3.2603932337911329e-01 
 3.3927390603056651e-01  3.5275251976564920e-01  3.6645892902804816e-01  3.8037584722632772e-01 
 3.9448501772749711e-01  4.0876729192079098e-01  4.2320269709611680e-01  4.3777048742570418e-01 
 4.5244917388668227e-01  4.6721653339538127e-01  4.8204960280729159e-01  4.9692466821132714e-01 
 5.1181726253151849e-01  5.2670218395575008e-01  5.4155354562984392e-01  5.5634486781870718e-01 
 5.7104916385912985e-01  5.8563910004356601e-01  6.0008716421746588e-01  6.1436583228984498e-01 
 6.2844774186074803e-01  6.4230586195302508e-01  6.5591365330537421e-01  6.6924521600619491e-01 
 6.8227542267361152e-01  6.9498003645190587e-01  7.0733581381620914e-01  7.1932059262052850e-01 
 7.3091336606717483e-01  7.4209434338953006e-01  7.5284499808023730e-01  7.6314810450118553e-01 
 7.7298776370313771e-01  7.8234941927328983e-01  7.9121986402282185e-01  7.9958723832358813e-01 
 8.0744102090131376e-01  8.1477201288914658e-01  8.2157231593747237e-01  8.2783530516144577e-01 
 8.3355559768546938e-01  8.3872901751336482e-01  8.4335255741444715e-01  8.4742433846988574e-01 
 8.5094356787252423e-01  8.5391049551653586e-01  8.5632636985331090e-01  8.5819339343117440e-01 
 8.5951467847596497e-01  8.6029420280974611e-01  8.6053676635266241e-01  8.6024794839904106e-01 
 8.5943406580846138e-01  8.5810213221836285e-01  8.5625981834680254e-01  8.5391541341838628e-01 
 8.5107778773094356e-01  8.4775635635436597e-01  8.4396104392879756e-01  8.3970225053795233e-01 
 8.3499081862221136e-01  8.2983800088247139e-01  8.2425542913321603e-01  8.1825508406376002e-01 
 8.1184926586976069e-01  8.0505056572159062e-01  7.9787183804138062e-01  7.9032617356603874e-01 
 7.8242687317898729e-01  7.7418742249846817e-01  7.6562146721482527e-01  7.5674278917299331e-01 
 7.4756528319943671e-01  7.3810293467490762e-01  7.2836979785563927e-01  7.1837997494589523e-01 
 7.0814759592392773e-01  6.9768679912482867e-01  6.8701171257876303e-01  6.7613643545478685e-01 
 6.6507502283224085e-01  6.5384146735506532e-01  6.4244968417594728e-01  6.3091349598034685e-01 
 6.1924661870676345e-01  6.0746264794335103e-01  5.9557504597681310e-01  5.8359712946605369e-01 
 5.7154205770983180e-01  5.5942282147456768e-01  5.4725223234550491e-01  5.3504291256170855e-01 
 5.2280728529295695e-01  5.1055756531451746e-01  4.9830575003419608e-01  4.8606361082501792e-01 
 4.7384268461645035e-01  4.6165426569732537e-01  4.4950939768478781e-01  4.3741886561562671e-01 
 4.2539318811927301e-01  4.1344260963566620e-01  4.0157709264618030e-01  3.8980630989179299e-01 
 3.7813963655971339e-01  3.6658614242770432e-01  3.5515458396427485e-01  3.4385339639269985e-01 
 3.3269068573728167e-01  3.2167422088125303e-01  3.1081142567699227e-01  3.0010937116051078e-01 
 2.8957476793318182e-01  2.7921395878404132e-01  2.6903291163535042e-01  2.5903721290207971e-01 
 2.4923206136219109e-01  2.3962226263868786e-01  2.3021222439602371e-01  2.2100595235288731e-01 
 2.1200704720968339e-01  2.0321870258250918e-01  1.9464370402691478e-01  1.8628442922328864e-01 
 1.7814284938237049e-01  1.7022053191433406e-01  1.6251864438857530e-01  1.5503795979427165e-01 
 1.4777886309444474e-01  1.4074135904915216e-01  1.3392508126706923e-01  1.2732930242892285e-01 
 1.2095294561253545e-01  1.1479459663769087e-01  1.0885251733729076e-01  1.0312465965292461e-01 
 9.7608680447530072e-02  9.2301956922447900e-02  8.7201602524381125e-02  8.2304483228227698e-02 
 7.7607234082139931e-02  7.3106275904927950e-02  6.8797832031874492e-02  6.4677945011162280e-02 
 6.0742493161266432e-02  5.6987206908854247e-02  5.3407684836782786e-02  4.9999409382426079e-02 
 4.6757762137487620e-02  4.3678038711326250e-02  4.0755463130301831e-02  3.7985201755394576e-02 
 3.5362376709050812e-02  3.2882078809587482e-02  3.0539380017337150e-02  2.8329345400896280e-02 
 2.6247044634310334e-02  2.4287563036828989e-02  2.2446012166132304e-02  2.0717539973875019e-02 
 1.9097340529295726e-02  1.7580663312813525e-02  1.6162822077322489e-02  1.4839203270631887e-02 
 1.3605274008498648e-02  1.2456589584229382e-02  1.1388800498107709e-02  1.0397658988087637e-02 
 9.4790250423855069e-03  8.6288718747332370e-03  7.8432908444081850e-03  7.1184958051403197e-03 
 6.4508268700178700e-03  5.8367535831308553e-03  5.2728774928524616e-03  4.7559341261904399e-03 
 4.2827943683861275e-03  3.8504652567481765e-03  3.4560902024444234e-03  3.0969486585181354e-03 
 2.7704552566416075e-03  2.4741584389875457e-03  2.2057386150227836e-03  1.9630058759636717e-03 
 1.7438973020491488e-03  1.5464738996725633e-03  1.3689172067667245e-03  1.2095256056701121e-03 
 1.0667103830368815e-03  9.3899157621849579e-04  8.2499364497574099e-04  7.2344100641637819e-04 
 6.3315346973882478e-04  5.5304160574086263e-04  4.8210208417021007e-04  4.1941300989640817e-04 
 3.6412928661557636e-04  3.1547803440418930e-04  2.7275408495613718e-04  2.3531557580729358e-04 
 2.0257966230915824e-04  1.7401836359021735e-04  1.4915455626953199e-04  1.2755812728738170e-04 
 1.0884229491477964e-04  9.2660104816139435e-05  7.8701105982772055e-05  6.6688209441438282e-05 
 5.6374730881009353e-05  4.7541616737592695e-05  3.9994851837762563e-05  3.3563045421775801e-05 
 2.8095191252579452e-05  2.3458596558709032e-05  1.9536973755164579e-05  1.6228688228064712e-05 
 1.3445154950975396e-05  1.1109376311847175e-05  9.1546132613346002e-06  7.5231817352438385e-06 
 6.1653662454126928e-06  5.0384425637434665e-06  4.1058015326590295e-06  3.3361662113835440e-06 
 2.7028948009183567e-06  2.1833620715747410e-06  1.7584123361490806e-06  1.4118773605980044e-06 
 1.1301529743723587e-06  9.0182852708872260e-07  7.1736373037918218e-07  5.6880781773251858e-07 
 4.4955634583314096e-07  3.5414134395480859e-07  2.7805088971214610e-07  2.1757454691821207e-07 
 1.6967144206955977e-07  1.3185807828748484e-07  1.0211328811790073e-07  7.8798008637741659e-08 
 6.0587823456129233e-08  4.6416456420292431e-08  3.5428621435698939e-08  2.6940832341611159e-08 
 2.0408957011360201e-08  1.5401461699176783e-08  1.1577436183016243e-08  8.6686185909168593e-09 
 6.4647521342790965e-09  4.8017055147393768e-09  3.5518757298374645e-09  2.6164675614484698e-09 
 1.9193093356111356e-09  1.4019206860032970e-09  1.0195960666897997e-09  7.3830860454358076e-10 
 5.3227344627731700e-10  3.8203885250211656e-10  2.7299768189601175e-10  1.9423231951613088e-10 
 1.3762203713340016e-10  9.7157788430405020e-11  6.8418525089577653e-11  0.0000000000000000e+00 
 0.0000000000000000e+00  0.0000000000000000e+00  0.0000000000000000e+00  0.0000000000000000e+00 
 0.0000000000000000e+00  0.0000000000000000e+00  0.0000000000000000e+00  0.0000000000000000e+00 
 0.0000000000000000e+00  0.0000000000000000e+00  0.0000000000000000e+00  0.0000000000000000e+00 
 0.0000000000000000e+00  0.0000000000000000e+00  0.0000000000000000e+00  0.0000000000000000e+00 
 0.0000000000000000e+00  0.0000000000000000e+00  0.0000000000000000e+00  0.0000000000000000e+00 
 0.0000000000000000e+00  0.0000000000000000e+00  0.0000000000000000e+00  0.0000000000000000e+00 
 0.0000000000000000e+00  0.0000000000000000e+00  0.0000000000000000e+00  0.0000000000000000e+00 
 0.0000000000000000e+00  0.0000000000000000e+00  0.0000000000000000e+00  0.0000000000000000e+00 
 0.0000000000000000e+00  0.0000000000000000e+00  0.0000000000000000e+00  0.0000000000000000e+00 
 0.0000000000000000e+00  0.0000000000000000e+00  0.0000000000000000e+00  0.0000000000000000e+00 
 0.0000000000000000e+00  0.0000000000000000e+00  0.0000000000000000e+00  0.0000000000000000e+00 
 0.0000000000000000e+00  0.0000000000000000e+00  0.0000000000000000e+00  0.0000000000000000e+00 
 0.0000000000000000e+00  0.0000000000000000e+00  0.0000000000000000e+00  0.0000000000000000e+00 
 0.0000000000000000e+00  0.0000000000000000e+00  0.0000000000000000e+00  0.0000000000000000e+00 
 0.0000000000000000e+00  0.0000000000000000e+00  0.0000000000000000e+00  0.0000000000000000e+00 
 0.0000000000000000e+00  0.0000000000000000e+00  0.0000000000000000e+00  0.0000000000000000e+00 
 0.0000000000000000e+00  0.0000000000000000e+00  0.0000000000000000e+00  0.0000000000000000e+00 
 0.0000000000000000e+00  0.0000000000000000e+00  0.0000000000000000e+00  0.0000000000000000e+00 
 0.0000000000000000e+00  0.0000000000000000e+00  0.0000000000000000e+00  0.0000000000000000e+00 
 0.0000000000000000e+00  0.0000000000000000e+00  0.0000000000000000e+00  0.0000000000000000e+00 
 0.0000000000000000e+00  0.0000000000000000e+00  0.0000000000000000e+00  0.0000000000000000e+00 
 0.0000000000000000e+00  0.0000000000000000e+00  0.0000000000000000e+00  0.0000000000000000e+00 
 0.0000000000000000e+00  0.0000000000000000e+00  0.0000000000000000e+00  0.0000000000000000e+00 
 0.0000000000000000e+00  0.0000000000000000e+00  0.0000000000000000e+00  0.0000000000000000e+00 
 0.0000000000000000e+00  0.0000000000000000e+00  0.0000000000000000e+00  0.0000000000000000e+00 
 0.0000000000000000e+00  0.0000000000000000e+00  0.0000000000000000e+00  0.0000000000000000e+00 
 0.0000000000000000e+00  0.0000000000000000e+00  0.0000000000000000e+00  0.0000000000000000e+00 
 0.0000000000000000e+00  0.0000000000000000e+00  0.0000000000000000e+00  0.0000000000000000e+00 
 0.0000000000000000e+00  0.0000000000000000e+00  0.0000000000000000e+00  0.0000000000000000e+00 
 0.0000000000000000e+00  0.0000000000000000e+00  0.0000000000000000e+00  0.0000000000000000e+00 
 0.0000000000000000e+00  0.0000000000000000e+00  0.0000000000000000e+00  0.0000000000000000e+00 
 0.0000000000000000e+00  0.0000000000000000e+00  0.0000000000000000e+00  0.0000000000000000e+00 
 0.0000000000000000e+00  0.0000000000000000e+00  0.0000000000000000e+00 
</PP_PSWFC>


<PP_RHOATOM>
 2.0445300642238987e-16  2.0983849901912446e-16  2.1536585094522630e-16  2.2103879892846860e-16 
 2.2686117812656524e-16  2.3283692471996120e-16  2.3897007857292232e-16  2.4526478596472521e-16 
 2.5172530239278942e-16  2.5835599544965269e-16  2.6516134777573150e-16  2.7214596008986199e-16 
 2.7931455429967410e-16  2.8667197669389940e-16  2.9422320121877086e-16  3.0197333284073086e-16 
 3.0992761099772250e-16  3.1809141314139297e-16  3.2647025837261019e-16  3.3506981117274638e-16 
 3.4389588523325353e-16  3.5295444738611835e-16  3.6225162163785882e-16  3.7179369330978258e-16 
 3.8158711328731398e-16  3.9163850238125939e-16  4.0195465580395842e-16  4.1254254776335281e-16 
 4.2340933617807347e-16  4.3456236751673822e-16  4.4600918176473024e-16  4.5775751752181686e-16 
 4.6981531723405513e-16  4.8219073256352265e-16  4.9489212989950420e-16  5.0792809601485940e-16 
 5.2130744387140111e-16  5.3503921857820380e-16  5.4913270350687457e-16  5.6359742656792633e-16 
 5.7844316665248513e-16  5.9367996024370410e-16  6.0931810820233978e-16  6.2536818273108928e-16 
 6.4184103452239600e-16  6.5874780009455347e-16  6.7609990932107544e-16  6.9390909315841677e-16 
 7.1218739157727583e-16  7.3094716170284550e-16  7.5020108616950606e-16  7.6996218169562298e-16 
 7.9024380788424587e-16  8.1105967625564920e-16  8.3242385951784676e-16  8.5435080108132016e-16 
 8.7685532482442734e-16  8.9995264511607011e-16  9.2365837710241706e-16  9.4798854726462611e-16 
 9.7295960425472249e-16  9.9858843001694632e-16  1.0248923512021015e-15  1.0518891508826217e-15 
 1.0795970805762842e-15  1.1080348725866961e-15  1.1372217526689054e-15  1.1671774530287031e-15 
 1.1979222256644111e-15  1.2294768560601811e-15  1.2618626772400586e-15  1.2951015841923388e-15 
 1.3292160486739503e-15  1.3642291344048982e-15  1.4001645126630392e-15  1.4370464782897326e-15 
 1.4748999661172138e-15  1.5137505678287849e-15  1.5536245492632366e-15  1.5945488681752198e-15 
 1.6365511924635652e-15  1.6796599188798920e-15  1.7239041922301746e-15  1.7693139250822396e-15 
 1.8159198179925503e-15  1.8637533802659480e-15  1.9128469512624023e-15  1.9632337222652006e-15 
 2.0149477589253574e-15  2.0680240242974453e-15  2.1224984024824324e-15  2.1784077228935342e-15 
 2.2357897851614802e-15  2.2946833846960892e-15  2.3551283389214157e-15  2.4171655142022615e-15 
 2.4808368534802363e-15  2.5461854046381196e-15  2.6132553496116941e-15  2.6820920342687585e-15 
 2.7527419990755709e-15  2.8252530105714589e-15  2.8996740936729081e-15  2.9760555648290291e-15 
 3.0544490660508021e-15  3.1349075998371901e-15  3.2174855650217384e-15  3.3022387935639474e-15 
 3.3892245883103233e-15  3.4785017617507061e-15  3.5701306757960721e-15  3.6641732826048155e-15 
 3.7606931664851089e-15  3.8597555869017443e-15  3.9614275226166057e-15  4.0657777169926374e-15 
 4.1728767244920247e-15  4.2827969584000921e-15  4.3956127398072339e-15  4.5114003478820890e-15 
 4.6302380714700056e-15  4.7522062620517695e-15  4.8773873880984901e-15  5.0058660908594846e-15 
 5.1377292416209546e-15  5.2730660004742934e-15  5.4119678766338318e-15  5.5545287903449533e-15 
 5.7008451364244899e-15  5.8510158494765688e-15  6.0051424708280396e-15  6.1633292172289242e-15 
 6.3256830513644841e-15  6.4923137542267010e-15  6.6633339993943010e-15  6.8388594292716457e-15 
 7.0190087333383022e-15  7.2039037284622966e-15  7.3936694413316219e-15  7.5884341930598528e-15 
 7.7883296860234060e-15  7.9934910929892672e-15  8.2040571485937489e-15  8.4201702432344193e-15 
 8.6419765194388445e-15  8.8696259707757095e-15  9.1032725433753666e-15  9.3430742401289123e-15 
 9.5891932276364088e-15  9.8417959459770309e-15  1.0101053221375698e-14  1.0367140381842739e-14 
 1.0640237375865137e-14  1.0920528894230152e-14  1.1208204495064077e-14  1.1503458732171070e-14 
 1.1806491286759493e-14  1.2117507102645270e-14  1.2436716525024196e-14  1.2764335442907697e-14 
 1.3100585435318926e-14  1.3445693921348698e-14  1.3799894314173431e-14  1.4163426179139906e-14 
 1.4536535396024582e-14  1.4919474325577869e-14  1.5312501980466946e-14  1.5715884200733481e-14 
 1.6129893833885918e-14  1.6554810919749033e-14  1.6990922880196795e-14  1.7438524713898047e-14 
 1.7897919196207558e-14  1.8369417084339182e-14  1.8853337327960889e-14  1.9350007285355491e-14 
 1.9859762945294710e-14  2.0382949154778009e-14  2.0919919852791881e-14  2.1471038310249223e-14 
 2.2036677376272928e-14  2.2617219730991898e-14  2.3213058145022552e-14  2.3824595745813181e-14 
 2.4452246291033597e-14  2.5096434449197067e-14  2.5757596087706760e-14  2.6436178568524023e-14 
 2.7132641051661069e-14  2.7847454806706182e-14  2.8581103532594827e-14  2.9334083685846510e-14 
 3.0106904817491898e-14  3.0900089918922431e-14  3.1714175776898906e-14  3.2549713337963895e-14 
 3.3407268082507971e-14  3.4287420408746822e-14  3.5190766026874093e-14  3.6117916363660250e-14 
 3.7069498977777165e-14  3.8046157986133545e-14  3.9048554501515787e-14  4.0077367081835590e-14 
 4.1133292191294646e-14  4.2217044673784361e-14  4.3329358238847801e-14  4.4470985960540096e-14 
 4.5642700789531136e-14  4.6845296078806237e-14  4.8079586123327498e-14  4.9346406714030692e-14 
 5.0646615706540816e-14  5.1981093605001361e-14  5.3350744161422411e-14  5.4756494990963155e-14 
 5.6199298203577878e-14  5.7680131052463045e-14  5.9199996599758025e-14  6.0759924399962550e-14 
 6.2360971201547683e-14  6.4004221667249082e-14  6.5690789113546378e-14  6.7421816269844431e-14 
 6.9198476057888135e-14  7.1021972391955823e-14  7.2893541000392088e-14  7.4814450269056277e-14 
 7.6786002107277769e-14  7.8809532836927945e-14  8.0886414105232301e-14  8.3018053821966683e-14 
 8.5205897121697140e-14  8.7451427351742448e-14  8.9756167086557520e-14  9.2121679169253588e-14 
 9.4549567780993306e-14  9.7041479539018257e-14  9.9599104624087789e-14  1.0222417793812947e-13 
 1.0491848029292541e-13  1.0768383963068034e-13  1.1052213227734098e-13  1.1343528422956360e-13 
 1.1642527247624720e-13  1.1949412635558079e-13  1.2264392894857615e-13  1.2587681851008763e-13 
 1.2919498993834766e-13  1.3260069628407637e-13  1.3609625030025404e-13  1.3968402603367602e-13 
 1.4336646045944252e-13  1.4714605515956724e-13  1.5102537804692511e-13  1.5500706513579157e-13 
 1.5909382236026663e-13  1.6328842744190816e-13  1.6759373180794332e-13  1.7201266256146308e-13 
 1.7654822450504701e-13  1.8120350221930809e-13  1.8598166219788940e-13  1.9088595504049213e-13 
 1.9591971770555765e-13  2.0108637582427743e-13  2.0638944607765136e-13  2.1183253863836753e-13 
 2.1741935967932894e-13  2.2315371395070686e-13  2.2903950742745704e-13  2.3508075002929203e-13 
 2.4128155841516428e-13  2.4764615885437438e-13  2.5417889017648651e-13  2.6088420680229351e-13 
 2.6776668185814777e-13  2.7483101037604160e-13  2.8208201258189340e-13  2.8952463727457477e-13 
 2.9716396529828611e-13  3.0500521311097228e-13  3.1305373645155544e-13  3.2131503410884146e-13 
 3.2979475179505248e-13  3.3849868612702566e-13  3.4743278871821748e-13  3.5660317038474560e-13 
 3.6601610546881163e-13  3.7567803628294534e-13  3.8559557767862258e-13  3.9577552174292827e-13 
 4.0622484262704636e-13  4.1695070151048259e-13  4.2796045170505192e-13  4.3926164390279933e-13 
 4.5086203157214057e-13  4.6276957650667598e-13  4.7499245453125024e-13  4.8753906136999901e-13 
 5.0041801868127198e-13  5.1363818026448870e-13  5.2720863844414544e-13  5.4113873063637570e-13 
 5.5543804610363599e-13  5.7011643290328954e-13  5.8518400503604705e-13  6.0065114980042806e-13 
 6.1652853535962065e-13  6.3282711852733261e-13  6.4955815277945384e-13  6.6673319649858774e-13 
 6.8436412145876052e-13  7.0246312155785318e-13  7.2104272180559284e-13  7.4011578757519101e-13 
 7.5969553412702245e-13  7.7979553641301946e-13  8.0042973917078408e-13  8.2161246731672236e-13 
 8.4335843664786539e-13  8.6568276486236854e-13  8.8860098290905797e-13  9.1212904667676567e-13 
 9.3628334903459383e-13  9.6108073223465734e-13  9.8653850068927702e-13  1.0126744341350536e-12 
 1.0395068011967026e-12  1.0670543733640236e-12  1.0953364393958907e-12  1.1243728201656471e-12 
 1.1541838839628788e-12  1.1847905622670703e-12  1.2162143660092827e-12  1.2484774023385885e-12 
 1.2816023919106626e-12  1.3156126867165992e-12  1.3505322884707411e-12  1.3863858675770522e-12 
 1.4231987826943047e-12  1.4609971009212085e-12  1.4998076186234097e-12  1.5396578829251957e-12 
 1.5805762138896363e-12  1.6225917274118877e-12  1.6657343588513504e-12  1.7100348874294517e-12 
 1.7555249614209290e-12  1.8022371241675901e-12  1.8502048409447915e-12  1.8994625267120885e-12 
 1.9500455747808485e-12  2.0019903864329764e-12  2.0553344015263663e-12  2.1101161301241760e-12 
 2.1663751851866080e-12  2.2241523163655613e-12  2.2834894449441866e-12  2.3444296999652453e-12 
 2.4070174555940699e-12  2.4712983697638470e-12  2.5373194241531460e-12  2.6051289655476581e-12 
 2.6747767486405422e-12  2.7463139803280324e-12  2.8197933655596405e-12  2.8952691548047436e-12 
 2.9727971932002725e-12  3.0524349714470078e-12  3.1342416785251129e-12  3.2182782563026705e-12 
 3.3046074561143476e-12  3.3932938973908904e-12  3.4844041284237255e-12  3.5780066893529663e-12 
 3.6741721774710308e-12  3.7729733149384716e-12  3.8744850190130456e-12  3.9787844748977696e-12 
 4.0859512113186381e-12  4.1960671789479080e-12  4.3092168317942954e-12  4.4254872116871230e-12 
 4.5449680359876031e-12  4.6677517886665880e-12  4.7939338148949820e-12  4.9236124192998205e-12 
 5.0568889680465514e-12  5.1938679949156209e-12  5.3346573115497495e-12  5.4793681220567383e-12 
 5.6281151421616802e-12  5.7810167231119728e-12  5.9381949805483400e-12  6.0997759285657617e-12 
 6.2658896191989980e-12  6.4366702875792850e-12  6.6122565030206810e-12  6.7927913263076899e-12 
 6.9784224734691281e-12  7.1693024863375556e-12  7.3655889102086763e-12  7.5674444789306266e-12 
 7.7750373077702043e-12  7.9885410944201393e-12  8.2081353285303619e-12  8.4340055101655430e-12 
 8.6663433776116878e-12  8.9053471449762678e-12  9.1512217500491087e-12  9.4041791129154364e-12 
 9.6644384058375512e-12  9.9322263349485980e-12  1.0207777434329917e-11  1.0491334373073208e-11 
 1.0783148275960116e-11  1.1083479058424835e-11  1.1392595776500369e-11  1.1710776992485597e-11 
 1.2038311157109506e-11  1.2375497009009697e-11  1.2722643992385475e-11  1.3080072693731858e-11 
 1.3448115298608668e-11  1.3827116069449986e-11  1.4217431845473123e-11  1.4619432565802776e-11 
 1.5033501816986310e-11  1.5460037406139379e-11  1.5899451961027985e-11  1.6352173558463961e-11 
 1.6818646382465771e-11  1.7299331413715187e-11  1.7794707151924422e-11  1.8305270372816437e-11 
 1.8831536921514544e-11  1.9374042544236366e-11  1.9933343760291871e-11  2.0510018776495217e-11 
 2.1104668446218035e-11  2.1717917275434629e-11  2.2350414478241388e-11  2.3002835084470879e-11 
 2.3675881102168111e-11  2.4370282737852118e-11  2.5086799677650005e-11  2.5826222432565929e-11 
 2.6589373751331199e-11  2.7377110104478058e-11  2.8190323243486708e-11  2.9029941839075099e-11 
 2.9896933202933843e-11  3.0792305097455237e-11  3.1717107638268256e-11  3.2672435294667130e-11 
 3.3659428993318381e-11  3.4679278330940404e-11  3.5733223901984334e-11  3.6822559747694093e-11 
 3.7948635933298776e-11  3.9112861260486256e-11  4.0316706122727192e-11  4.1561705511466664e-11 
 4.2849462181674918e-11  4.4181649985752795e-11  4.5560017385323792e-11  4.6986391151014198e-11 
 4.8462680260927613e-11  4.9990880009164945e-11  5.1573076336423933e-11  5.3211450395441679e-11 
 5.4908283364817073e-11  5.6665961525574009e-11  5.8486981615704256e-11  6.0373956478860301e-11 
 6.2329621024364011e-11  6.4356838516754135e-11  6.6458607214222731e-11  6.8638067376491705e-11 
 7.0898508663959693e-11  7.3243377951312442e-11  7.5676287580244400e-11  7.8201024077488130e-11 
 8.0821557366000446e-11  8.3542050498918288e-11  8.6366869947776609e-11  8.9300596478488880e-11 
 9.2348036650733101e-11  9.5514234978672386e-11  9.8804486793383269e-11  1.0222435184997274e-10 
 1.0577966872515367e-10  1.0947657005402466e-10  1.1332149865798634e-10  1.1732122461912892e-10 
 1.2148286336006581e-10  1.2581389479208036e-10  1.3032218359862076e-10  1.3501600072563218e-10 
 1.3990404615498919e-10  1.4499547304239829e-10  1.5029991330661110e-10  1.5582750476264871e-10 
 1.6158891989801587e-10  1.6759539639761267e-10  1.7385876953026270e-10  1.8039150651751243e-10 
 1.8720674301364911e-10  1.9431832183478110e-10  2.0174083408437839e-10  2.0948966283290955e-10 
 2.1758102952021984e-10  2.2603204326110849e-10  2.3486075324724994e-10  2.4408620445224181e-10 
 2.5372849686121286e-10  2.6380884846217662e-10  2.7434966225325051e-10  2.8537459753808115e-10 
 2.9690864580140543e-10  3.0897821147777025e-10  3.2161119794913389e-10  3.3483709913150509e-10 
 3.4868709703709971e-10  3.6319416572685075e-10  3.7839318209865273e-10  3.9432104398965424e-10 
 4.1101679610642193e-10  4.2852176433507096e-10  4.4687969902477310e-10  4.6613692788261014e-10 
 4.8634251916584145e-10  5.0754845590958333e-10  5.2980982198398120e-10  5.5318500083553016e-10 
 5.7773588783265569e-10  6.0352811720643238e-10  6.3063130465378164e-10  6.5911930675324219e-10 
 6.8907049843287700e-10  7.2056806982672449e-10  7.5370034396100922e-10  7.8856111682483138e-10 
 8.2525002150294499e-10  8.6387291818141387e-10  9.0454231198124523e-10  9.4737780073151078e-10 
 9.9250655496312923e-10  1.0400638325884619e-09  1.0901935309315205e-09  1.1430487789902834e-09 
 1.1987925730478655e-09  1.2575984590047998e-09  1.3196512650822512e-09  1.3851478888476719e-09 
 1.4542981428422958e-09  1.5273256634465029e-09  1.6044688880069962e-09  1.6859821056718497e-09 
 1.7721365878389734e-09  1.8632218046238646e-09  1.9595467342975251e-09  2.0614412732392338e-09 
 2.1692577545961961e-09  2.2833725845478461e-09  2.4041880058424560e-09  2.5321339991137650e-09 
 2.6676703334022399e-09  2.8112887783068490e-09  2.9635154912869025e-09  3.1249135948286195e-09 
 3.2960859594975115e-09  3.4776782103262909e-09  3.6703819755508643e-09  3.8749383984173423e-09 
 4.0921419346554771e-09  4.3228444602647118e-09  4.5679597165059858e-09  4.8284681214552021e-09 
 5.1054219801748983e-09  5.3999511285229110e-09  5.7132690488678629e-09  6.0466794995502271e-09 
 6.4015837038477659e-09  6.7794881485111816e-09  7.1820130466703245e-09  7.6109015251179311e-09 
 8.0680296017059733e-09  8.5554170248945217e-09  9.0752390544353651e-09  9.6298392698207199e-09 
 1.0221743501556229e-08  1.0853674989611687e-08  1.1528570883655153e-08  1.2249600210991409e-08 
 1.3020183450618789e-08  1.3844013865619805e-08  1.4725080761353560e-08  1.5667694853783419e-08 
 1.6676515950930824e-08  1.7756583171095739e-08  1.8913347944350965e-08  2.0152710069150859e-08 
 2.1481057123975660e-08  2.2905307565074692e-08  2.4432957875925338e-08  2.6072134172385088e-08 
 2.7831648710120819e-08  2.9721061788249696e-08  3.1750749595772952e-08  3.3931978605954687e-08 
 3.6276987188989846e-08  3.8799075185911718e-08  4.1512702267591572e-08  4.4433595992884079e-08 
 4.7578870580594099e-08  5.0967157522248748e-08  5.4618749288086729e-08  5.8555757518829760e-08 
 6.2802287252504854e-08  6.7384628910889985e-08  7.2331469966388633e-08  7.7674128429918361e-08 
 8.3446810546710128e-08  8.9686895363109966e-08  9.6435249137377156e-08  1.0373657291539767e-07 
 1.1163978698308819e-07  1.2019845634661124e-07  1.2947126188568481e-07  1.3952252238142673e-07 
 1.5042277324649206e-07  1.6224940849103901e-07  1.7508739325386656e-07  1.8903005512596736e-07 
 2.0417996350746098e-07  2.2064990738409658e-07  2.3856398320412105e-07  2.5805880600072107e-07 
 2.7928485856282665e-07  3.0240799533446393e-07  3.2761111985065437e-07  3.5509605693099211e-07 
 3.8508564359057333e-07  4.1782606573779105e-07  4.5358947126232892e-07  4.9267689413487221e-07 
 5.3542152871205512e-07  5.8219239864566915e-07  6.3339847072586171e-07  6.8949327074940802e-07 
 7.5098006621753224e-07  8.1841768947295014e-07  8.9242708494397133e-07  9.7369867566026351e-07 
 1.0630006573546336e-06  1.1611883435151444e-06  1.2692147019877784e-06  1.3881422434815640e-06 
 1.5191564449773203e-06  1.6635809170290261e-06  1.8228945537840387e-06  1.9987509388261006e-06 
 2.1930003193480141e-06  2.4077145064823727e-06  2.6452151117787023e-06  2.9081055898802248e-06 
 3.1993076266607238e-06  3.5221024918677818e-06  3.8801780673499880e-06  4.2776823681588281e-06 
 4.7192844964597512e-06  5.2102441098744882e-06  5.7564906496450191e-06  6.3647137633886055e-06 
 7.0424665763074592e-06  7.7982837182969375e-06  8.6418163080126380e-06  9.5839864350610754e-06 
 1.0637164075574909e-05  1.1815369833247332e-05  1.3134507427576469e-05  1.4612630465403598e-05 
 1.6270248744527653e-05  1.8130680165171998e-05  2.0220455284872224e-05  2.2569782666432058e-05 
 2.5213084461895893e-05  2.8189613176938702e-05  3.1544162303211860e-05  3.5327885529853657e-05 
 3.9599241594542120e-05  4.4425084561133888e-05  4.9881922475169072e-05  5.6057371019638910e-05 
 6.3051833051301352e-05  7.0980439834404346e-05  7.9975295509562301e-05  9.0188072961863301e-05 
 1.0179301692273160e-04  1.1499041901302294e-04  1.3001063969079153e-04  1.4711876391127144e-04 
 1.6661999097133880e-04  1.8886587475864708e-04  2.1426154875228771e-04  2.4327409095849844e-04 
 2.7644220788126288e-04  3.1438744403399985e-04  3.5782715484788214e-04  4.0758951662130767e-04 
 4.6463088792413336e-04  5.3005588320235596e-04  6.0514057184618466e-04  6.9135927534263336e-04 
 7.9041550201358602e-04  9.0427763393471168e-04  1.0352200646276764e-03  1.1858705796777649e-03 
 1.3592648761532812e-03  1.5589092310981094e-03  1.7888524547972540e-03  2.0537684011387642e-03 
 2.3590504551041776e-03  2.7109195757494958e-03  3.1165476410735054e-03  3.5841980174303916e-03 
 4.1233854584582447e-03  4.7450576238621516e-03  5.4618006928223977e-03  6.2880717251584221e-03 
 7.2404605892156240e-03  8.3379844208186192e-03  9.6024176929766902e-03  1.1058661049986670e-02 
 1.2735152078935962e-02  1.4664321141228745e-02  1.6883095249621928e-02  1.9433452733587719e-02 
 2.2363031067337100e-02  2.5725789719166909e-02  2.9582729196043368e-02  3.4002666581904491e-02 
 3.9063066781756431e-02  4.4850927368538497e-02  5.1463713372327462e-02  5.9010336543982363e-02 
 6.7612171567861562e-02  7.7404099400719101e-02  8.8535565398283625e-02  1.0117163719326247e-01 
 1.1549404446014375e-01  1.3170217981129678e-01  1.5001403720021395e-01  1.7066706146122321e-01 
 1.9391888010257219e-01  2.2004788630994687e-01  2.4935364042723163e-01  2.8215705606544295e-01 
 3.1880033652878964e-01  3.5964662747873327e-01  4.0507935266960715e-01  4.5550120110708664e-01 
 5.1133273596396489e-01  5.7301059784523578e-01  6.4098527731480326e-01  7.1571843379931854e-01 
 7.9767973999535935e-01  8.8734323283788663e-01  9.8518315432419434e-01  1.0916692687352509e+00 
 1.2072616480857610e+00  1.3324049262420437e+00  1.4675220354279332e+00  1.6130074579678682e+00 
 1.7692200517504604e+00  1.9364755397865396e+00  2.1150387908357744e+00  2.3051160562369328e+00 
 2.5068473630090149e+00  2.7202992890333180e+00  2.9454583567383246e+00  3.1822252731232417e+00 
 3.4304102159373713e+00  3.6897293230082751e+00  3.9598024926975666e+00  4.2401525579826576e+00 
 4.5302058618336289e+00  4.8292942392005616e+00  5.1366583971895476e+00  5.4514526720960719e+00 
 5.7727511208073903e+00  6.0995548666987833e+00  6.4308005615322275e+00  6.7653697450187451e+00 
 7.1020987902825219e+00  7.4397890344146482e+00  7.7772166370881184e+00  8.1131417202518126e+00 
 8.4463164436448750e+00  8.7754918647410385e+00  9.0994236820458010e+00  9.4168772008972468e+00 
 9.7266320180653718e+00  1.0027486948004380e+01  1.0318265657186515e+01  1.0597823508875877e+01 
 1.0865053790467970e+01  1.1118896404646776e+01  1.1358346553594112e+01  1.1582462958585142e+01 
 1.1790375923054066e+01  1.1981294780853055e+01  1.2154514480787828e+01  1.2309421155968195e+01 
 1.2445496591699499e+01  1.2562321557260617e+01  1.2659578004639274e+01  1.2737050163165957e+01 
 1.2794624575923436e+01  1.2832289134654383e+01  1.2850131176957053e+01  1.2848334714482148e+01 
 1.2827176864643196e+01  1.2787023561562528e+01  1.2728324624793965e+01  1.2651608266784411e+01 
 1.2557475121943225e+01  1.2446591881427654e+01  1.2319684618176250e+01  1.2177531886215851e+01 
 1.2020957676761189e+01  1.1850824311099949e+01  1.1668025346736965e+01  1.1473478568828366e+01 
 1.1268119132883159e+01  1.1052892923647457e+01  1.0828750176280174e+01  1.0596639415620057e+01 
 1.0357501749815533e+01  1.0112265552422436e+01  9.8618415562726121e+00  9.6071183935257842e+00 
 9.3489585644249971e+00  9.0881948720066745e+00  8.8256273085775856e+00  8.5620203929071828e+00 
 8.2981009430815007e+00  8.0345563052585582e+00  7.7720329557775578e+00  7.5111355243633167e+00 
 7.2524261835553769e+00  6.9964243875868997e+00  6.7436069358872608e+00  6.4944083352937065e+00 
 6.2492214343639931e+00  6.0083983028298906e+00  5.7722513291818602e+00  5.5410545095939323e+00 
 5.3150449018548684e+00  5.0944242186387250e+00  4.8793605352994609e+00  4.6699900883861627e+00 
 4.4664191422261208e+00  4.2687259021916297e+00  4.0769624546332022e+00  3.8911567149073507e+00 
 3.7113143664296464e+00  3.5374207735774106e+00  3.3694428629463289e+00  3.2073309409993440e+00 
 3.0510204675751824e+00  2.9004337410023648e+00  2.7554815154038899e+00  2.6160645306812720e+00 
 2.4820749529894304e+00  2.3533977222276503e+00  2.2299118043171200e+00  2.1114913471993764e+00 
 1.9980067405613993e+00  1.8893255802667350e+00  1.7853135393455628e+00  1.6858351481691747e+00 
 1.5907544871064474e+00  1.4999357955331192e+00  1.4132440015418113e+00  1.3305451770853409e+00 
 1.2517069235817790e+00  1.1765986932218917e+00  1.1050920513541143e+00  1.0370608853837751e+00 
 9.7238156561761224e-01  9.1093306341799041e-01  8.5259703190982106e-01  7.9725785431257679e-01 
 7.4480266475621493e-01  6.9512134618895627e-01  6.4810650970237338e-01  6.0365345929073233e-01 
 5.6166014573210021e-01  5.2202711293362636e-01  4.8465743972736619e-01  4.4945667974073078e-01 
 4.1633280160160335e-01  3.8519613137661457e-01  3.5595929878619198e-01  3.2853718839579982e-01 
 3.0284689665309755e-01  2.7880769532919386e-01  2.5634100163207219e-01  2.3537035499593223e-01 
 2.1582140031239611e-01  1.9762187716167090e-01  1.8070161442709853e-01  1.6499252953367882e-01 
 1.5042863144235502e-01  1.3694602645635812e-01  1.2448292585281548e-01  1.1297965434044874e-01 
 1.0237865836018982e-01  9.2624513287034249e-02  8.3663928655139302e-02  7.5445750609665962e-02 
 6.7920960885942960e-02  6.1042671724625235e-02  5.4766116243982671e-02  4.9048633908170630e-02 
 4.3849650848587843e-02  3.9130654908430984e-02  3.4855165389639980e-02  3.0988697582719597e-02 
 2.7498722250096797e-02  2.4354620314779495e-02  2.1527633075896564e-02  1.8990808329535615e-02 
 1.6718942818745100e-02  1.4688521470176434e-02  1.2877653897176138e-02  1.1266008660925477e-02 
 9.8347457833624641e-03  8.5664479991394669e-03  7.4450512198954207e-03  6.4557746638333269e-03 
 5.5850510781802259e-03  4.8204574527328948e-03  4.1506465904622607e-03  3.5652798670761056e-03 
 3.0549614764262801e-03  2.6111744234644510e-03  2.2262184917370359e-03  1.8931503786639465e-03 
 1.6057261594375912e-03  1.3583462095639255e-03  1.1460026870039072e-03  9.6422964764378348e-04 
 8.0905584245303153e-04  6.7696022117136648e-04  5.6483014567419211e-04  4.6992229626750836e-04 
 3.8982623603032410e-04  3.2243058192571466e-04  2.6589171675575802e-04  2.1860496308678812e-04 
 1.7917812906566386e-04  1.4640732654873671e-04  1.1925495416939532e-04  9.6829731850153387e-05 
 7.8368668779209006e-05  6.3220843959147123e-05  5.0832877017752052e-05  4.0735966950011362e-05 
 3.2534377721750854e-05  2.5895252080254997e-05  2.0539638346276901e-05  1.6234619258645906e-05 
 1.2786436957828782e-05  1.0034513779653654e-05  7.8462745406173186e-06  6.1126822947893452e-06 
 4.7444060022416452e-06  3.6685450549995411e-06  2.8258420568246169e-06  2.1683215598702955e-06 
 1.6572985509288350e-06  1.2617062933244488e-06  9.5669862183098004e-07  7.2248692437140920e-07 
 5.4337680438649159e-07  4.0697379069412771e-07  3.0353144544946312e-07  2.2541882111006322e-07 
 1.6668744599141476e-07  1.2272089185958958e-07  8.9952516534954566e-08  6.5639202739098041e-08 
 4.7680856071919214e-08  3.4477105475645590e-08  2.4814094287514882e-08  1.7775483931034982e-08 
 1.2672839380230212e-08  8.9914483647421393e-09  6.3483659060419447e-09  4.4600915158926138e-09 
 3.1177957869278253e-09  2.1684319010575325e-09  1.5004097503591865e-09  1.0327881943762513e-09 
 7.0716516911017425e-10  4.8162515152801572e-10  3.2624676984581795e-10  2.1978683801442171e-10 
 1.4724641825428990e-10  9.8094386440933853e-11  6.4978284833416904e-11  4.2794195992806095e-11 
 2.8019569174315468e-11  1.8237484907309467e-11  1.1799452116055119e-11  7.5878401111323600e-12 
 4.8495281883084584e-12  3.0801429550081197e-12  1.9440029780748023e-12  1.2191068142320052e-12 
 7.5957208263426985e-13  4.7015575744111793e-13  2.8908308295110175e-13  1.7655249935125798e-13 
 1.0709197880185500e-13  6.4510883272626321e-14  3.8588915429994305e-14  2.2919531517065306e-14 
 1.3515184705710041e-14  7.9117086630119194e-15  4.5973658116141340e-15  2.6515277879271409e-15 
 1.5177105987725664e-15  8.6207325979006560e-16  4.8586767566602892e-16  2.7168528421110246e-16 
 1.5071053637899236e-16  8.2928750810151819e-17  4.5258987721458110e-17  2.4496085396107454e-17 
 1.3147242159390332e-17  6.9963805300196814e-18  3.6912167997873698e-18  1.9305634075666263e-18 
 1.0008925968694899e-18  5.1436343166284470e-19  2.6203739344324155e-19  1.3236838896990050e-19 
 6.6347869329836443e-20  2.8318907558062028e-20  1.4043283726299499e-20  0.0000000000000000e+00 
 0.0000000000000000e+00  0.0000000000000000e+00  0.0000000000000000e+00  0.0000000000000000e+00 
 0.0000000000000000e+00  0.0000000000000000e+00  0.0000000000000000e+00  0.0000000000000000e+00 
 0.0000000000000000e+00  0.0000000000000000e+00  0.0000000000000000e+00  0.0000000000000000e+00 
 0.0000000000000000e+00  0.0000000000000000e+00  0.0000000000000000e+00  0.0000000000000000e+00 
 0.0000000000000000e+00  0.0000000000000000e+00  0.0000000000000000e+00  0.0000000000000000e+00 
 0.0000000000000000e+00  0.0000000000000000e+00  0.0000000000000000e+00  0.0000000000000000e+00 
 0.0000000000000000e+00  0.0000000000000000e+00  0.0000000000000000e+00  0.0000000000000000e+00 
 0.0000000000000000e+00  0.0000000000000000e+00  0.0000000000000000e+00  0.0000000000000000e+00 
 0.0000000000000000e+00  0.0000000000000000e+00  0.0000000000000000e+00  0.0000000000000000e+00 
 0.0000000000000000e+00  0.0000000000000000e+00  0.0000000000000000e+00  0.0000000000000000e+00 
 0.0000000000000000e+00  0.0000000000000000e+00  0.0000000000000000e+00  0.0000000000000000e+00 
 0.0000000000000000e+00  0.0000000000000000e+00  0.0000000000000000e+00  0.0000000000000000e+00 
 0.0000000000000000e+00  0.0000000000000000e+00  0.0000000000000000e+00  0.0000000000000000e+00 
 0.0000000000000000e+00  0.0000000000000000e+00  0.0000000000000000e+00  0.0000000000000000e+00 
 0.0000000000000000e+00  0.0000000000000000e+00  0.0000000000000000e+00  0.0000000000000000e+00 
 0.0000000000000000e+00  0.0000000000000000e+00  0.0000000000000000e+00  0.0000000000000000e+00 
 0.0000000000000000e+00  0.0000000000000000e+00  0.0000000000000000e+00  0.0000000000000000e+00 
 0.0000000000000000e+00  0.0000000000000000e+00  0.0000000000000000e+00  0.0000000000000000e+00 
 0.0000000000000000e+00  0.0000000000000000e+00  0.0000000000000000e+00  0.0000000000000000e+00 
 0.0000000000000000e+00  0.0000000000000000e+00  0.0000000000000000e+00  0.0000000000000000e+00 
 0.0000000000000000e+00  0.0000000000000000e+00  0.0000000000000000e+00  0.0000000000000000e+00 
 0.0000000000000000e+00  0.0000000000000000e+00  0.0000000000000000e+00  0.0000000000000000e+00 
 0.0000000000000000e+00  0.0000000000000000e+00  0.0000000000000000e+00  0.0000000000000000e+00 
 0.0000000000000000e+00  0.0000000000000000e+00  0.0000000000000000e+00  0.0000000000000000e+00 
 0.0000000000000000e+00  0.0000000000000000e+00  0.0000000000000000e+00  0.0000000000000000e+00 
 0.0000000000000000e+00  0.0000000000000000e+00  0.0000000000000000e+00  0.0000000000000000e+00 
 0.0000000000000000e+00  0.0000000000000000e+00  0.0000000000000000e+00  0.0000000000000000e+00 
 0.0000000000000000e+00  0.0000000000000000e+00  0.0000000000000000e+00  0.0000000000000000e+00 
 0.0000000000000000e+00  0.0000000000000000e+00  0.0000000000000000e+00  0.0000000000000000e+00 
 0.0000000000000000e+00  0.0000000000000000e+00  0.0000000000000000e+00  0.0000000000000000e+00 
 0.0000000000000000e+00  0.0000000000000000e+00  0.0000000000000000e+00  0.0000000000000000e+00 
 0.0000000000000000e+00  0.0000000000000000e+00  0.0000000000000000e+00  0.0000000000000000e+00 
 0.0000000000000000e+00  0.0000000000000000e+00  0.0000000000000000e+00 
</PP_RHOATOM>


<PP_ADDINFO>
 5S  5  0   0.50  2.00 
 5P  5  1   0.50  2.00 
 5P  5  1   1.50  4.00 
 5D  5  2   1.50  2.00 
 5D  5  2   2.50  3.00 
  1   0.50 
  1   1.50 
  2   1.50 
  2   2.50 
 -6.32318481,  117.22343892,   76.00000000,    0.01300000 
</PP_ADDINFO>
