  <PP_INFO>

############################################################
#    Opium Parameter File                                  #
############################################################
#-----------------------------------------------------------
#Command line   : opium Rn Rn.log ae ps nl tc2 ke upf qmcpack rpt 
 
#Opium version  : 4.1 
#Compile Host   : py-garuda.cos.ncsu.edu 
#Compile OS     : Linux 5.15.0-113-generic x86_64 
#Compile Date   : Sat Jul 13 02:11:52 EDT 2024 
#-----------------------------------------------------------
#Execution Host : Gwaihir 
#Execution Date : Wed Feb  4 12:12:41 2026
 
#-----------------------------------------------------------
############################################################
[Atom]
Rn
16
100   2.00  -
200   2.00  -
210   6.00  -
300   2.00  -
310   6.00  -
320   10.00  -
400   2.00  -
410   6.00  -
420   10.00  -
430   14.00  -
500   2.00  -
510   6.00  -
520   10.00  -
600   2.00  -
610   3.50  -
700   0.10  -

[Pseudo]
3 -1 -1 -1
g

[KBdesign]
s

[Relativity]
frl

[XC]
pbe

[Gaussinfo]
8 5 3
2 2 2 2 4  4 4 2
2 2.0377625 35.7734923
2 0.2588937 -0.5821765
2 0.9290922 8.3648512
2 0.2410821 -0.2512474
2 0.6650092 2.9542750
2 0.6966871 4.2411224
2 0.7850605 -2.1500080
2 0.7512702 -2.6719706
1 1.9985017 8.0
3 2.1073198 15.9880136
2 1.9836377 -15.1076567
2 0.5569478 -0.2655759
2 1.67823029655543  -16.5424913359556
2 2.12739496305283  17.2877220701518
2 0.844905904505629 3.36148167339942
2 1.62609358132043  -0.857973497261721
2 1.51428831931828  -8.17597737132808
2 1.44602275582725  8.32712595662204
2 0.827482637030430 -2.19637418258487
2 0.752937223687086 2.04430103248513
2 1.24339085977438  2.26368781897693
2 0.881631905778549 -1.21501805411391

[Configs]
13

600   2.00 -
610   6.00 -
700   0.00 -

600   2.00 -
610   5.00 -
700   1.00 -

600   2.00 -
610   5.00 -
700   0.00 -

600   2.00 -
610   4.00 -
700   1.00 -

600   2.00 -
610   4.00 -
700   0.00 -

600   2.00 -
610   3.00 -
700   1.00 -

600   2.00 -
610   3.00 -
700   0.00 -

600   2.00 -
610   2.00 -
700   1.00 -

600   2.00 -
610   2.00 -
700   0.00 -

600   2.00 -
610   1.00 -
700   1.00 -

600   2.00 -
610   0.00 -
700   1.00 -

600   2.00 -
610   0.00 -
700   0.00 -

600   1.00 -
610   0.00 -
700   0.00 -
############################################################
  </PP_INFO>



<PP_HEADER>
   0         Version Number
   Rn        Element
   NC        Norm - Conserving pseudopotential
    F      Nonlinear Core Correction
SLA  PW   PBE  PBE     PBE  Exchange-Correlation functional
 8          Z valence
 0          Total energy
 0.000000   0.000000     Suggested cutoff for wfc and rho
 1           Max angular momentum component
 1190           Number of points in mesh
 3  2     Number of Wavefuncitons, Number of Projectors
 Wavefunctions         nl  l   occ
                      6S  0  2.000000
                      6P  1  1.166667
                      6P  1  2.333333
</PP_HEADER>
<PP_MESH>
  <PP_R>
 2.2655162567980828e-05  2.2951602365197768e-05  2.3251921037841462e-05  2.3556169340482374e-05 
 2.3864398691807786e-05  2.4176661183311711e-05  2.4493009588098389e-05  2.4813497369801189e-05 
 2.5138178691618006e-05  2.5467108425465006e-05  2.5800342161250095e-05  2.6137936216267740e-05 
 2.6479947644716752e-05  2.6826434247342559e-05  2.7177454581205703e-05  2.7533067969578010e-05 
 2.7893334511968549e-05  2.8258315094280440e-05  2.8628071399100788e-05  2.9002665916125168e-05 
 2.9382161952718520e-05  2.9766623644614269e-05  3.0156115966753402e-05  3.0550704744265418e-05 
 3.0950456663592818e-05  3.1355439283761453e-05  3.1765721047798012e-05  3.2181371294297149e-05 
 3.2602460269139795e-05  3.3029059137364932e-05  3.3461239995196646e-05  3.3899075882228529e-05 
 3.4342640793767621e-05  3.4792009693339638e-05  3.5247258525358181e-05  3.5708464227959389e-05 
 3.6175704746004723e-05  3.6649059044253815e-05  3.7128607120709684e-05  3.7614430020138634e-05 
 3.8106609847767003e-05  3.8605229783157021e-05  3.9110374094264582e-05  3.9622128151680546e-05 
 4.0140578443058641e-05  4.0665812587732078e-05  4.1197919351521403e-05  4.1736988661736173e-05 
 4.2283111622372845e-05  4.2836380529511596e-05  4.3396888886914604e-05  4.3964731421828250e-05 
 4.4540004100992499e-05  4.5122804146859344e-05  4.5713230054023643e-05  4.6311381605868972e-05 
 4.6917359891431270e-05  4.7531267322483075e-05  4.8153207650841425e-05  4.8783285985902037e-05 
 4.9421608812403194e-05  5.0068284008421858e-05  5.0723420863605307e-05  5.1387130097641361e-05 
 5.2059523878970245e-05  5.2740715843741386e-05  5.3430821115018117e-05  5.4129956322233815e-05 
 5.4838239620902553e-05  5.5555790712587494e-05  5.6282730865131010e-05  5.7019182933149081e-05 
 5.7765271378794016e-05  5.8521122292788917e-05  5.9286863415737230e-05  6.0062624159711270e-05 
 6.0848535630123199e-05  6.1644730647881981e-05  6.2451343771840668e-05  6.3268511321537050e-05 
 6.4096371400231930e-05  6.4935063918249031e-05  6.5784730616620039e-05  6.6645515091039289e-05 
 6.7517562816131683e-05  6.8401021170038336e-05  6.9296039459323784e-05  7.0202768944209199e-05 
 7.1121362864135494e-05  7.2051976463661561e-05  7.2994767018700655e-05  7.3949893863100514e-05 
 7.4917518415571147e-05  7.5897804206964946e-05  7.6890916907913911e-05  7.7897024356828067e-05 
 7.8916296588260964e-05  7.9948905861645719e-05  8.0995026690407215e-05  8.2054835871455382e-05 
 8.3128512515064277e-05  8.4216238075142128e-05  8.5318196379897463e-05  8.6434573662906559e-05 
 8.7565558594587340e-05  8.8711342314085184e-05  8.9872118461575601e-05  9.1048083210990371e-05 
 9.2239435303171027e-05  9.3446376079456720e-05  9.4669109515711249e-05  9.5907842256795573e-05 
 9.7162783651491303e-05  9.8434145787880899e-05  9.9722143529191426e-05  1.0102699455010674e-04 
 1.0234891937355503e-04  1.0368814140797778e-04  1.0504488698508631e-04  1.0641938539811228e-04 
 1.0781186894055899e-04  1.0922257294545932e-04  1.1065173582514773e-04  1.1209959911155251e-04 
 1.1356640749701496e-04  1.1505240887564341e-04  1.1655785438520773e-04  1.1808299844958211e-04 
 1.1962809882174343e-04  1.2119341662733207e-04  1.2277921640878290e-04  1.2438576617003312e-04 
 1.2601333742181622e-04  1.2766220522754756e-04  1.2933264824981072e-04  1.3102494879745237e-04 
 1.3273939287329278e-04  1.3447627022246140e-04  1.3623587438136417e-04  1.3801850272729190e-04 
 1.3982445652867796e-04  1.4165404099601323e-04  1.4350756533342701e-04  1.4538534279094403e-04 
 1.4728769071742392e-04  1.4921493061419399e-04  1.5116738818938383e-04  1.5314539341297070e-04 
 1.5514928057254533e-04  1.5717938832980689e-04  1.5923605977779832e-04  1.6131964249888945e-04 
 1.6343048862351922e-04  1.6556895488970675e-04  1.6773540270334077e-04  1.6993019819925813e-04 
 1.7215371230312152e-04  1.7440632079410658e-04  1.7668840436840978e-04  1.7900034870358674e-04 
 1.8134254452373288e-04  1.8371538766551621e-04  1.8611927914507535e-04  1.8855462522579197e-04 
 1.9102183748695014e-04  1.9352133289329387e-04  1.9605353386549607e-04  1.9861886835154794e-04 
 2.0121776989908330e-04  2.0385067772864943e-04  2.0651803680793595e-04  2.0922029792697596e-04 
 2.1195791777433020e-04  2.1473135901426871e-04  2.1754109036496196e-04  2.2038758667769571e-04 
 2.2327132901712177e-04  2.2619280474255911e-04  2.2915250759035879e-04  2.3215093775734625e-04 
 2.3518860198535642e-04  2.3826601364687375e-04  2.4138369283179363e-04  2.4454216643531853e-04 
 2.4774196824700509e-04  2.5098363904097512e-04  2.5426772666730849e-04  2.5759478614463055e-04 
 2.6096537975391141e-04  2.6438007713349353e-04  2.6783945537536136e-04  2.7134409912267157e-04 
 2.7489460066855865e-04  2.7849156005623442e-04  2.8213558518039653e-04  2.8582729188996413e-04 
 2.8956730409215783e-04  2.9335625385794122e-04  2.9719478152884286e-04  3.0108353582517519e-04 
 3.0502317395567010e-04  3.0901436172854803e-04  3.1305777366404211e-04  3.1715409310839322e-04 
 3.2130401234933706e-04  3.2550823273310277e-04  3.2976746478294126e-04  3.3408242831920652e-04 
 3.3845385258100629e-04  3.4288247634944527e-04  3.4736904807248061e-04  3.5191432599141219e-04 
 3.5651907826902637e-04  3.6118408311941799e-04  3.6591012893950995e-04  3.7069801444229407e-04 
 3.7554854879181610e-04  3.8046255173992581e-04  3.8544085376481738e-04  3.9048429621138162e-04 
 3.9559373143339591e-04  4.0077002293757382e-04  4.0601404552949961e-04  4.1132668546147274e-04 
 4.1670884058228608e-04  4.2216142048896504e-04  4.2768534668049174e-04  4.3328155271354013e-04 
 4.3895098436024898e-04  4.4469459976806039e-04  4.5051336962164887e-04  4.5640827730696878e-04 
 4.6238031907744960e-04  4.6843050422236415e-04  4.7455985523740232e-04  4.8076940799747389e-04 
 4.8706021193177502e-04  4.9343333020114273e-04  4.9988983987773366e-04  5.0643083212704987e-04 
 5.1305741239235012e-04  5.1977070058147100e-04  5.2657183125609465e-04  5.3346195382349246e-04 
 5.4044223273077739e-04  5.4751384766169899e-04  5.5467799373601096e-04  5.6193588171145163e-04 
 5.6928873818836334e-04  5.7673780581699117e-04  5.8428434350749406e-04  5.9192962664270272e-04 
 5.9967494729366378e-04  6.0752161443800186e-04  6.1547095418114047e-04  6.2352430998041588e-04 
 6.3168304287212606e-04  6.3994853170154834e-04  6.4832217335596771e-04  6.5680538300075394e-04 
 6.6539959431852745e-04  6.7410625975145608e-04  6.8292685074672083e-04  6.9186285800519414e-04 
 7.0091579173337047e-04  7.1008718189859718e-04  7.1937857848764094e-04  7.2879155176863979e-04 
 7.3832769255648210e-04  7.4798861248165762e-04  7.5777594426262764e-04  7.6769134198175827e-04 
 7.7773648136486367e-04  7.8791306006440744e-04  7.9822279794641154e-04  8.0866743738111603e-04 
 8.1924874353744457e-04  8.2996850468132282e-04  8.4082853247789691e-04  8.5183066229771313e-04 
 8.6297675352689702e-04  8.7426868988139549e-04  8.8570837972532749e-04  8.9729775639350471e-04 
 9.0903877851816815e-04  9.2093343036000108e-04  9.3298372214347606e-04  9.4519169039658448e-04 
 9.5755939829501760e-04  9.7008893601084644e-04  9.8278242106576708e-04  9.9564199868896466e-04 
 1.0086698421796648e-03  1.0218681532744253e-03  1.0352391625192343e-03  1.0487851296464787e-03 
 1.0625083439568430e-03  1.0764111247062087e-03  1.0904958214976123e-03  1.1047648146783350e-03 
 1.1192205157421851e-03  1.1338653677370487e-03  1.1487018456777692e-03  1.1637324569644307e-03 
 1.1789597418061153e-03  1.1943862736502032e-03  1.2100146596172926e-03  1.2258475409418093e-03 
 1.2418875934183812e-03  1.2581375278540531e-03  1.2746000905264226e-03  1.2912780636477614e-03 
 1.3081742658352235e-03  1.3252915525871929e-03  1.3426328167658718e-03  1.3602009890861801e-03 
 1.3779990386110538e-03  1.3960299732532239e-03  1.4142968402835602e-03  1.4328027268460687e-03 
 1.4515507604796222e-03  1.4705441096465280e-03  1.4897859842680013e-03  1.5092796362666508e-03 
 1.5290283601160609e-03  1.5490354933975657e-03  1.5693044173643092e-03  1.5898385575126837e-03 
 1.6106413841612489e-03  1.6317164130372180e-03  1.6530672058706335e-03  1.6746973709963007e-03 
 1.6966105639636083e-03  1.7188104881543230e-03  1.7413008954084710e-03  1.7640855866584075e-03 
 1.7871684125711838e-03  1.8105532741993198e-03  1.8342441236400859e-03  1.8582449647034254e-03 
 1.8825598535886030e-03  1.9071928995697115e-03  1.9321482656901509e-03  1.9574301694661915e-03 
 1.9830428835997450e-03  2.0089907367004610e-03  2.0352781140172737e-03  2.0619094581795119e-03 
 2.0888892699477270e-03  2.1162221089743210e-03  2.1439125945741455e-03  2.1719654065051721e-03 
 2.2003852857593862e-03  2.2291770353640231e-03  2.2583455211932935e-03  2.2878956727907288e-03 
 2.3178324842022769e-03  2.3481610148203200e-03  2.3788863902387187e-03  2.4100138031190473e-03 
 2.4415485140681691e-03  2.4734958525272901e-03  2.5058612176726476e-03  2.5386500793279838e-03 
 2.5718679788889615e-03  2.6055205302596635e-03  2.6396134208013706e-03  2.6741524122937282e-03 
 2.7091433419085052e-03  2.7445921231960880e-03  2.7805047470848853e-03  2.8168872828938105e-03 
 2.8537458793580091e-03  2.8910867656680131e-03  2.9289162525224783e-03  2.9672407331947236e-03 
 3.0060666846131994e-03  3.0454006684561040e-03  3.0852493322603256e-03  3.1256194105448920e-03 
 3.1665177259491166e-03  3.2079511903856449e-03  3.2499268062085858e-03  3.2924516673969130e-03 
 3.3355329607533835e-03  3.3791779671191124e-03  3.4233940626040554e-03  3.4681887198335874e-03 
 3.5135695092113959e-03  3.5595441001988960e-03  3.6061202626113897e-03  3.6533058679311826e-03 
 3.7011088906378745e-03  3.7495374095560807e-03  3.7985996092207643e-03  3.8483037812604409e-03 
 3.8986583257984851e-03  3.9496717528727738e-03  4.0013526838738982e-03  4.0537098530022044e-03 
 4.1067521087438932e-03  4.1604884153664222e-03  4.2149278544335146e-03  4.2700796263399413e-03 
 4.3259530518664222e-03  4.3825575737548566e-03  4.4399027583041650e-03  4.4979982969870248e-03 
 4.5568540080877483e-03  4.6164798383615943e-03  4.6768858647157881e-03  4.7380822959125603e-03 
 4.8000794742944358e-03  4.8628878775321205e-03  4.9265181203952515e-03  4.9909809565463195e-03 
 5.0562872803580610e-03  5.1224481287546362e-03  5.1894746830768966e-03  5.2573782709720452e-03 
 5.3261703683080567e-03  5.3958626011131128e-03  5.4664667475404329e-03  5.5379947398588054e-03 
 5.6104586664691789e-03  5.6838707739476193e-03  5.7582434691150191e-03  5.8335893211338809e-03 
 5.9099210636325171e-03  5.9872515968570897e-03  6.0655939898517685e-03  6.1449614826674347e-03 
 6.2253674885992729e-03  6.3068255964536636e-03  6.3893495728447073e-03  6.4729533645208328e-03 
 6.5576511007218235e-03  6.6434570955666745e-03  6.7303858504727471e-03  6.8184520566065190e-03 
 6.9076705973664327e-03  6.9980565508982254e-03  7.0896251926431710e-03  7.1823919979196677e-03 
 7.2763726445386010e-03  7.3715830154529377e-03  7.4680392014419613e-03  7.5657575038306840e-03 
 7.6647544372447883e-03  7.7650467324016431e-03  7.8666513389378367e-03  7.9695854282737025e-03 
 8.0738663965153334e-03  8.1795118673945559e-03  8.2865396952474038e-03  8.3949679680315088e-03 
 8.5048150103830475e-03  8.6160993867136215e-03  8.7288399043477030e-03  8.8430556167011006e-03 
 8.9587658265010486e-03  9.0759900890484066e-03  9.1947482155225451e-03  9.3150602763295079e-03 
 9.4369466044939045e-03  9.5604277990953088e-03  9.6855247287495009e-03  9.8122585351353396e-03 
 9.9406506365677400e-03  1.0070722731617431e-02  1.0202496802778058e-02  1.0335995120181284e-02 
 1.0471240245360501e-02  1.0608255035063737e-02  1.0747062645116573e-02  1.0887686534335481e-02 
 1.1030150468492440e-02  1.1174478524331399e-02  1.1320695093637310e-02  1.1468824887358396e-02 
 1.1618892939782357e-02  1.1770924612767244e-02  1.1924945600027612e-02  1.2080981931476912e-02 
 1.2239059977626537e-02  1.2399206454042529e-02  1.2561448425860563e-02  1.2725813312360033e-02 
 1.2892328891597955e-02  1.3061023305103550e-02  1.3231925062634216e-02  1.3405063046993716e-02 
 1.3580466518913509e-02  1.3758165121997817e-02  1.3938188887733512e-02  1.4120568240565469e-02 
 1.4305334003038399e-02  1.4492517401005925e-02  1.4682150068907811e-02  1.4874264055116293e-02 
 1.5068891827352266e-02  1.5266066278172482e-02  1.5465820730528422e-02  1.5668188943397974e-02 
 1.5873205117490762e-02  1.6080903901028169e-02  1.6291320395598961e-02  1.6504490162091524e-02 
 1.6720449226703779e-02  1.6939234087031622e-02  1.7160881718237188e-02  1.7385429579297694e-02 
 1.7612915619336103e-02  1.7843378284034626e-02  1.8076856522132114e-02  1.8313389792006515e-02 
 1.8553018068343401e-02  1.8795781848891833e-02  1.9041722161308488e-02  1.9290880570091547e-02 
 1.9543299183605114e-02  1.9799020661195651e-02  2.0058088220401515e-02  2.0320545644256817e-02 
 2.0586437288690862e-02  2.0855808090024408e-02  2.1128703572564030e-02  2.1405169856295755e-02 
 2.1685253664679566e-02  2.1969002332545715e-02  2.2256463814094411e-02  2.2547686691000223e-02 
 2.2842720180622497e-02  2.3141614144323173e-02  2.3444419095893523e-02  2.3751186210091084e-02 
 2.4061967331288250e-02  2.4376814982234221e-02  2.4695782372931359e-02  2.5018923409627879e-02 
 2.5346292703928078e-02  2.5677945582021872e-02  2.6013938094035027e-02  2.6354327023501760e-02 
 2.6699169896961333e-02  2.7048524993680080e-02  2.7402451355500866e-02  2.7761008796821210e-02 
 2.8124257914702109e-02  2.8492260099109049e-02  2.8865077543287068e-02  2.9242773254271586e-02 
 2.9625411063536701e-02  3.0013055637782924e-02  3.0405772489865882e-02  3.0803627989868309e-02 
 3.1206689376316637e-02  3.1615024767544499e-02  3.2028703173204900e-02  3.2447794505932985e-02 
 3.2872369593161456e-02  3.3302500189090596e-02  3.3738258986814894e-02  3.4179719630608250e-02 
 3.4626956728370219e-02  3.5080045864234792e-02  3.5539063611344325e-02  3.6004087544790585e-02 
 3.6475196254725117e-02  3.6952469359641200e-02  3.7435987519829517e-02  3.7925832451009986e-02 
 3.8422086938141795e-02  3.8924834849414433e-02  3.9434161150421490e-02  3.9950151918520090e-02 
 4.0472894357378150e-02  4.1002476811712006e-02  4.1538988782216901e-02  4.2082520940692807e-02 
 4.2633165145368197e-02  4.3191014456424176e-02  4.3756163151722080e-02  4.4328706742736528e-02 
 4.4908741990697110e-02  4.5496366922941268e-02  4.6091680849481162e-02  4.6694784379787274e-02 
 4.7305779439791674e-02  4.7924769289113774e-02  4.8551858538511274e-02  4.9187153167559908e-02 
 4.9830760542564037e-02  5.0482789434701900e-02  5.1143350038408149e-02  5.1812553989996998e-02 
 5.2490514386529054e-02  5.3177345804924940e-02  5.3873164321329124e-02  5.4578087530726911e-02 
 5.5292234566818532e-02  5.6015726122152804e-02  5.6748684468524560e-02  5.7491233477638862e-02 
 5.8243498642045581e-02  5.9005607096347959e-02  5.9777687638688688e-02  6.0559870752517078e-02 
 6.1352288628640943e-02  6.2155075187567438e-02  6.2968366102135714e-02  6.3792298820446056e-02 
 6.4627012589088886e-02  6.5472648476677830e-02  6.6329349397690557e-02  6.7197260136621764e-02 
 6.8076527372452053e-02  6.8967299703436999e-02  6.9869727672220674e-02  7.0783963791277660e-02 
 7.1710162568688188e-02  7.2648480534249812e-02  7.3599076265932137e-02  7.4562110416676333e-02 
 7.5537745741545981e-02  7.6526147125233090e-02  7.7527481609923996e-02  7.8541918423529894e-02 
 7.9569629008286721e-02  8.0610787049729363e-02  8.1665568506044894e-02  8.2734151637809894e-02 
 8.3816717038116967e-02  8.4913447663095373e-02  8.6024528862831059e-02  8.7150148412691281e-02 
 8.8290496545059008e-02  8.9445765981482780e-02  9.0616151965247166e-02  9.1801852294368727e-02 
 9.3003067355025323e-02  9.4220000155421216e-02  9.5452856360096108e-02  9.6701844324682873e-02 
 9.7967175131120257e-02  9.9249062623326140e-02  1.0054772344333775e-01  1.0186337706792459e-01 
 1.0319624584568059e-01  1.0454655503460156e-01  1.0591453284015430e-01  1.0730041045384385e-01 
 1.0870442209228549e-01  1.1012680503678772e-01  1.1156779967345365e-01  1.1302764953380653e-01 
 1.1450660133594760e-01  1.1600490502625099e-01  1.1752281382160673e-01  1.1906058425221398e-01 
 1.2061847620493558e-01  1.2219675296721946e-01  1.2379568127159488e-01  1.2541553134075090e-01 
 1.2705657693320460e-01  1.2871909538956694e-01  1.3040336767941405e-01  1.3210967844877161e-01 
 1.3383831606822080e-01  1.3558957268163366e-01  1.3736374425554604e-01  1.3916113062917657e-01 
 1.4098203556510042e-01  1.4282676680058565e-01  1.4469563609960193e-01  1.4658895930550842e-01 
 1.4850705639443346e-01  1.5045025152935032e-01  1.5241887311486177e-01  1.5441325385270130e-01 
 1.5643373079796041e-01  1.5848064541605181e-01  1.6055434364041776e-01  1.6265517593099385e-01 
 1.6478349733343731e-01  1.6693966753913078e-01  1.6912405094597094e-01  1.7133701671995255e-01 
 1.7357893885755851e-01  1.7585019624896606e-01  1.7815117274208020e-01  1.8048225720740474e-01 
 1.8284384360376291e-01  1.8523633104487580e-01  1.8766012386681569e-01  1.9011563169633830e-01 
 1.9260326952011120e-01  1.9512345775484743e-01  1.9767662231835689e-01  2.0026319470152767e-01 
 2.0288361204124877e-01  2.0553831719428747e-01  2.0822775881213310e-01  2.1095239141682015e-01 
 2.1371267547774375e-01  2.1650907748947998e-01  2.1934207005062445e-01  2.2221213194366282e-01 
 2.2511974821588601e-01  2.2806541026136451e-01  2.3104961590399531e-01  2.3407286948163392e-01 
 2.3713568193133100e-01  2.4023857087568032e-01  2.4338206071029869e-01  2.4656668269244994e-01 
 2.4979297503082876e-01  2.5306148297651926e-01  2.5637275891514355e-01  2.5972736246021655e-01 
 2.6312586054772152e-01  2.6656882753192407e-01  2.7005684528243912e-01  2.7359050328256829e-01 
 2.7717039872892413e-01  2.8079713663235750e-01  2.8447132992020607e-01  2.8819359953988050e-01 
 2.9196457456380620e-01  2.9578489229573673e-01  2.9965519837846183e-01  3.0357614690292128e-01 
 3.0754840051874788e-01  3.1157263054625717e-01  3.1564951708990174e-01  3.1977974915321089e-01 
 3.2396402475523367e-01  3.2820305104850578e-01  3.3249754443856011e-01  3.3684823070500092e-01 
 3.4125584512416224e-01  3.4572113259337145e-01  3.5024484775683862e-01  3.5482775513319337e-01 
 3.5947062924469003e-01  3.6417425474810389e-01  3.6893942656734080e-01  3.7376695002777843e-01 
 3.7865764099237237e-01  3.8361232599953571e-01  3.8863184240282744e-01  3.9371703851246670e-01 
 3.9886877373869911e-01  4.0408791873703975e-01  4.0937535555541515e-01  4.1473197778323245e-01 
 4.2015869070239731e-01  4.2565641144030930e-01  4.3122606912485800e-01  4.3686860504144864e-01 
 4.4258497279208076e-01  4.4837613845650987e-01  4.5424308075551673e-01  4.6018679121631362e-01 
 4.6620827434011608e-01  4.7230854777190195e-01  4.7848864247240136e-01  4.8474960289232782e-01 
 4.9109248714889409e-01  4.9751836720463605e-01  5.0402832904857753e-01  5.1062347287976440e-01 
 5.1730491329320105e-01  5.2407377946822020e-01  5.3093121535931564e-01  5.3787837988947451e-01 
 5.4491644714603726e-01  5.5204660657912163e-01  5.5927006320264205e-01  5.6658803779796063e-01 
 5.7400176712020146e-01  5.8151250410726529e-01  5.8912151809158031e-01  5.9683009501461803e-01 
 6.0463953764422662e-01  6.1255116579479751e-01  6.2056631655031891e-01  6.2868634449034499e-01 
 6.3691262191892450e-01  6.4524653909652185e-01  6.5368950447497565e-01  6.6224294493553004e-01 
 6.7090830602998075e-01  6.7968705222497716e-01  6.8858066714952071e-01  6.9759065384570096e-01 
 7.0671853502271442e-01  7.1596585331420526e-01  7.2533417153897406e-01  7.3482507296509858e-01 
 7.4444016157751025e-01  7.5418106234906668e-01  7.6404942151518418e-01  7.7404690685204924e-01 
 7.8417520795847884e-01  7.9443603654146611e-01  8.0483112670546364e-01  8.1536223524545026e-01 
 8.2603114194383453e-01  8.3683964987124115e-01  8.4778958569123530e-01  8.5888279996903261e-01 
 8.7012116748424895e-01  8.8150658754774247e-01  8.9304098432260259e-01  9.0472630714933722e-01 
 9.1656453087531609e-01  9.2855765618852526e-01  9.4070770995568898e-01  9.5301674556480898e-01 
 9.6548684327220125e-01  9.7812011055405879e-01  9.9091868246262038e-01  1.0038847219870006e+00 
 1.0170204204187392e+00  1.0303279977221358e+00  1.0438097029094275e+00  1.0574678144208789e+00 
 1.0713046405098434e+00  1.0853225196328626e+00  1.0995238208448723e+00  1.1139109441995780e+00 
 1.1284863211550693e+00  1.1432524149847423e+00  1.1582117211935987e+00  1.1733667679399933e+00 
 1.1887201164628980e+00  1.2042743615147518e+00  1.2200321317999911e+00  1.2359960904192990e+00 
 1.2521689353196783e+00  1.2685533997504095e+00  1.2851522527249786e+00  1.3019682994890445e+00 
 1.3190043819945350e+00  1.3362633793799403e+00  1.3537482084568970e+00  1.3714618242031347e+00 
 1.3894072202618746e+00  1.4075874294477622e+00  1.4260055242594205e+00  1.4446646173987101e+00 
 1.4635678622967816e+00  1.4827184536470142e+00  1.5021196279449294e+00  1.5217746640351546e+00 
 1.5416868836655724e+00  1.5618596520486938e+00  1.5822963784303885e+00  1.6030005166660564e+00 
 1.6239755658043369e+00  1.6452250706784577e+00  1.6667526225053177e+00  1.6885618594924137e+00 
 1.7106564674527045e+00  1.7330401804275226e+00  1.7557167813176362e+00  1.7786901025225685e+00 
 1.8019640265882815e+00  1.8255424868633365e+00  1.8494294681636394e+00  1.8736290074458828e+00 
 1.8981451944898060e+00  1.9229821725893641e+00  1.9481441392529737e+00  1.9736353469128880e+00 
 1.9994601036438742e+00  2.0256227738912842e+00  2.0521277792086603e+00  2.0789795990049851e+00 
 2.1061827713017141e+00  2.1337418934997121e+00  2.1616616231562236e+00  2.1899466787720128e+00 
 2.2186018405887986e+00  2.2476319513971315e+00  2.2770419173548317e+00  2.3068367088161450e+00 
 2.3370213611717428e+00  2.3676009756997156e+00  2.3985807204277045e+00  2.4299658310062964e+00 
 2.4617616115938823e+00  2.4939734357530581e+00  2.5266067473587741e+00  2.5596670615183621e+00 
 2.5931599655036019e+00  2.6270911196949838e+00  2.6614662585383249e+00  2.6962911915139061e+00 
 2.7315718041182873e+00  2.7673140588589691e+00  2.8035239962620735e+00  2.8402077358932050e+00 
 2.8773714773916708e+00  2.9150215015182388e+00  2.9531641712165961e+00  2.9918059326887056e+00 
 3.0309533164842328e+00  3.0706129386042025e+00  3.1107915016191519e+00  3.1514957958018597e+00 
 3.1927327002749233e+00  3.2345091841733455e+00  3.2768323078223376e+00  3.3197092239305301e+00 
 3.3631471787987954e+00  3.4071535135448938e+00  3.4517356653441365e+00  3.4969011686862870e+00 
 3.5426576566489079e+00  3.5890128621873707e+00  3.6359746194417415e+00  3.6835508650607682e+00 
 3.7317496395431990e+00  3.7805790885966366e+00  3.8300474645141986e+00  3.8801631275691397e+00 
 3.9309345474278032e+00  3.9823703045809880e+00  4.0344790917940720e+00  4.0872697155761211e+00 
 4.1407510976681987e+00  4.1949322765511710e+00  4.2498224089732251e+00  4.3054307714973836e+00 
 4.3617667620692666e+00  4.4188399016053674e+00  4.4766598356021055e+00  4.5352363357659433e+00 
 4.5945793016648269e+00  4.6546987624012353e+00  4.7156048783071229e+00  4.7773079426610403e+00 
 4.8398183834277315e+00  4.9031467650204483e+00  4.9673037900864179e+00  5.0323003013155754e+00 
 5.0981472832730166e+00  5.1648558642554150e+00  5.2324373181717290e+00  5.3009030664485213e+00 
 5.3702646799602052e+00  5.4405338809845514e+00  5.5117225451837815e+00  5.5838427036115812e+00 
 5.6569065447463762e+00  5.7309264165512186e+00  5.8059148285606170e+00  5.8818844539946813e+00 
 5.9588481319009245e+00  6.0368188693240947e+00  6.1158098435044028e+00  6.1958344041044731e+00 
 6.2769060754655222e+00  6.3590385588929674e+00  6.4422457349719933e+00  6.5265416659133964e+00 
 6.6119405979301407e+00  6.6984569636449933e+00  6.7861053845296784e+00  6.8749006733759348e+00 
 6.9648578367989211e+00  7.0559920777733609e+00  7.1483187982028893e+00  7.2418536015230046e+00 
 7.3366122953380870e+00  7.4326108940929307e+00  7.5298656217792086e+00  7.6283929146773763e+00 
 7.7282094241344499e+00  7.8293320193780760e+00  7.9317777903675433e+00  8.0355640506819839e+00 
 8.1407083404464071e+00  8.2472284292960403e+00  8.3551423193794232e+00  8.4644682484008307e+00 
 8.5752246927024718e+00  8.6874303703870428e+00  8.8011042444811327e+00  8.9162655261400214e+00 
 9.0329336778944018e+00  9.1511284169396028e+00  9.2708697184678375e+00  9.3921778190440595e+00 
 9.5150732200259913e+00  9.6395766910289016e+00  9.7657092734357391e+00  9.8934922839531030e+00 
 1.0022947318213925e+01  1.0154096254427108e+01  1.0286961257075021e+01  1.0421564780659342e+01 
 1.0557929573495928e+01  1.0696078681559326e+01  1.0836035452377612e+01  1.0977823538978161e+01 
 1.1121466903885080e+01  1.1266989823168922e+01  1.1414416890549406e+01  1.1563773021551809e+01 
 1.1715083457717753e+01  1.1868373770871083e+01  1.2023669867439567e+01  1.2180997992833147e+01 
 1.2340384735879493e+01  1.2501857033317487e+01  1.2665442174349744e+01  1.2831167805254442e+01 
 1.2999061934057647e+01  1.3169152935266734e+01  1.3341469554665741e+01  1.3516040914173471e+01 
 1.3692896516765185e+01  1.3872066251458650e+01  1.4053580398365469e+01  1.4237469633808495e+01 
 1.4423765035506188e+01  1.4612498087824838e+01  1.4803700687099488e+01  1.4997405147024498e+01 
 1.5193644204114634e+01  1.5392451023237630e+01  1.5593859203219052e+01  1.5797902782520714e+01 
 1.6004616244993155e+01  1.6214034525703536e+01  1.6426193016839729e+01  1.6641127573691698e+01 
 1.6858874520711119e+01  1.7079470657650287e+01  1.7302953265781390e+01  1.7529360114197114e+01 
 1.7758729466193714e+01  1.7991100085737589e+01  1.8226511244016514e+01  1.8465002726076538e+01 
 1.8706614837545764e+01  1.8951388411446086e+01  1.9199364815094082e+01  1.9450585957092208e+01 
 1.9705094294411325e+01  1.9962932839566225e+01  2.0224145167884725e+01  2.0488775424872021e+01 
 2.0756868333671385e+01  2.1028469202622496e+01  2.1303623932918644e+01  2.1582379026364137e+01 
 2.1864781593233236e+01  2.2150879360231887e+01  2.2440720678563654e+01  2.2734354532101182e+01 
 2.3031830545664601e+01  2.3333198993408221e+01  2.3638510807316997e+01  2.3947817585814153e+01 
 2.4261171602481433e+01  2.4578625814893517e+01  2.4900233873567775e+01  2.5226050131031634e+01 
 2.5556129651008078e+01  2.5890528217721599e+01  2.6229302345325884e+01  2.6572509287454796e+01 
 2.6920207046898440e+01  2.7272454385405702e+01  2.7629310833615179e+01  2.7990836701115970e+01 
 2.8357093086640145e+01  2.8728141888388588e+01  2.9104045814491929e+01  2.9484868393608362e+01 
 2.9870673985660154e+01  3.0261527792710616e+01  3.0657495869983414e+01  3.1058645137026090e+01 
 3.1465043389019456e+01  3.1876759308235414e+01  3.2293862475644232e+01  3.2716423382673952e+01 
 3.3144513443123600e+01  3.3578205005232277e+01  3.4017571363906221e+01  3.4462686773105773e+01 
 3.4913626458394539e+01  3.5370466629652491e+01  3.5833284493956107e+01  3.6302158268625760e+01 
 3.6777167194445589e+01  3.7258391549054366e+01  3.7745912660513639e+01  3.8239812921051325e+01 
 3.8740175800987267e+01  3.9247085862838937e+01  3.9760628775613156e+01  4.0280891329284728e+01 
 4.0807961449463235e+01  4.1341928212253734e+01  4.1882881859309741e+01  4.2430913813085446e+01 
 4.2986116692285080e+01  4.3548584327516984e+01  4.4118411777149923e+01  4.4695695343379441e+01 
 4.5280532588501920e+01  4.5873022351404060e+01  4.6473264764265657e+01  4.7081361269483445e+01 
 4.7697414636813804e+01  4.8321528980742407e+01  4.8953809778078508e+01  4.9594363885782080e+01 
 5.0243299559021729e+01  5.0900726469470584e+01  5.1566755723841631e+01  5.2241499882663682e+01 
 5.2925072979305909e+01  5.3617590539248248e+01  5.4319169599606951e+01  5.5029928728912687e+01 
 5.5749988047150353e+01  5.6479469246058152e+01  5.7218495609695339e+01  5.7967192035275922e+01 
 5.8725685054278188e+01  5.9494102853827236e+01  6.0272575298360515e+01  6.1061233951573548e+01 
 6.1860212098656270e+01  6.2669644768816958e+01  6.3489668758103157e+01  6.4320422652521273e+01 
 6.5162046851456253e+01  6.6014683591401351e+01  6.6878476969994466e+01  6.7753572970373014e+01 
 6.8640119485843371e+01  6.9538266344877201e+01  7.0448165336430861e+01  7.1369970235600093e+01 
 7.2303836829606311e+01  7.3249922944127107e+01  7.4208388469967119e+01  7.5179395390081950e+01 
 7.6163107806951686e+01  7.7159691970316615e+01  7.8169316305271792e+01  7.9192151440733369e+01 
 8.0228370238273428e+01  8.1278147821334741e+01  8.2341661604828019e+01  8.3419091325113328e+01 
 8.4510619070378382e+01  8.5616429311409476e+01  8.6736708932769886e+01  8.7871647264381394e+01 
 8.9021436113523905e+01  9.0186269797248926e+01  9.1366345175222051e+01  9.2561861682990198e+01 
 9.3773021365689274e+01  9.5000028912187688e+01  9.6243091689681876e+01  9.7502419778739110e+01 
 9.8778226008804523e+01  1.0007072599416715e+02  1.0138013817040043e+02  1.0270668383127942e+02 
 1.0405058716617737e+02  1.0541207529795724e+02  1.0679137832135304e+02  1.0818872934185933e+02 
 1.0960436451512365e+02  1.1103852308686038e+02  1.1249144743328087e+02  1.1396338310205846e+02 
 1.1545457885382379e+02  1.1696528670420892e+02 
  </PP_R>
  <PP_RAB>
 2.9451711338375074e-07  2.9837083074757099e-07  3.0227497349193901e-07  3.0623020142627086e-07 
 3.1023718299350120e-07  3.1429659538305221e-07  3.1840912464527902e-07  3.2257546580741545e-07 
 3.2679632299103404e-07  3.3107240953104505e-07  3.3540444809625120e-07  3.3979317081148060e-07 
 3.4423931938131775e-07  3.4874364521545323e-07  3.5330690955567414e-07  3.5792988360451410e-07 
 3.6261334865559112e-07  3.6735809622564572e-07  3.7216492818831025e-07  3.7703465690962718e-07 
 3.8196810538534073e-07  3.8696610737998548e-07  3.9202950756779420e-07  3.9715916167545040e-07 
 4.0235593662670664e-07  4.0762071068889886e-07  4.1295437362137414e-07  4.1835782682586294e-07 
 4.2383198349881733e-07  4.2937776878574408e-07  4.3499611993755639e-07  4.4068798646897087e-07 
 4.4645433031897907e-07  4.5229612601341528e-07  4.5821436082965634e-07  4.6421003496347204e-07 
 4.7028416169806140e-07  4.7643776757529959e-07  4.8267189256922589e-07  4.8898759026180219e-07 
 4.9538592802097099e-07  5.0186798718104126e-07  5.0843486322543953e-07  5.1508766597184705e-07 
 5.2182751975976230e-07  5.2865556364051697e-07  5.3557295156977824e-07  5.4258085260257024e-07 
 5.4968045109084696e-07  5.5687294688365074e-07  5.6415955552988980e-07  5.7154150848376726e-07 
 5.7902005331290243e-07  5.8659645390917147e-07  5.9427199070230732e-07  6.0204796087629659e-07 
 6.0992567858860653e-07  6.1790647519227990e-07  6.2599169946093847e-07  6.3418271781672641e-07 
 6.4248091456124149e-07  6.5088769210948411e-07  6.5940447122686899e-07  6.6803269126933763e-07 
 6.7677381042661311e-07  6.8562930596863803e-07  6.9460067449523549e-07  7.0368943218903957e-07 
 7.1289711507173321e-07  7.2222527926363737e-07  7.3167550124670309e-07  7.4124937813093802e-07 
 7.5094852792432220e-07  7.6077458980625585e-07  7.7072922440458392e-07  7.8081411407624647e-07 
 7.9103096319160151e-07  8.0138149842246570e-07  8.1186746903392860e-07  8.2249064717998160e-07 
 8.3325282820301507e-07  8.4415583093723737e-07  8.5520149801606050e-07  8.6639169618351067e-07 
 8.7772831660971188e-07  8.8921327521049836e-07  9.0084851297120917e-07  9.1263599627471955e-07 
 9.2457771723376136e-07  9.3667569402760024e-07  9.4893197124310848e-07  9.6134862022030669e-07 
 9.7392773940242476e-07  9.8667145469054426e-07  9.9958191980288081e-07  1.0126613166387648e-06 
 1.0259118556473925e-06  1.0393357762013943e-06  1.0529353469752937e-06  1.0667128663289200e-06 
 1.0806706626958356e-06  1.0948110949768476e-06  1.1091365529386670e-06  1.1236494576177852e-06 
 1.1383522617296354e-06  1.1532474500831073e-06  1.1683375400004827e-06  1.1836250817428748e-06 
 1.1991126589412233e-06  1.2148028890329373e-06  1.2306984237042461e-06  1.2468019493383425e-06 
 1.2631161874693869e-06  1.2796438952424516e-06  1.2963878658794884e-06  1.3133509291513876e-06 
 1.3305359518562153e-06  1.3479458383037110e-06  1.3655835308061220e-06  1.3834520101754596e-06 
 1.4015542962272668e-06  1.4198934482909712e-06  1.4384725657269205e-06  1.4572947884501825e-06 
 1.4763632974611945e-06  1.4956813153833642e-06  1.5152521070077003e-06  1.5350789798445675e-06 
 1.5551652846826645e-06  1.5755144161553168e-06  1.5961298133141775e-06  1.6170149602104305e-06 
 1.6381733864836108e-06  1.6596086679581183e-06  1.6813244272475393e-06  1.7033243343668807e-06 
 1.7256121073528060e-06  1.7481915128919981e-06  1.7710663669577343e-06  1.7942405354547947e-06 
 1.8177179348728135e-06  1.8415025329481720e-06  1.8655983493345511e-06  1.8900094562822724e-06 
 1.9147399793265108e-06  1.9397940979845218e-06  1.9651760464619900e-06  1.9908901143686188e-06 
 2.0169406474430892e-06  2.0433320482874895e-06  2.0700687771113781e-06  2.0971553524855627e-06 
 2.1245963521057498e-06  2.1523964135661877e-06  2.1805602351434300e-06  2.2090925765903556e-06 
 2.2379982599405798e-06  2.2672821703233855e-06  2.2969492567893271e-06  2.3270045331466275e-06 
 2.3574530788085274e-06  2.3883000396517104e-06  2.4195506288859797e-06  2.4512101279352954e-06 
 2.4832838873303519e-06  2.5157773276128200e-06  2.5486959402514489e-06  2.5820452885701230e-06 
 2.6158310086880828e-06  2.6500588104724425e-06  2.6847344785031670e-06  2.7198638730506874e-06 
 2.7554529310662924e-06  2.7915076671854933e-06  2.8280341747445055e-06  2.8650386268100441e-06 
 2.9025272772225828e-06  2.9405064616532683e-06  2.9789825986746642e-06  3.0179621908455011e-06 
 3.0574518258096335e-06  3.0974581774093585e-06  3.1379880068133170e-06  3.1790481636591410e-06 
 3.2206455872110658e-06  3.2627873075326763e-06  3.3054804466750102e-06  3.3487322198801971e-06 
 3.3925499368008481e-06  3.4369410027354160e-06  3.4819129198796975e-06  3.5274732885947304e-06 
 3.5736298086912624e-06  3.6203902807310474e-06  3.6677626073451548e-06  3.7157547945695337e-06 
 3.7643749531980515e-06  3.8136313001532357e-06  3.8635321598749569e-06  3.9140859657272770e-06 
 3.9653012614237115e-06  4.0171867024711245e-06  4.0697510576325475e-06  4.1230032104091116e-06 
 4.1769521605413812e-06  4.2316070255303356e-06  4.2869770421782362e-06  4.3430715681496844e-06 
 4.3999000835530816e-06  4.4574721925427881e-06  4.5157976249422478e-06  4.5748862378883580e-06 
 4.6347480174973429e-06  4.6953930805524335e-06  4.7568316762136294e-06  4.8190741877498230e-06 
 4.8821311342936095e-06  4.9460131726190351e-06  5.0107310989426258e-06  5.0762958507479606e-06 
 5.1427185086341470e-06  5.2100102981884597e-06  5.2781825918834949e-06  5.3472469109991452e-06 
 5.4172149275697186e-06  5.4880984663565451e-06  5.5599095068463920e-06  5.6326601852760211e-06 
 5.7063627966832365e-06  5.7810297969847845e-06  5.8566738050814354e-06  5.9333076049905937e-06 
 6.0109441480068448e-06  6.0895965548907340e-06  6.1692781180862296e-06  6.2500023039671599e-06 
 6.3317827551130750e-06  6.4146332926148549e-06  6.4985679184105372e-06  6.5836008176516477e-06 
 6.6697463611005511e-06  6.7570191075591229e-06  6.8454338063292304e-06  6.9350053997054017e-06 
 7.0257490255001058e-06  7.1176800196020864e-06  7.2108139185681418e-06  7.3051664622488706e-06 
 7.4007535964487235e-06  7.4975914756208850e-06  7.5956964655974227e-06  7.6950851463551359e-06 
 7.7957743148176280e-06  7.8977809876940247e-06  8.0011224043548254e-06  8.1058160297454068e-06 
 8.2118795573376379e-06  8.3193309121201284e-06  8.4281882536275791e-06  8.5384699790098011e-06 
 8.6501947261408568e-06  8.7633813767689281e-06  8.8780490597073705e-06  8.9942171540675233e-06 
 9.1119052925338163e-06  9.2311333646817623e-06  9.3519215203393310e-06  9.4742901729923165e-06 
 9.5982600032342664e-06  9.7238519622615487e-06  9.8510872754141594e-06  9.9799874457628576e-06 
 1.0110574257743227e-05  1.0242869780837297e-05  1.0376896373303350e-05  1.0512676685954507e-05 
 1.0650233665986779e-05  1.0789590560857196e-05  1.0930770922212659e-05  1.1073798609870270e-05 
 1.1218697795849660e-05  1.1365492968458140e-05  1.1514208936429256e-05  1.1664870833115561e-05 
 1.1817504120736186e-05  1.1972134594680014e-05  1.2128788387865188e-05  1.2287491975155597e-05 
 1.2448272177835229e-05  1.2611156168141004e-05  1.2776171473854971e-05  1.2943345982956539e-05 
 1.3112707948335641e-05  1.3284285992567527e-05  1.3458109112750045e-05  1.3634206685404221e-05 
 1.3812608471438959e-05  1.3993344621180711e-05  1.4176445679468959e-05  1.4361942590818354e-05 
 1.4549866704648404e-05  1.4740249780581633e-05  1.4933123993810998e-05  1.5128521940537599e-05 
 1.5326476643479499e-05  1.5527021557452640e-05  1.5730190575024803e-05  1.5936018032243519e-05 
 1.6144538714438953e-05  1.6355787862102688e-05  1.6569801176843493e-05  1.6786614827420897e-05 
 1.7006265455857904e-05  1.7228790183633507e-05  1.7454226617956333e-05  1.7682612858120339e-05 
 1.7913987501943697e-05  1.8148389652291911e-05  1.8385858923686283e-05  1.8626435448998891e-05 
 1.8870159886235088e-05  1.9117073425404862e-05  1.9367217795484016e-05  1.9620635271466459e-05 
 1.9877368681508791e-05  2.0137461414168352e-05  2.0400957425736017e-05  2.0667901247664887e-05 
 2.0938337994096234e-05  2.1212313369483834e-05  2.1489873676318236e-05  2.1771065822951909e-05 
 2.2055937331526908e-05  2.2344536346006197e-05  2.2636911640310122e-05  2.2933112626559296e-05 
 2.3233189363425388e-05  2.3537192564591156e-05  2.3845173607321115e-05  2.4157184541144528e-05 
 2.4473278096651838e-05  2.4793507694406248e-05  2.5117927453971959e-05  2.5446592203060489e-05 
 2.5779557486796684e-05  2.6116879577105993e-05  2.6458615482224556e-05  2.6804822956333653e-05 
 2.7155560509320449e-05  2.7510887416666171e-05  2.7870863729463890e-05  2.8235550284567235e-05 
 2.8605008714872019e-05  2.8979301459732297e-05  2.9358491775512815e-05  2.9742643746279472e-05 
 3.0131822294629598e-05  3.0526093192664156e-05  3.0925523073103345e-05  3.1330179440547612e-05 
 3.1740130682886195e-05  3.2155446082854770e-05  3.2576195829744417e-05  3.3002451031263790e-05 
 3.3434283725556496e-05  3.3871766893375621e-05  3.4314974470417814e-05  3.4763981359818467e-05 
 3.5218863444810565e-05  3.5679697601549140e-05  3.6146561712103510e-05  3.6619534677619538e-05 
 3.7098696431654116e-05  3.7584127953684165e-05  3.8075911282792218e-05  3.8574129531531402e-05 
 3.9078866899971588e-05  3.9590208689929350e-05  4.0108241319384231e-05  4.0633052337083596e-05 
 4.1164730437338511e-05  4.1703365475013382e-05  4.2249048480711614e-05  4.2801871676159868e-05 
 4.3361928489793982e-05  4.3929313572548460e-05  4.4504122813852715e-05  4.5086453357836632e-05 
 4.5676403619748146e-05  4.6274073302585645e-05  4.6879563413948060e-05  4.7492976283105369e-05 
 4.8114415578292367e-05  4.8743986324229048e-05  4.9381794919869933e-05  5.0027949156385731e-05 
 5.0682558235380305e-05  5.1345732787346059e-05  5.2017584890360672e-05  5.2698228089028658e-05 
 5.3387777413670611e-05  5.4086349399763486e-05  5.4794062107635689e-05  5.5511035142419232e-05 
 5.6237389674263489e-05  5.6973248458813133e-05  5.7718735857954145e-05  5.8473977860831317e-05 
 5.9239102105140728e-05  6.0014237898700724e-05  6.0799516241305243e-05  6.1595069846863288e-05 
 6.2401033165827656e-05  6.3217542407917560e-05  6.4044735565138271e-05  6.4882752435102147e-05 
 6.5731734644654786e-05  6.6591825673810275e-05  6.7463170879999659e-05  6.8345917522636586e-05 
 6.9240214788004732e-05  7.0146213814470458e-05  7.1064067718025627e-05  7.1993931618164462e-05 
 7.2935962664099320e-05  7.3890320061319040e-05  7.4857165098495251e-05  7.5836661174740442e-05 
 7.6828973827222722e-05  7.7834270759142158e-05  7.8852721868072990e-05  7.9884499274676652e-05 
 8.0929777351790546e-05  8.1988732753897627e-05  8.3061544446981188e-05  8.4148393738770817e-05 
 8.5249464309383703e-05  8.6364942242366760e-05  8.7495016056145713e-05  8.8639876735884741e-05 
 8.9799717765763626e-05  9.0974735161676923e-05  9.2165127504361218e-05  9.3371095972955682e-05 
 9.4592844379001809e-05  9.5830579200888188e-05  9.7084509618745486e-05  9.8354847549798885e-05 
 9.9641807684182248e-05  1.0094560752122136e-04  1.0226646740619188e-04  1.0360461056755812e-04 
 1.0496026315469932e-04  1.0633365427612922e-04  1.0772501603821625e-04  1.0913458358440961e-04 
 1.1056259513497962e-04  1.1200929202727708e-04  1.1347491875652013e-04  1.1495972301711430e-04 
 1.1646395574451363e-04  1.1798787115762928e-04  1.1953172680179308e-04  1.2109578359228359e-04 
 1.2268030585842074e-04  1.2428556138823900e-04  1.2591182147374350e-04  1.2755936095675940e-04 
 1.2922845827538062e-04  1.3091939551102658e-04  1.3263245843611474e-04  1.3436793656235668e-04 
 1.3612612318968651e-04  1.3790731545582858e-04  1.3971181438651544e-04  1.4153992494636124e-04 
 1.4339195609040171e-04  1.4526822081630818e-04  1.4716903621728503e-04  1.4909472353565913e-04 
 1.5104560821717063e-04  1.5302201996597416e-04  1.5502429280035894e-04  1.5705276510919985e-04 
 1.5910777970914498e-04  1.6118968390255287e-04  1.6329882953618731e-04  1.6543557306068042e-04 
 1.6760027559077341e-04  1.6979330296634614e-04  1.7201502581424481e-04  1.7426581961091830e-04 
 1.7654606474587560e-04  1.7885614658597163e-04  1.8119645554053566e-04  1.8356738712735108e-04 
 1.8596934203949918e-04  1.8840272621307701e-04  1.9086795089580155e-04  1.9336543271651180e-04 
 1.9589559375557945e-04  1.9845886161624226e-04  2.0105566949686949e-04  2.0368645626417365e-04 
 2.0635166652737988e-04  2.0905175071336620e-04  2.1178716514278650e-04  2.1455837210718982e-04 
 2.1736583994714912e-04  2.2021004313141108e-04  2.2309146233708344e-04  2.2601058453087001e-04 
 2.2896790305136934e-04  2.3196391769245012e-04  2.3499913478771748e-04  2.3807406729608468e-04 
 2.4118923488846420e-04  2.4434516403559379e-04  2.4754238809701032e-04  2.5078144741119007e-04 
 2.5406288938686645e-04  2.5738726859554347e-04  2.6075514686521969e-04  2.6416709337533860e-04 
 2.6762368475298119e-04  2.7112550517031730e-04  2.7467314644333236e-04  2.7826720813184478e-04 
 2.8190829764083433e-04  2.8559703032309425e-04  2.8933402958322734e-04  2.9311992698300289e-04 
 2.9695536234809245e-04  3.0084098387620124e-04  3.0477744824661577e-04  3.0876542073118407e-04 
 3.1280557530674727e-04  3.1689859476904486e-04  3.2104517084810763e-04  3.2524600432516242e-04 
 3.2950180515106502e-04  3.3381329256628432e-04  3.3818119522245534e-04  3.4260625130552285e-04 
 3.4708920866049732e-04  3.5163082491784103e-04  3.5623186762151124e-04  3.6089311435867573e-04 
 3.6561535289112741e-04  3.7039938128841760e-04  3.7524600806273188e-04  3.8015605230553060e-04 
 3.8513034382597710e-04  3.9016972329117798e-04  3.9527504236825642e-04  4.0044716386828798e-04 
 4.0568696189211624e-04  4.1099532197807847e-04  4.1637314125166368e-04  4.2182132857712879e-04 
 4.2734080471109893e-04  4.3293250245817773e-04  4.3859736682859359e-04  4.4433635519790726e-04 
 4.5015043746881282e-04  4.5604059623505227e-04  4.6200782694747622e-04  4.6805313808227756e-04 
 4.7417755131142652e-04  4.8038210167533559e-04  4.8666783775778370e-04  4.9303582186312981e-04 
 4.9948713019584332e-04  5.0602285304238756e-04  5.1264409495547939e-04  5.1935197494076119e-04 
 5.2614762664591596e-04  5.3303219855225603e-04  5.4000685416881965e-04  5.4707277222900644e-04 
 5.5423114688978655e-04  5.6148318793351423e-04  5.6883012097238704e-04  5.7627318765557487e-04 
 5.8381364587906245e-04  5.9145276999823641e-04  5.9919185104325508e-04  6.0703219693723450e-04 
 6.1497513271729172e-04  6.2302200075847899e-04  6.3117416100064649e-04  6.3943299117827878e-04 
 6.4779988705333249e-04  6.5627626265112472e-04  6.6486355049930588e-04  6.7356320186996092e-04 
 6.8237668702487769e-04  6.9130549546402421e-04  7.0035113617727854e-04  7.0951513789944986e-04 
 7.1879904936864090e-04  7.2820443958798644e-04  7.3773289809081922e-04  7.4738603520930515e-04 
 7.5716548234659254e-04  7.6707289225252343e-04  7.7710993930295291e-04  7.8727831978272198e-04 
 7.9757975217233221e-04  8.0801597743837669e-04  8.1858875932776427e-04  8.2929988466579866e-04 
 8.4015116365815552e-04  8.5114443019681173e-04  8.6228154216997721e-04  8.7356438177608293e-04 
 8.8499485584187670e-04  8.9657489614468095e-04  9.0830645973886872e-04  9.2019152928660955e-04 
 9.3223211339294636e-04  9.4443024694524757e-04  9.5678799145711775e-04  9.6930743541679234e-04 
 9.8199069464009769e-04  9.9483991262803019e-04  1.0078572609290119e-03  1.0210449395058885e-03 
 1.0344051771077273e-03  1.0479402316464818e-03  1.0616523905785835e-03  1.0755439712915285e-03 
 1.0896173214955205e-03  1.1038748196202399e-03  1.1183188752168036e-03  1.1329519293649865e-03 
 1.1477764550857671e-03  1.1627949577592762e-03  1.1780099755482130e-03  1.1934240798267934e-03 
 1.2090398756153292e-03  1.2248600020204757e-03  1.2408871326812494e-03  1.2571239762208773e-03 
 1.2735732767045632e-03  1.2902378141032398e-03  1.3071204047633907e-03  1.3242239018830197e-03 
 1.3415511959938475e-03  1.3591052154498201e-03  1.3768889269220059e-03  1.3949053358999701e-03 
 1.4131574871997113e-03  1.4316484654782404e-03  1.4503813957548973e-03  1.4693594439394849e-03 
 1.4885858173673187e-03  1.5080637653412628e-03  1.5277965796808874e-03  1.5477875952787817e-03 
 1.5680401906641626e-03  1.5885577885738529e-03  1.6093438565307333e-03  1.6304019074297616e-03 
 1.6517355001316597e-03  1.6733482400643701e-03  1.6952437798323824e-03  1.7174258198340308e-03 
 1.7398981088868704e-03  1.7626644448612374e-03  1.7857286753220985e-03  1.8090946981792952e-03 
 1.8327664623463053e-03  1.8567479684076134e-03  1.8810432692948249e-03  1.9056564709716093e-03 
 1.9305917331276349e-03  1.9558532698815542e-03  1.9814453504932031e-03  2.0073723000851168e-03 
 2.0336385003734852e-03  2.0602483904086735e-03  2.0872064673254308e-03  2.1145172871029198e-03 
 2.1421854653346849e-03  2.1702156780087000e-03  2.1986126622976221e-03  2.2273812173593832e-03 
 2.2565262051482604e-03  2.2860525512365588e-03  2.3159652456470423e-03  2.3462693436962613e-03 
 2.3769699668489178e-03  2.4080723035833852e-03  2.4395816102686040e-03  2.4715032120523977e-03 
 2.5038425037614454e-03  2.5366049508130165e-03  2.5697960901386397e-03  2.6034215311198598e-03 
 2.6374869565362340e-03  2.6719981235257370e-03  2.7069608645577301e-03  2.7423810884186620e-03 
 2.7782647812106685e-03  2.8146180073632394e-03  2.8514469106581176e-03  2.8887577152676164e-03 
 2.9265567268065180e-03  2.9648503333977384e-03  3.0036450067519390e-03  3.0429473032612406e-03 
 3.0827638651073027e-03  3.1231014213838441e-03  3.1639667892338829e-03  3.2053668750018490e-03 
 3.2473086754007739e-03  3.2897992786947504e-03  3.3328458658968660e-03  3.3764557119828151e-03 
 3.4206361871203799e-03  3.4653947579150125e-03  3.5107389886717085e-03  3.5566765426733875e-03 
 3.6032151834760134e-03  3.6503627762206475e-03  3.6981272889626787e-03  3.7465167940184461e-03 
 3.7955394693294803e-03  3.8452035998445774e-03  3.8955175789200038e-03  3.9464899097379769e-03 
 3.9981292067437224e-03  4.0504441971013433e-03  4.1034437221687224e-03  4.1571367389917416e-03 
 4.2115323218180371e-03  4.2666396636305750e-03  4.3224680777012815e-03  4.3790269991650114e-03 
 4.4363259866141086e-03  4.4943747237138282e-03  4.5531830208389015e-03  4.6127608167315136e-03 
 4.6731181801809704e-03  4.7342653117253500e-03  4.7962125453754299e-03  4.8589703503611192e-03 
 4.9225493329008406e-03  4.9869602379939643e-03  5.0522139512367567e-03  5.1183215006620668e-03 
 5.1852940586030885e-03  5.2531429435815164e-03  5.3218796222203966e-03  5.3915157111820216e-03 
 5.4620629791311643e-03  5.5335333487240203e-03  5.6059388986231537e-03  5.6792918655388320e-03 
 5.7536046462970496e-03  5.8288897999346284e-03  5.9051600498217175e-03  5.9824282858120768e-03 
 6.0607075664215089e-03  6.1400111210347256e-03  6.2203523521412174e-03  6.3017448376002615e-03 
 6.3842023329356229e-03  6.4677387736602684e-03  6.5523682776315074e-03  6.6381051474369368e-03 
 6.7249638728116134e-03  6.8129591330868622e-03  6.9021057996711032e-03  6.9924189385631684e-03 
 7.0839138128984845e-03  7.1766058855285810e-03  7.2705108216343465e-03  7.3656444913734881e-03 
 7.4620229725626186e-03  7.5596625533944483e-03  7.6585797351905434e-03  7.7587912351900342e-03 
 7.8603139893749455e-03  7.9631651553323680e-03  8.0673621151541447e-03  8.1729224783744850e-03 
 8.2798640849460186e-03  8.3882050082547833e-03  8.4979635581746826e-03  8.6091582841618906e-03 
 8.7218079783897492e-03  8.8359316789247029e-03  8.9515486729437686e-03  9.0686784999941122e-03 
 9.1873409552952878e-03  9.3075560930846683e-03  9.4293442300066622e-03  9.5527259485462812e-03 
 9.6777221005076332e-03  9.8043538105378660e-03  9.9326424796973931e-03  1.0062609789076639e-02 
 1.0194277703460224e-02  1.0327668475039058e-02  1.0462804647171026e-02  1.0599709058190854e-02 
 1.0738404845269849e-02  1.0878915448326134e-02  1.1021264613986059e-02  1.1165476399597423e-02 
 1.1311575177295237e-02  1.1459585638120651e-02  1.1609532796193834e-02  1.1761441992941383e-02 
 1.1915338901379108e-02  1.2071249530450828e-02  1.2229200229423956e-02  1.2389217692342516e-02 
 1.2551328962538615e-02  1.2715561437202764e-02  1.2881942872014064e-02  1.3050501385831007e-02 
 1.3221265465443608e-02  1.3394263970387765e-02  1.3569526137822557e-02  1.3747081587471425e-02 
 1.3926960326627965e-02  1.4109192755227214e-02  1.4293809670983339e-02  1.4480842274594515e-02 
 1.4670322175015901e-02  1.4862281394801649e-02  1.5056752375516782e-02  1.5253767983219911e-02 
 1.5453361514017673e-02  1.5655566699691773e-02  1.5860417713399882e-02  1.6067949175450888e-02 
 1.6278196159155819e-02  1.6491194196755321e-02  1.6706979285424722e-02  1.6925587893357578e-02 
 1.7147056965928952e-02  1.7371423931939224e-02  1.7598726709939661e-02  1.7829003714640749e-02 
 1.8062293863404369e-02  1.8298636582820906e-02  1.8538071815372467e-02  1.8780640026183230e-02 
 1.9026382209858160e-02  1.9275339897411183e-02  1.9527555163284079e-02  1.9783070632457010e-02 
 2.0041929487652439e-02  2.0304175476633018e-02  2.0569852919595049e-02  2.0839006716658733e-02 
 2.1111682355456379e-02  2.1387925918819949e-02  2.1667784092569128e-02  2.1951304173401378e-02 
 2.2238534076885159e-02  2.2529522345557794e-02  2.2824318157129271e-02  2.3122971332793389e-02 
 2.3425532345647659e-02  2.3732052329223374e-02  2.4042583086127309e-02  2.4357177096796474e-02 
 2.4675887528367475e-02  2.4998768243661731e-02  2.5325873810288658e-02  2.5657259509867542e-02 
 2.5992981347370363e-02  2.6333096060586692e-02  2.6677661129712583e-02  2.7026734787064806e-02 
 2.7380376026922282e-02  2.7738644615496254e-02  2.8101601101030906e-02  2.8469306824036165e-02 
 2.8841823927654379e-02  2.9219215368162708e-02  2.9601544925612813e-02  2.9988877214609883e-02 
 3.0381277695232654e-02  3.0778812684096303e-02  3.1181549365560158e-02  3.1589555803081849e-02 
 3.2002900950720468e-02  3.2421654664789752e-02  3.2845887715664060e-02  3.3275671799738706e-02 
 3.3711079551546827e-02  3.4152184556034790e-02  3.4599061360998225e-02  3.5051785489680777e-02 
 3.5510433453537736e-02  3.5975082765166595e-02  3.6445811951406955e-02  3.6922700566611663e-02 
 3.7405829206091722e-02  3.7895279519737105e-02  3.8391134225815748e-02  3.8893477124953169e-02 
 3.9402393114295026e-02  3.9917968201854628e-02  4.0440289521048972e-02  4.0969445345424176e-02 
 4.1505525103573998e-02  4.2048619394253493e-02  4.2598820001690386e-02  4.3156219911096888e-02 
 4.3720913324384339e-02  4.4292995676083614e-02  4.4872563649473771e-02  4.5459715192921732e-02 
 4.6054549536435799e-02  4.6657167208435817e-02  4.7267670052742634e-02  4.7886161245789982e-02 
 4.8512745314061585e-02  4.9147528151756277e-02  4.9790617038684579e-02  5.0442120658398815e-02 
 5.1102149116561441e-02  5.1770813959552839e-02  5.2448228193322934e-02  5.3134506302489573e-02 
 5.3829764269686581e-02  5.4534119595165222e-02  5.5247691316651922e-02  5.5970600029465988e-02 
 5.6702967906900464e-02  5.7444918720869771e-02  5.8196577862827371e-02  5.8958072364957259e-02 
 5.9729530921642744e-02  6.0511083911216054e-02  6.1302863417992598e-02  6.2105003254593519e-02 
 6.2917638984560501e-02  6.3740907945265823e-02  6.4574949271123436e-02  6.5419903917102479e-02 
 6.6275914682549217e-02  6.7143126235320386e-02  6.8021685136232468e-02  6.8911739863830770e-02 
 6.9813440839482668e-02  7.0726940452799161e-02  7.1652393087389160e-02  7.2589955146950547e-02 
 7.3539785081702891e-02  7.4502043415165836e-02  7.5476892771288023e-02  7.6464497901930856e-02 
 7.7465025714712019e-02  7.8478645301213235e-02  7.9505527965557238e-02  8.0545847253358144e-02 
 8.1599778981051779e-02  8.2667501265608567e-02  8.3749194554635906e-02  8.4845041656874148e-02 
 8.5955227773091822e-02  8.7079940527384908e-02  8.8219369998885813e-02  8.9373708753887143e-02 
 9.0543151878385977e-02  9.1727897011053688e-02  9.2928144376637559e-02  9.4144096819799059e-02 
 9.5375959839395133e-02  9.6623941623208101e-02  9.7888253083129706e-02  9.9169107890805894e-02 
 1.0046672251374784e-01  1.0178131625191499e-01  1.0311311127477805e-01  1.0446233265886579e-01 
 1.0582920842580329e-01  1.0721396958084851e-01  1.0861685015193250e-01  1.1003808722921080e-01 
 1.1147792100513212e-01  1.1293659481503156e-01  1.1441435517825473e-01  1.1591145183982027e-01 
 1.1742813781262722e-01  1.1896466942021483e-01  1.2052130634008189e-01  1.2209831164757277e-01 
 1.2369595186033788e-01  1.2531449698337571e-01  1.2695422055466460e-01  1.2861539969139033e-01 
 1.3029831513678103e-01  1.3200325130755239e-01  1.3373049634197526e-01  1.3548034214857144e-01 
 1.3725308445544707e-01  1.3904902286027124e-01  1.4086846088090896e-01  1.4271170600671609e-01 
 1.4457906975050605e-01  1.4647086770119597e-01  1.4838741957714227e-01  1.5032904928017352e-01 
 1.5229608495033078e-01  1.5428885902132405e-01  1.5630770827671436e-01  1.5835297390683090e-01 
 1.6042500156643338e-01  1.6252414143312732e-01  1.6465074826654666e-01  1.6680518146830772e-01 
 1.6898780514274939e-01  1.7119898815846754e-01  1.7343910421065462e-01  1.7570853188425511e-01 
 1.7800765471794738e-01  1.8033686126896245e-01  1.8269654517875109e-01  1.8508710523951041e-01 
 1.8750894546158042e-01  1.8996247514172288e-01  1.9244810893229333e-01  1.9496626691131846e-01 
 1.9751737465349023e-01  2.0010186330208918e-01  2.0272016964184766e-01  2.0537273617276927e-01 
 2.0806001118491099e-01  2.1078244883414596e-01  2.1354050921891646e-01  2.1633465845799207e-01 
 2.1916536876924453e-01  2.2203311854945371e-01  2.2493839245515806e-01  2.2788168148456248e-01 
 2.3086348306051827e-01  2.3388430111458863e-01  2.3694464617221467e-01  2.4004503543899497e-01 
 2.4318599288809492e-01  2.4636804934879911e-01  2.4959174259622305e-01  2.5285761744219870e-01 
 2.5616622582734722e-01  2.5951812691436094e-01  2.6291388718250142e-01  2.6635408052333626e-01 
 2.6983928833772797e-01  2.7337009963409242e-01  2.7694711112794235e-01  2.8057092734273376e-01 
 2.8424216071203207e-01  2.8796143168301452e-01  2.9172936882132749e-01  2.9554660891731538e-01 
 2.9941379709363980e-01  3.0333158691430684e-01  3.0730064049512096e-01  3.1132162861558399e-01 
 3.1539523083225862e-01  3.1952213559361570e-01  3.2370304035638103e-01  3.2793865170341124e-01 
 3.3222968546310500e-01  3.3657686683038079e-01  3.4098093048923650e-01  3.4544262073691234e-01 
 3.4996269160967969e-01  3.5454190701027410e-01  3.5918104083699731e-01  3.6388087711450762e-01 
 3.6864221012632187e-01  3.7346584454905163e-01  3.7835259558839507e-01  3.8330328911690870e-01 
 3.8831876181358199e-01  3.9339986130523802e-01  3.9854744630978439e-01  4.0376238678133913e-01 
 4.0904556405725290e-01  4.1439787100706038e-01  4.1982021218337501e-01  4.2531350397476136e-01 
 4.3087867476060676e-01  4.3651666506801956e-01  4.4222842773078086e-01  4.4801492805037502e-01 
 4.5387714395912898e-01  4.5981606618548237e-01  4.6583269842142938e-01  4.7192805749213484e-01 
 4.7810317352779264e-01  4.8435909013770673e-01  4.9069686458667727e-01  4.9711756797366718e-01 
 5.0362228541283449e-01  5.1021211621690610e-01  5.1688817408297105e-01  5.2365158728070149e-01 
 5.3050349884302206e-01  5.3744506675929848e-01  5.4447746417102660e-01  5.5160187957011075e-01 
 5.5881951699970600e-01  5.6613159625772080e-01  5.7353935310294901e-01  5.8104403946393268e-01 
 5.8864692365052496e-01  5.9634929056825281e-01  6.0415244193545348e-01  6.1205769650328479e-01 
 6.2006639027857946e-01  6.2817987674965126e-01  6.3639952711502057e-01  6.4472673051516705e-01 
 6.5316289426728247e-01  6.6170944410311761e-01  6.7036782440994114e-01  6.7913949847462785e-01 
 6.8802594873097678e-01  6.9702867701022719e-01  7.0614920479489030e-01  7.1538907347586489e-01 
 7.2474984461295455e-01  7.3423310019875598e-01  7.4384044292603935e-01  7.5357349645858696e-01 
 7.6343390570561642e-01  7.7342333709975408e-01  7.8354347887868669e-01  7.9379604137045612e-01 
 8.0418275728253141e-01  8.1470538199462039e-01  8.2536569385534098e-01  8.3616549448277655e-01 
 8.4710660906893120e-01  8.5819088668821752e-01  8.6942020060992797e-01  8.8079644861484918e-01 
 8.9232155331596374e-01  9.0399746248340351e-01  9.1582614937360118e-01  9.2780961306280119e-01 
 9.3994987878488201e-01  9.5224899827365239e-01  9.6470905010957253e-01  9.7733214007106528e-01 
 9.9012040149037184e-01  1.0030759956141160e+00  1.0162011119685332e+00  1.0294979687295338e+00 
 1.0429688130975545e+00  1.0566159216773516e+00  1.0704416008627642e+00  1.0844481872264733e+00 
 1.0986380479149189e+00  1.1130135810483230e+00  1.1275772161260085e+00  1.1423314144369581e+00 
 1.1572786694758106e+00  1.1724215073642359e+00  1.1877624872778867e+00  1.2033042018788724e+00 
 1.2190492777539605e+00  1.2350003758584398e+00  1.2511601919658644e+00  1.2675314571236085e+00 
 1.2841169381144588e+00  1.3009194379241729e+00  1.3179417962152056e+00  1.3351868898066324e+00 
 1.3526576331603057e+00  1.3703569788734442e+00  1.3882879181775893e+00  1.4064534814441711e+00 
 1.4248567386966073e+00  1.4435008001291849e+00  1.4623888166326513e+00  1.4815239803267599e+00 
 1.5009095250997091e+00  1.5205487271547160e+00 
  </PP_RAB>
</PP_MESH>


<PP_LOCAL>
3.9636166356308486e+01 3.9636166355059316e+01 3.9636166353898524e+01 3.9636166352721439e+01 
3.9636166351429502e+01 3.9636166350180538e+01 3.9636166348819877e+01 3.9636166347499412e+01 
3.9636166346120582e+01 3.9636166344729695e+01 3.9636166343268535e+01 3.9636166341758596e+01 
3.9636166340211517e+01 3.9636166338688952e+01 3.9636166336977773e+01 3.9636166335336242e+01 
3.9636166333669912e+01 3.9636166331918794e+01 3.9636166330123920e+01 3.9636166328263776e+01 
3.9636166326366713e+01 3.9636166324459396e+01 3.9636166322485018e+01 3.9636166320428636e+01 
3.9636166318346511e+01 3.9636166316138677e+01 3.9636166313929607e+01 3.9636166311679055e+01 
3.9636166309346692e+01 3.9636166306971994e+01 3.9636166304519001e+01 3.9636166301980658e+01 
3.9636166299410782e+01 3.9636166296790243e+01 3.9636166294045680e+01 3.9636166291309621e+01 
3.9636166288419069e+01 3.9636166285467830e+01 3.9636166282454859e+01 3.9636166279337814e+01 
3.9636166276178976e+01 3.9636166272916846e+01 3.9636166269615117e+01 3.9636166266163670e+01 
3.9636166262587260e+01 3.9636166258993136e+01 3.9636166255276933e+01 3.9636166251462107e+01 
3.9636166247568298e+01 3.9636166243549120e+01 3.9636166239418685e+01 3.9636166235187972e+01 
3.9636166230868653e+01 3.9636166226383537e+01 3.9636166221820879e+01 3.9636166217159655e+01 
3.9636166212272379e+01 3.9636166207369406e+01 3.9636166202297652e+01 3.9636166197091676e+01 
3.9636166191762804e+01 3.9636166186282523e+01 3.9636166180639911e+01 3.9636166174829917e+01 
3.9636166168917221e+01 3.9636166162799668e+01 3.9636166156598478e+01 3.9636166150176486e+01 
3.9636166143613494e+01 3.9636166136829033e+01 3.9636166129881289e+01 3.9636166122763107e+01 
3.9636166115509866e+01 3.9636166107986675e+01 3.9636166100313972e+01 3.9636166092397886e+01 
3.9636166084310261e+01 3.9636166076004905e+01 3.9636166067425243e+01 3.9636166058690748e+01 
3.9636166049691219e+01 3.9636166040456310e+01 3.9636166030992008e+01 3.9636166021271876e+01 
3.9636166011319474e+01 3.9636166001089229e+01 3.9636165990576330e+01 3.9636165979757230e+01 
3.9636165968702592e+01 3.9636165957355409e+01 3.9636165945688326e+01 3.9636165933727234e+01 
3.9636165921431321e+01 3.9636165908818676e+01 3.9636165895901470e+01 3.9636165882609355e+01 
3.9636165868973904e+01 3.9636165854997152e+01 3.9636165840651536e+01 3.9636165825913601e+01 
3.9636165810788867e+01 3.9636165795266379e+01 3.9636165779336075e+01 3.9636165762983374e+01 
3.9636165746225316e+01 3.9636165729006358e+01 3.9636165711304315e+01 3.9636165693156137e+01 
3.9636165674554910e+01 3.9636165655421529e+01 3.9636165635833557e+01 3.9636165615712912e+01 
3.9636165595027300e+01 3.9636165573830340e+01 3.9636165552067297e+01 3.9636165529731571e+01 
3.9636165506805298e+01 3.9636165483278148e+01 3.9636165459155819e+01 3.9636165434376288e+01 
3.9636165408925201e+01 3.9636165382808421e+01 3.9636165356024918e+01 3.9636165328526005e+01 
3.9636165300304846e+01 3.9636165271328487e+01 3.9636165241617803e+01 3.9636165211072871e+01 
3.9636165179766436e+01 3.9636165147595335e+01 3.9636165114636661e+01 3.9636165080776898e+01 
3.9636165046019407e+01 3.9636165010354958e+01 3.9636164973729628e+01 3.9636164936185004e+01 
3.9636164897608772e+01 3.9636164858042939e+01 3.9636164817420699e+01 3.9636164775735921e+01 
3.9636164732948920e+01 3.9636164689042012e+01 3.9636164643978447e+01 3.9636164597709424e+01 
3.9636164550238760e+01 3.9636164501516213e+01 3.9636164451492789e+01 3.9636164400176128e+01 
3.9636164347491679e+01 3.9636164293422063e+01 3.9636164237932284e+01 3.9636164180988487e+01 
3.9636164122533408e+01 3.9636164062541695e+01 3.9636164000970545e+01 3.9636163937762532e+01 
3.9636163872908263e+01 3.9636163806341919e+01 3.9636163738027030e+01 3.9636163667901222e+01 
3.9636163595928302e+01 3.9636163522057160e+01 3.9636163446250293e+01 3.9636163368445359e+01 
3.9636163288578999e+01 3.9636163206622868e+01 3.9636163122505891e+01 3.9636163036167595e+01 
3.9636162947573155e+01 3.9636162856617617e+01 3.9636162763283068e+01 3.9636162667476995e+01 
3.9636162569159303e+01 3.9636162468238730e+01 3.9636162364676778e+01 3.9636162258372046e+01 
3.9636162149267570e+01 3.9636162037302107e+01 3.9636161922376203e+01 3.9636161804432788e+01 
3.9636161683372350e+01 3.9636161559124794e+01 3.9636161431600840e+01 3.9636161300731850e+01 
3.9636161166398253e+01 3.9636161028534616e+01 3.9636160887040944e+01 3.9636160741809128e+01 
3.9636160592753704e+01 3.9636160439774997e+01 3.9636160282774696e+01 3.9636160121636372e+01 
3.9636159956246601e+01 3.9636159786504479e+01 3.9636159612283791e+01 3.9636159433478952e+01 
3.9636159249969182e+01 3.9636159061625200e+01 3.9636158868296747e+01 3.9636158669896638e+01 
3.9636158466271567e+01 3.9636158257271511e+01 3.9636158042769374e+01 3.9636157822614528e+01 
3.9636157596671815e+01 3.9636157364760116e+01 3.9636157126749204e+01 3.9636156882467482e+01 
3.9636156631748911e+01 3.9636156374422342e+01 3.9636156110321579e+01 3.9636155839265655e+01 
3.9636155561063823e+01 3.9636155275535089e+01 3.9636154982479439e+01 3.9636154681712519e+01 
3.9636154373013468e+01 3.9636154056186726e+01 3.9636153731017323e+01 3.9636153397276992e+01 
3.9636153054742294e+01 3.9636152703185381e+01 3.9636152342368455e+01 3.9636151972042917e+01 
3.9636151591967703e+01 3.9636151201871265e+01 3.9636150801504918e+01 3.9636150390589066e+01 
3.9636149968845217e+01 3.9636149535996886e+01 3.9636149091743007e+01 3.9636148635779342e+01 
3.9636148167810632e+01 3.9636147687503758e+01 3.9636147194560891e+01 3.9636146688611980e+01 
3.9636146169341998e+01 3.9636145636391042e+01 3.9636145089408487e+01 3.9636144528003520e+01 
3.9636143951814340e+01 3.9636143360441523e+01 3.9636142753491804e+01 3.9636142130554951e+01 
3.9636141491199957e+01 3.9636140835003978e+01 3.9636140161519926e+01 3.9636139470294324e+01 
3.9636138760854884e+01 3.9636138032724588e+01 3.9636137285413170e+01 3.9636136518413835e+01 
3.9636135731206629e+01 3.9636134923260897e+01 3.9636134094024371e+01 3.9636133242944418e+01 
3.9636132369439395e+01 3.9636131472925761e+01 3.9636130552788401e+01 3.9636129608406847e+01 
3.9636128639148261e+01 3.9636127644356364e+01 3.9636126623345497e+01 3.9636125575443266e+01 
3.9636124499926183e+01 3.9636123396073238e+01 3.9636122263142781e+01 3.9636121100357556e+01 
3.9636119906939413e+01 3.9636118682079783e+01 3.9636117424942569e+01 3.9636116134688862e+01 
3.9636114810436993e+01 3.9636113451298030e+01 3.9636112056346683e+01 3.9636110624642441e+01 
3.9636109155213560e+01 3.9636107647071867e+01 3.9636106099191146e+01 3.9636104510529677e+01 
3.9636102880012594e+01 3.9636101206529879e+01 3.9636099488954891e+01 3.9636097726123751e+01 
3.9636095916847275e+01 3.9636094059898994e+01 3.9636092154024240e+01 3.9636090197927921e+01 
3.9636088190294153e+01 3.9636086129758425e+01 3.9636084014935648e+01 3.9636081844385181e+01 
3.9636079616641744e+01 3.9636077330198674e+01 3.9636074983511392e+01 3.9636072574990401e+01 
3.9636070103005366e+01 3.9636067565882691e+01 3.9636064961908914e+01 3.9636062289318438e+01 
3.9636059546305930e+01 3.9636056731015266e+01 3.9636053841540374e+01 3.9636050875926614e+01 
3.9636047832167954e+01 3.9636044708202391e+01 3.9636041501921319e+01 3.9636038211147493e+01 
3.9636034833661469e+01 3.9636031367171995e+01 3.9636027809338955e+01 3.9636024157752317e+01 
3.9636020409935817e+01 3.9636016563362247e+01 3.9636012615422139e+01 3.9636008563446730e+01 
3.9636004404693722e+01 3.9636000136347647e+01 3.9635995755517939e+01 3.9635991259245550e+01 
3.9635986644482053e+01 3.9635981908107659e+01 3.9635977046912174e+01 3.9635972057612342e+01 
3.9635966936826556e+01 3.9635961681087814e+01 3.9635956286844021e+01 3.9635950750439193e+01 
3.9635945068128088e+01 3.9635939236064672e+01 3.9635933250301797e+01 3.9635927106786092e+01 
3.9635920801359227e+01 3.9635914329756176e+01 3.9635907687590610e+01 3.9635900870370229e+01 
3.9635893873479091e+01 3.9635886692180250e+01 3.9635879321612840e+01 3.9635871756785917e+01 
3.9635863992580397e+01 3.9635856023738910e+01 3.9635847844863932e+01 3.9635839450419773e+01 
3.9635830834724501e+01 3.9635821991944518e+01 3.9635812916089847e+01 3.9635803601017358e+01 
3.9635794040421807e+01 3.9635784227826051e+01 3.9635774156586692e+01 3.9635763819886265e+01 
3.9635753210721937e+01 3.9635742321911287e+01 3.9635731146080992e+01 3.9635719675662315e+01 
3.9635707902887312e+01 3.9635695819782768e+01 3.9635683418166700e+01 3.9635670689637415e+01 
3.9635657625577274e+01 3.9635644217136715e+01 3.9635630455233887e+01 3.9635616330548018e+01 
3.9635601833512126e+01 3.9635586954306326e+01 3.9635571682852245e+01 3.9635556008803896e+01 
3.9635539921544613e+01 3.9635523410176354e+01 3.9635506463513764e+01 3.9635489070076048e+01 
3.9635471218079680e+01 3.9635452895429239e+01 3.9635434089712930e+01 3.9635414788187028e+01 
3.9635394977774475e+01 3.9635374645053794e+01 3.9635353776244941e+01 3.9635332357209613e+01 
3.9635310373430727e+01 3.9635287810015157e+01 3.9635264651667910e+01 3.9635240882697381e+01 
3.9635216486994402e+01 3.9635191448024912e+01 3.9635165748819560e+01 3.9635139371959482e+01 
3.9635112299565336e+01 3.9635084513288227e+01 3.9635055994293481e+01 3.9635026723248039e+01 
3.9634996680309854e+01 3.9634965845112646e+01 3.9634934196752091e+01 3.9634901713771242e+01 
3.9634868374147175e+01 3.9634834155276351e+01 3.9634799033955858e+01 3.9634762986372849e+01 
3.9634725988081563e+01 3.9634688013994612e+01 3.9634649038360905e+01 3.9634609034748060e+01 
3.9634567976025174e+01 3.9634525834345673e+01 3.9634482581128168e+01 3.9634438187034362e+01 
3.9634392621951648e+01 3.9634345854972359e+01 3.9634297854371596e+01 3.9634248587586029e+01 
3.9634198021192148e+01 3.9634146120884239e+01 3.9634092851448024e+01 3.9634038176740717e+01 
3.9633982059662763e+01 3.9633924462135283e+01 3.9633865345072536e+01 3.9633804668355374e+01 
3.9633742390804471e+01 3.9633678470153072e+01 3.9633612863015593e+01 3.9633545524860388e+01 
3.9633476409978186e+01 3.9633405471451269e+01 3.9633332661122836e+01 3.9633257929561616e+01 
3.9633181226028327e+01 3.9633102498444266e+01 3.9633021693351999e+01 3.9632938755881732e+01 
3.9632853629711938e+01 3.9632766257030774e+01 3.9632676578498746e+01 3.9632584533206852e+01 
3.9632490058633493e+01 3.9632393090605071e+01 3.9632293563248929e+01 3.9632191408951485e+01 
3.9632086558308636e+01 3.9631978940080892e+01 3.9631868481143862e+01 3.9631755106438717e+01 
3.9631638738919357e+01 3.9631519299501797e+01 3.9631396707008996e+01 3.9631270878115075e+01 
3.9631141727289517e+01 3.9631009166737293e+01 3.9630873106339614e+01 3.9630733453592477e+01 
3.9630590113542638e+01 3.9630442988723324e+01 3.9630291979086905e+01 3.9630136981937099e+01 
3.9629977891857742e+01 3.9629814600641978e+01 3.9629646997217456e+01 3.9629474967568861e+01 
3.9629298394662896e+01 3.9629117158364693e+01 3.9628931135358869e+01 3.9628740199061724e+01 
3.9628544219537524e+01 3.9628343063407193e+01 3.9628136593757610e+01 3.9627924670048642e+01 
3.9627707148015254e+01 3.9627483879569496e+01 3.9627254712699063e+01 3.9627019491361835e+01 
3.9626778055380321e+01 3.9626530240331178e+01 3.9626275877431773e+01 3.9626014793424460e+01 
3.9625746810458978e+01 3.9625471745968440e+01 3.9625189412544991e+01 3.9624899617811593e+01 
3.9624602164287474e+01 3.9624296849255984e+01 3.9623983464622420e+01 3.9623661796771643e+01 
3.9623331626422093e+01 3.9622992728474664e+01 3.9622644871857318e+01 3.9622287819366427e+01 
3.9621921327503735e+01 3.9621545146309302e+01 3.9621159019188482e+01 3.9620762682735666e+01 
3.9620355866553496e+01 3.9619938293065921e+01 3.9619509677327493e+01 3.9619069726827192e+01 
3.9618618141286234e+01 3.9618154612452479e+01 3.9617678823886301e+01 3.9617190450743827e+01 
3.9616689159552358e+01 3.9616174607981215e+01 3.9615646444604046e+01 3.9615104308657983e+01 
3.9614547829794304e+01 3.9613976627822922e+01 3.9613390312449461e+01 3.9612788483006405e+01 
3.9612170728176665e+01 3.9611536625708972e+01 3.9610885742126818e+01 3.9610217632428544e+01 
3.9609531839780331e+01 3.9608827895200591e+01 3.9608105317235257e+01 3.9607363611625402e+01 
3.9606602270965851e+01 3.9605820774353454e+01 3.9605018587027779e+01 3.9604195160000600e+01 
3.9603349929676497e+01 3.9602482317462311e+01 3.9601591729367449e+01 3.9600677555592085e+01 
3.9599739170105472e+01 3.9598775930212227e+01 3.9597787176107246e+01 3.9596772230418615e+01 
3.9595730397739061e+01 3.9594660964142847e+01 3.9593563196692202e+01 3.9592436342928785e+01 
3.9591279630352112e+01 3.9590092265884472e+01 3.9588873435319933e+01 3.9587622302761027e+01 
3.9586338010038112e+01 3.9585019676114158e+01 3.9583666396473973e+01 3.9582277242495927e+01 
3.9580851260807989e+01 3.9579387472625946e+01 3.9577884873073735e+01 3.9576342430486378e+01 
3.9574759085693323e+01 3.9573133751282697e+01 3.9571465310846961e+01 3.9569752618206707e+01 
3.9567994496615256e+01 3.9566189737940832e+01 3.9564337101827526e+01 3.9562435314833067e+01 
3.9560483069544986e+01 3.9558479023671190e+01 3.9556421799107540e+01 3.9554309980980918e+01 
3.9552142116664712e+01 3.9549916714770497e+01 3.9547632244110588e+01 3.9545287132634655e+01 
3.9542879766336604e+01 3.9540408488132897e+01 3.9537871596711490e+01 3.9535267345348707e+01 
3.9532593940695676e+01 3.9529849541532208e+01 3.9527032257487079e+01 3.9524140147724658e+01 
3.9521171219596475e+01 3.9518123427256761e+01 3.9514994670241173e+01 3.9511782792008141e+01 
3.9508485578440819e+01 3.9505100756309908e+01 3.9501625991694915e+01 3.9498058888364568e+01 
3.9494396986113330e+01 3.9490637759054437e+01 3.9486778613867372e+01 3.9482816887999384e+01 
3.9478749847819103e+01 3.9474574686721517e+01 3.9470288523183349e+01 3.9465888398766097e+01 
3.9461371276067595e+01 3.9456734036618840e+01 3.9451973478726657e+01 3.9447086315257536e+01 
3.9442069171365880e+01 3.9436918582160715e+01 3.9431630990312442e+01 3.9426202743596249e+01 
3.9420630092371859e+01 3.9414909186997292e+01 3.9409036075175223e+01 3.9403006699230090e+01 
3.9396816893315211e+01 3.9390462380546118e+01 3.9383938770060752e+01 3.9377241554003078e+01 
3.9370366104428960e+01 3.9363307670132002e+01 3.9356061373387895e+01 3.9348622206615133e+01 
3.9340985028949966e+01 3.9333144562733608e+01 3.9325095389910061e+01 3.9316831948331810e+01 
3.9308348527971475e+01 3.9299639267037804e+01 3.9290698147993048e+01 3.9281518993469454e+01 
3.9272095462083641e+01 3.9262421044145306e+01 3.9252489057258472e+01 3.9242292641813229e+01 
3.9231824756364766e+01 3.9221078172898139e+01 3.9210045471975612e+01 3.9198719037764064e+01 
3.9187091052941241e+01 3.9175153493475996e+01 3.9162898123282226e+01 3.9150316488742426e+01 
3.9137399913099081e+01 3.9124139490710725e+01 3.9110526081170399e+01 3.9096550303283706e+01 
3.9082202528903892e+01 3.9067472876621196e+01 3.9052351205303786e+01 3.9036827107487937e+01 
3.9020889902614336e+01 3.9004528630108297e+01 3.8987732042301047e+01 3.8970488597189387e+01 
3.8952786451031841e+01 3.8934613450777647e+01 3.8915957126327129e+01 3.8896804682620619e+01 
3.8877142991553512e+01 3.8856958583715077e+01 3.8836237639949353e+01 3.8814965982735160e+01 
3.8793129067383937e+01 3.8770711973052933e+01 3.8747699393572496e+01 3.8724075628085018e+01 
3.8699824571494844e+01 3.8674929704727184e+01 3.8649374084795056e+01 3.8623140334673202e+01 
3.8596210632978227e+01 3.8568566703454465e+01 3.8540189804264898e+01 3.8511060717087780e+01 
3.8481159736018100e+01 3.8450466656275808e+01 3.8418960762720388e+01 3.8386620818173824e+01 
3.8353425051553415e+01 3.8319351145816334e+01 3.8284376225718553e+01 3.8248476845391053e+01 
3.8211628975736943e+01 3.8173807991653433e+01 3.8134988659083184e+01 3.8095145121900515e+01 
3.8054250888638443e+01 3.8012278819062658e+01 3.7969201110600714e+01 3.7924989284633789e+01 
3.7879614172660773e+01 3.7833045902344182e+01 3.7785253883449172e+01 3.7736206793687472e+01 
3.7685872564479332e+01 3.7634218366647922e+01 3.7581210596061283e+01 3.7526814859238982e+01 
3.7470995958941238e+01 3.7413717879760462e+01 3.7354943773735904e+01 3.7294635946014523e+01 
3.7232755840582350e+01 3.7169264026092200e+01 3.7104120181816619e+01 3.7037283083755440e+01 
3.6968710590930421e+01 3.6898359631901315e+01 3.6826186191540081e+01 3.6752145298102420e+01 
3.6676191010637993e+01 3.6598276406783974e+01 3.6518353570988886e+01 3.6436373583216799e+01 
3.6352286508184818e+01 3.6266041385190483e+01 3.6177586218588239e+01 3.6086867968978495e+01 
3.5993832545175621e+01 3.5898424797025640e+01 3.5800588509147808e+01 3.5700266395678860e+01 
3.5597400096102241e+01 3.5491930172249994e+01 3.5383796106568397e+01 3.5272936301744373e+01 
3.5159288081793370e+01 3.5042787694715535e+01 3.4923370316831402e+01 3.4800970058914075e+01 
3.4675519974240125e+01 3.4546952068687361e+01 3.4415197313013337e+01 3.4280185657453956e+01 
3.4141846048788196e+01 3.4000106450020837e+01 3.3854893862840981e+01 3.3706134353021561e+01 
3.3553753078929809e+01 3.3397674323326846e+01 3.3237821528639707e+01 3.3074117335896545e+01 
3.2906483627521318e+01 3.2734841574192210e+01 3.2559111685972063e+01 3.2379213867928058e+01 
3.2195067480461766e+01 3.2006591404577769e+01 3.1813704112324427e+01 3.1616323742645498e+01 
3.1414368182886673e+01 3.1207755156205344e+01 3.0996402315136539e+01 3.0780227341570395e+01 
3.0559148053401060e+01 3.0333082518107588e+01 3.0101949173529785e+01 2.9865666956101791e+01 
2.9624155436806163e+01 2.9377334965109078e+01 2.9125126821134742e+01 2.8867453376332602e+01 
2.8604238262885183e+01 2.8335406552097240e+01 2.8060884941997141e+01 2.7780601954371122e+01 
2.7494488141436289e+01 2.7202476302345001e+01 2.6904501709692948e+01 2.6600502346184008e+01 
2.6290419151581069e+01 2.5974196280045863e+01 2.5651781367940451e+01 2.5323125812130954e+01 
2.4988185058796233e+01 2.4646918902704847e+01 2.4299291796878070e+01 2.3945273172508347e+01 
2.3584837768949708e+01 2.3217965973537758e+01 2.2844644170935343e+01 2.2464865101631556e+01 
2.2078628229149214e+01 2.1685940115438189e+01 2.1286814803847498e+01 2.0881274208981871e+01 
2.0469348512652225e+01 2.0051076565030826e+01 1.9626506290015627e+01 1.9195695093697605e+01 
1.8758710274708594e+01 1.8315629435105190e+01 1.7866540890318575e+01 1.7411544076568184e+01 
1.6950749954002678e+01 1.6484281403692005e+01 1.6012273616452863e+01 1.5534874471344404e+01 
1.5052244901525748e+01 1.4564559245018980e+01 1.4072005577774767e+01 1.3574786026293118e+01 
1.3073117056907424e+01 1.2567229738704006e+01 1.2057369976914659e+01 1.1543798713495759e+01 
1.1026792091491798e+01 1.0506641579676783e+01 9.9836540538771885e+00 9.4581518313053277e+00 
8.9304726541768531e+00 8.4009696188514447e+00 7.8700110467253381e+00 7.3379802931210154e+00 
6.8052754904651920e+00 6.2723092221258385e+00 5.7395081233928931e+00 5.2073124062423695e+00 
4.6761753047172405e+00 4.1465624380006574e+00 3.6189510885421781e+00 3.0938293929381500e+00 
2.5716954436544195e+00 2.0530563001251485e+00 1.5384269082604689e+00 1.0283289279523833e+00 
5.2328946878192084e-01 2.3839734801179204e-02 -4.6948642000867874e-01 -9.5615402322129905e-01 
-1.4356285991750051e+00 -1.9073778638111043e+00 -2.3708734941176979e+00 -2.8255929661930663e+00 
-3.2710214549487135e+00 -3.7066537874559700e+00 -4.1319964409110099e+00 -4.5465695751616577e+00 
-4.9499090887200872e+00 -5.3415686861862799e+00 -5.7211219440509433e+00 -6.0881643609413105e+00 
-6.4423153775406377e+00 -6.7832203506680333e+00 -7.1105524653683805e+00 -7.4240145683505565e+00 
-7.7233409057453377e+00 -8.0082987479504801e+00 -8.2786898843069423e+00 -8.5343519705247424e+00 
-8.7751597121640454e+00 -9.0010258680903199e+00 -9.2119020586733509e+00 -9.4077793645954539e+00 
-9.5886887034799262e+00 -9.7547009731465355e+00 -9.9059269521439361e+00 -1.0042516950288778e+01 
-1.0164660204247136e+01 -1.0272584015704002e+01 -1.0366552632358019e+01 -1.0446865874820439e+01 
-1.0513857515454173e+01 -1.0567893418219359e+01 -1.0609369451650901e+01 -1.0638709190130056e+01 
-1.0656361421573866e+01 -1.0662797482495529e+01 -1.0658508444029533e+01 -1.0644002174908445e+01 
-1.0619800309467870e+01 -1.0586435150487814e+01 -1.0544446538003115e+01 -1.0494378716088869e+01 
-1.0436777230012098e+01 -1.0372185886011721e+01 -1.0301143805306811e+01 -1.0224182602733570e+01 
-1.0141823718680335e+01 -1.0054575930747076e+01 -9.9629330688341220e+00 -9.8673719542096521e+00 
-9.7683505795754328e+00 -9.6663065433143007e+00 -9.5616557470405841e+00 -9.4547913613732177e+00 
-9.3460830606030729e+00 -9.2358765227273185e+00 -9.1244931872699446e+00 -9.0122302594920480e+00 
-8.8993609461052969e+00 -8.7861349045159329e+00 -8.6727788850108478e+00 -8.5594975432067244e+00 
-8.4464743985533239e+00 -8.3338729137358118e+00 -8.2218376694600117e+00 -8.1104956093152349e+00 
-7.9999573301598197e+00 -7.8903183947185411e+00 -7.7816606447575536e+00 -7.6740534952405337e+00 
-7.5675551921897029e+00 -7.4622140194929516e+00 -7.3580694425280750e+00 -7.2551531791330035e+00 
-7.1534901910583795e+00 -7.0530995915246617e+00 -6.9539954668093982e+00 -6.8561876118620351e+00 
-6.7596821817471788e+00 -6.6644822622301731e+00 -6.5705883640298000e+00 -6.4779988461752920e+00 
-6.3867102745304853e+00 -6.2967177219091752e+00 -6.2080150163313528e+00 -6.1205949438937530e+00 
-6.0344494124866523e+00 -5.9495695822192793e+00 -5.8659459679546595e+00 -5.7835685188349730e+00 
-5.7024266791300988e+00 -5.6225094341906674e+00 -5.5438053447529008e+00 -5.4663025723411938e+00 
-5.3899888980569077e+00 -5.3148517366341936e+00 -5.2408781472886012e+00 -5.1680548425819275e+00 
-5.0963681962734366e+00 -5.0258042509199461e+00 -4.9563487258192369e+00 -4.8879870257571536e+00 
-4.8207042509126454e+00 -4.7544852081910838e+00 -4.6893144241895435e+00 -4.6251761599434769e+00 
-4.5620544275590360e+00 -4.4999330087955931e+00 -4.4387954756269856e+00 -4.3786252127755425e+00 
-4.3194054421790193e+00 -4.2611192493168275e+00 -4.2037496112875541e+00 -4.1472794264956514e+00 
-4.0916915457708134e+00 -4.0369688047106029e+00 -3.9830940570049478e+00 -3.9300502084719486e+00 
-3.8778202515085129e+00 -3.8263872996373642e+00 -3.7757346218152557e+00 -3.7258456761559868e+00 
-3.6767041427170404e+00 -3.6282939550006441e+00 -3.5805993298290426e+00 -3.5336047952699250e+00 
-3.4872952163111539e+00 -3.4416558180136900e+00 -3.3966722059075454e+00 -3.3523303834368354e+00 
-3.3086167663056161e+00 -3.2655181936252449e+00 -3.2230219358149061e+00 -3.1811156992591378e+00 
-3.1397876277774057e+00 -3.0990263010105785e+00 -3.0588207298758072e+00 -3.0191603492837631e+00 
-2.9800350083494913e+00 -2.9414349583593893e+00 -2.9033508387813383e+00 -2.8657736616224798e+00 
-2.8286947944491687e+00 -2.7921059423864278e+00 -2.7559991294099628e+00 -2.7203666792328387e+00 
-2.6852011960721267e+00 -2.6504955455587584e+00 -2.6162428360275940e+00 -2.5824364003952063e+00 
-2.5490697788011492e+00 -2.5161367021557615e+00 -2.4836310767044938e+00 -2.4515469696866856e+00 
-2.4198785961362166e+00 -2.3886203068433374e+00 -2.3577665774718115e+00 -2.3273119988036446e+00 
-2.2972512680654140e+00 -2.2675791812756660e+00 -2.2382906265419105e+00 -2.2093805782283433e+00 
-2.1808440919111698e+00 -2.1526763000370859e+00 -2.1248724082015569e+00 -2.0974276919666557e+00 
-2.0703374941429162e+00 -2.0435972224655212e+00 -2.0172023476016241e+00 -1.9911484014327003e+00 
-1.9654309755626984e+00 -1.9400457200096599e+00 -1.9149883420449414e+00 -1.8902546051500608e+00 
-1.8658403280665727e+00 -1.8417413839190222e+00 -1.8179536993950933e+00 -1.7944732539704420e+00 
-1.7712960791685513e+00 -1.7484182578482086e+00 -1.7258359235130558e+00 -1.7035452596390832e+00 
-1.6815424990170460e+00 -1.6598239231076168e+00 -1.6383858614077031e+00 -1.6172246908268391e+00 
-1.5963368350728107e+00 -1.5757187640460191e+00 -1.5553669932421383e+00 -1.5352780831627839e+00 
-1.5154486387339769e+00 -1.4958753087322230e+00 -1.4765547852180678e+00 -1.4574838029770036e+00 
-1.4386591389676171e+00 -1.4200776117768743e+00 -1.4017360810824482e+00 -1.3836314471219948e+00 
-1.3657606501692823e+00 -1.3481206700170920e+00 -1.3307085254667916e+00 -1.3135212738245103e+00 
-1.2965560104038107e+00 -1.2798098680348009e+00 -1.2632800165795597e+00 -1.2469636624538494e+00 
-1.2308580481549882e+00 -1.2149604517958261e+00 -1.1992681866447408e+00 -1.1837786006715729e+00 
-1.1684890760994260e+00 -1.1533970289622570e+00 -1.1384999086681793e+00 -1.1237951975684062e+00 
-1.1092804105317635e+00 -1.0949530945246955e+00 -1.0808108281966964e+00 -1.0668512214710968e+00 
-1.0530719151411347e+00 -1.0394705804712432e+00 -1.0260449188034932e+00 -1.0127926611691074e+00 
-9.9971156790500371e-01 -9.8679942827528622e-01 -9.7405406009762541e-01 -9.6147330937446396e-01 
-9.4905504992898593e-01 -9.3679718304578907e-01 -9.2469763711619490e-01 -9.1275436728814319e-01 
-9.0096535512060660e-01 -8.8932860824247040e-01 -8.7784216001581516e-01 -8.6650406920355194e-01 
-8.5531241964134752e-01 -8.4426531991378884e-01 -8.3336090303472865e-01 -8.2259732613175951e-01 
-8.1197277013476932e-01 -8.0148543946850570e-01 -7.9113356174912508e-01 -7.8091538748465450e-01 
-7.7082918977932302e-01 -7.6087326404171218e-01 -7.5104592769667633e-01 -7.4134551990098330e-01 
-7.3177040126262760e-01 -7.2231895356376963e-01 -7.1298957948725294e-01 -7.0378070234665369e-01 
-6.9469076581981726e-01 -6.8571823368583551e-01 -6.7686158956542242e-01 -6.6811933666464196e-01 
-6.5948999752194659e-01 -6.5097211375848096e-01 -6.4256424583161864e-01 -6.3426497279166671e-01 
-6.2607289204172867e-01 -6.1798661910065977e-01 -6.1000478736908659e-01 -6.0212604789844948e-01 
-5.9434906916302521e-01 -5.8667253683489795e-01 -5.7909515356183305e-01 -5.7161563874802268e-01 
-5.6423272833766125e-01 -5.5694517460131732e-01 -5.4975174592506437e-01 -5.4265122660233511e-01 
-5.3564241662846412e-01 -5.2872413149788400e-01 -5.2189520200394157e-01 -5.1515447404129822e-01 
-5.0850080841088607e-01 -5.0193308062737652e-01 -4.9545018072914226e-01 -4.8905101309067056e-01 
-4.8273449623739989e-01 -4.7649956266294824e-01 -4.7034515864870158e-01 -4.6427024408573359e-01 
-4.5827379229902376e-01 -4.5235478987394961e-01 -4.4651223648501082e-01 -4.4074514472678183e-01 
-4.3505253994702620e-01 -4.2943346008199024e-01 -4.2388695549379984e-01 -4.1841208880998138e-01 
-4.1300793476503150e-01 -4.0767358004405579e-01 -4.0240812312841151e-01 -3.9721067414334482e-01 
-3.9208035470760949e-01 -3.8701629778500762e-01 -3.8201764753786910e-01 -3.7708355918240188e-01 
-3.7221319884593335e-01 -3.6740574342597176e-01 -3.6266038045111176e-01 -3.5797630794371349e-01 
-3.5335273428437719e-01 -3.4878887807814735e-01 -3.4428396802246530e-01 -3.3983724277680694e-01 
-3.3544795083402457e-01 -3.3111535039333057e-01 -3.2683870923494074e-01 -3.2261730459631821e-01 
-3.1845042305003290e-01 -3.1433736038318699e-01 -3.1027742147839793e-01 -3.0626992019633020e-01 
-3.0231417925972659e-01 -2.9840953013895594e-01 -2.9455531293902132e-01 -2.9075087628804452e-01 
-2.8699557722717461e-01 -2.8328878110193434e-01 -2.7962986145495400e-01 -2.7601819992010662e-01 
-2.7245318611799479e-01 -2.6893421755280278e-01 -2.6546069951046575e-01 -2.6203204495816906e-01 
-2.5864767444513098e-01 -2.5530701600468064e-01 -2.5200950505759140e-01 -2.4875458431666295e-01 
-2.4554170369254491e-01 -2.4237032020076299e-01 -2.3923989786996078e-01 -2.3614990765131177e-01 
-2.3309982732911630e-01 -2.3008914143253875e-01 -2.2711734114849857e-01 -2.2418392423567288e-01 
-2.2128839493962327e-01 -2.1843026390900550e-01 -2.1560904811287421e-01 -2.1282427075904367e-01 
-2.1007546121351447e-01 -2.0736215492092958e-01 -2.0468389332606904e-01 -2.0204022379634734e-01 
-1.9943069954532247e-01 -1.9685487955718586e-01 -1.9431232851222735e-01 -1.9180261671327026e-01 
-1.8932532001304581e-01 -1.8688001974251683e-01 -1.8446630264011621e-01 -1.8208376078191002e-01 
-1.7973199151265232e-01 -1.7741059737774043e-01 -1.7511918605603910e-01 -1.7285737029358247e-01 
-1.7062476783812214e-01 -1.6842100137453050e-01 -1.6624569846102880e-01 -1.6409849146624853e-01 
-1.6197901750709567e-01 -1.5988691838742727e-01 -1.5782184053751327e-01 -1.5578343495428079e-01 
-1.5377135714233578e-01 -1.5178526705573797e-01 -1.4982482904053673e-01 -1.4788971177804042e-01 
-1.4597958822882692e-01 -1.4409413557746917e-01 -1.4223303517798244e-01 -1.4039597249996874e-01 
-1.3858263707546398e-01 -1.3679272244646454e-01 
</PP_LOCAL>


<PP_NONLOCAL>
  <PP_BETA>
  1  1      Beta    L
  1190  
 -1.9825645616214875e-08  -2.0347871924805319e-08  -2.0883854169631053e-08  -2.1433954695096760e-08 
 -2.1998545390102266e-08  -2.2578007939453544e-08  -2.3172734081896257e-08  -2.3783125874945980e-08 
 -2.4409595966694375e-08  -2.5052567874775047e-08  -2.5712476272677540e-08  -2.6389767283603183e-08 
 -2.7084898782061293e-08  -2.7798340703409800e-08  -2.8530575361549448e-08  -2.9282097774986335e-08 
 -3.0053416001483173e-08  -3.0845051481525726e-08  -3.1657539390836420e-08  -3.2491429002173471e-08 
 -3.3347284056660124e-08  -3.4225683144895170e-08  -3.5127220098102103e-08  -3.6052504389581673e-08 
 -3.7002161546739072e-08  -3.7976833573964070e-08  -3.8977179386650529e-08  -4.0003875256648239e-08 
 -4.1057615269448383e-08  -4.2139111793411768e-08  -4.3249095961356805e-08  -4.4388318164833262e-08 
 -4.5557548561415236e-08  -4.6757577595357298e-08  -4.7989216531964461e-08  -4.9253298006038663e-08 
 -5.0550676584771387e-08  -5.1882229345463517e-08  -5.3248856468463215e-08  -5.4651481845721669e-08 
 -5.6091053705379263e-08  -5.7568545252804237e-08  -5.9084955328515725e-08  -6.0641309083438611e-08 
 -6.2238658671944073e-08  -6.3878083963146098e-08  -6.5560693270933982e-08  -6.7287624103234509e-08 
 -6.9060043931010674e-08  -7.0879150977516305e-08  -7.2746175028340446e-08  -7.4662378262789343e-08 
 -7.6629056107167186e-08  -7.8647538110533759e-08  -8.0719188843530059e-08  -8.2845408820879729e-08 
 -8.5027635448190277e-08  -8.7267343993693708e-08  -8.9566048585583931e-08  -9.1925303235624910e-08 
 -9.4346702889721444e-08  -9.6831884506163218e-08  -9.9382528162270594e-08  -1.0200035819019072e-07 
 -1.0468714434261154e-07  -1.0744470298918127e-07  -1.1027489834444386e-07  -1.1317964372811811e-07 
 -1.1616090285857453e-07  -1.1922069118038352e-07  -1.2236107722683233e-07  -1.2558418401833149e-07 
 -1.2889219049765755e-07  -1.3228733300300060e-07  -1.3577190677981393e-07  -1.3934826753248676e-07 
 -1.4301883301688933e-07  -1.4678608467486806e-07  -1.5065256931179340e-07  -1.5462090081829714e-07 
 -1.5869376193736153e-07  -1.6287390607795460e-07  -1.6716415917643913e-07  -1.7156742160701230e-07 
 -1.7608667014246867e-07  -1.8072495996661095e-07  -1.8548542673966949e-07  -1.9037128871812741e-07 
 -1.9538584893038412e-07  -2.0053249740972618e-07  -2.0581471348611878e-07  -2.1123606813836387e-07 
 -2.1680022640821645e-07  -2.2251094987809163e-07  -2.2837209921403598e-07  -2.3438763677568368e-07 
 -2.4056162929496139e-07  -2.4689825062535084e-07  -2.5340178456357379e-07  -2.6007662774559723e-07 
 -2.6692729261892766e-07  -2.7395841049319346e-07  -2.8117473467108598e-07  -2.8858114366177045e-07 
 -2.9618264447894213e-07  -3.0398437602575578e-07  -3.1199161256891810e-07  -3.2020976730428947e-07 
 -3.2864439601640784e-07  -3.3730120083440945e-07  -3.4618603408688024e-07  -3.5530490225825077e-07 
 -3.6466397004940578e-07  -3.7426956454525208e-07  -3.8412817949206627e-07  -3.9424647968750960e-07 
 -4.0463130548628279e-07  -4.1528967742445996e-07  -4.2622880096563578e-07  -4.3745607137208679e-07 
 -4.4897907870424705e-07  -4.6080561295187204e-07  -4.7294366930036325e-07  -4.8540145353581104e-07 
 -4.9818738759241478e-07  -5.1131011524602224e-07  -5.2477850795764645e-07  -5.3860167087090195e-07 
 -5.5278894896742339e-07  -5.6734993338441958e-07  -5.8229446789863998e-07  -5.9763265558113393e-07 
 -6.1337486562730171e-07  -6.2953174036685528e-07  -6.4611420245843086e-07  -6.6313346227370620e-07 
 -6.8060102547603453e-07  -6.9852870079869203e-07  -7.1692860802802460e-07  -7.3581318619686749e-07 
 -7.5519520199379268e-07  -7.7508775839386255e-07  -7.9550430351672429e-07  -8.1645863971803431e-07 
 -8.3796493292035722e-07  -8.6003772218985498e-07  -8.8269192956522591e-07  -9.0594287014555399e-07 
 -9.2980626244387590e-07  -9.5429823901347500e-07  -9.7943535735407516e-07  -1.0052346111053169e-06 
 -1.0317134415350810e-06  -1.0588897493304192e-06  -1.0867819066990734e-06  -1.1154087697897598e-06 
 -1.1447896914396025e-06  -1.1749445342573671e-06  -1.2058936840512933e-06  -1.2376580636106500e-06 
 -1.2702591468502898e-06  -1.3037189733277969e-06  -1.3380601631430225e-06  -1.3733059322300838e-06 
 -1.4094801080521775e-06  -1.4466071457097975e-06  -1.4847121444732572e-06  -1.5238208647507003e-06 
 -1.5639597455030564e-06  -1.6051559221177212e-06  -1.6474372447530444e-06  -1.6908322971660298e-06 
 -1.7353704160359699e-06  -1.7810817107970787e-06  -1.8279970839935343e-06  -1.8761482521706905e-06 
 -1.9255677673165789e-06  -1.9762890388681942e-06  -2.0283463562974493e-06  -2.0817749122920550e-06 
 -2.1366108265470051e-06  -2.1928911701827488e-06  -2.2506539908065601e-06  -2.3099383382340314e-06 
 -2.3707842908881041e-06  -2.4332329828934587e-06  -2.4973266318846030e-06  -2.5631085675464365e-06 
 -2.6306232609066022e-06  -2.6999163543994074e-06  -2.7710346927216694e-06  -2.8440263545013134e-06 
 -2.9189406848001453e-06  -2.9958283284727795e-06  -3.0747412644042534e-06  -3.1557328406494877e-06 
 -3.2388578104983532e-06  -3.3241723694907090e-06  -3.4117341934064379e-06  -3.5016024772561792e-06 
 -3.5938379752990878e-06  -3.6885030421146977e-06  -3.7856616747566491e-06  -3.8853795560167544e-06 
 -3.9877240988286887e-06  -4.0927644918412893e-06  -4.2005717461922899e-06  -4.3112187435140976e-06 
 -4.4247802852040764e-06  -4.5413331429926457e-06  -4.6609561108433612e-06  -4.7837300582200778e-06 
 -4.9097379847571987e-06  -5.0390650763699888e-06  -5.1717987628428373e-06  -5.3080287769344307e-06 
 -5.4478472150398152e-06  -5.5913485994503021e-06  -5.7386299422533382e-06  -5.8897908109155328e-06 
 -6.0449333955931853e-06  -6.2041625782157700e-06  -6.3675860033891650e-06  -6.5353141511664616e-06 
 -6.7074604117355941e-06  -6.8841411620743059e-06  -7.0654758446241959e-06  -7.2515870480371125e-06 
 -7.4426005900483854e-06  -7.6386456025330464e-06  -7.8398546188023676e-06  -8.0463636631999148e-06 
 -8.2583123430575065e-06  -8.4758439430733650e-06  -8.6991055221762080e-06  -8.9282480129407576e-06 
 -9.1634263236218722e-06  -9.4047994428762814e-06  -9.6525305472426947e-06  -9.9067871114529908e-06 
 -1.0167741021648954e-05  -1.0435568691581193e-05  -1.0710451181868685e-05  -1.0992574322399704e-05 
 -1.1282128837956660e-05  -1.1579310477149970e-05  -1.1884320144747989e-05  -1.2197364037492439e-05 
 -1.2518653783491248e-05  -1.2848406585282885e-05  -1.3186845366668932e-05  -1.3534198923414192e-05 
 -1.3890702077916084e-05  -1.4256595837947982e-05  -1.4632127559583674e-05  -1.5017551114413095e-05 
 -1.5413127061162440e-05  -1.5819122821834465e-05  -1.6235812862488179e-05  -1.6663478878780068e-05 
 -1.7102409986392143e-05  -1.7552902916475779e-05  -1.8015262216243072e-05  -1.8489800454841687e-05 
 -1.8976838434652004e-05  -1.9476705408149669e-05  -1.9989739300479937e-05  -2.0516286937894440e-05 
 -2.1056704282204661e-05  -2.1611356671410729e-05  -2.2180619066668267e-05  -2.2764876305760104e-05 
 -2.3364523363244590e-05  -2.3979965617456002e-05  -2.4611619124538101e-05  -2.5259910899695932e-05 
 -2.5925279205855945e-05  -2.6608173849930213e-05  -2.7309056486884613e-05  -2.8028400931816870e-05 
 -2.8766693480255817e-05  -2.9524433236897868e-05  -3.0302132453003717e-05  -3.1100316872682922e-05 
 -3.1919526088300572e-05  -3.2760313905246575e-05  -3.3623248716313393e-05  -3.4508913885935876e-05 
 -3.5417908144552007e-05  -3.6350845993351405e-05  -3.7308358119684178e-05  -3.8291091823410932e-05 
 -3.9299711454479271e-05  -4.0334898861998312e-05  -4.1397353855091147e-05  -4.2487794675937469e-05 
 -4.3606958485285799e-05  -4.4755601860753307e-05  -4.5934501308249596e-05  -4.7144453786869756e-05 
 -4.8386277247612150e-05  -4.9660811186283762e-05  -5.0968917210967941e-05  -5.2311479624437356e-05 
 -5.3689406021905788e-05  -5.5103627904522530e-05  -5.6555101309024520e-05  -5.8044807453971045e-05 
 -5.9573753402997826e-05  -6.1142972745538922e-05  -6.2753526295476005e-05  -6.4406502808187250e-05 
 -6.6103019716480456e-05  -6.7844223885907314e-05  -6.9631292389969493e-05  -7.1465433305739807e-05 
 -7.3347886530436492e-05  -7.5279924619502120e-05  -7.7262853646753105e-05  -7.9298014087181344e-05 
 -8.1386781723003762e-05  -8.3530568573572563e-05  -8.5730823849773958e-05  -8.7989034933559925e-05 
 -9.0306728383275352e-05  -9.2685470965458701e-05  -9.5126870713814319e-05  -9.7632578016070408e-05 
 -1.0020428672945824e-04  -1.0284373532556430e-04  -1.0555270806533048e-04  -1.0833303620499463e-04 
 -1.1118659923378632e-04  -1.1411532614421399e-04  -1.1712119673580081e-04  -1.2020624295315046e-04 
 -1.2337255025924579e-04  -1.2662225904490823e-04  -1.2995756607536908e-04  -1.3338072597493070e-04 
 -1.3689405275071868e-04  -1.4049992135655492e-04  -1.4420076929800682e-04  -1.4799909827969726e-04 
 -1.5189747589598585e-04  -1.5589853736616509e-04  -1.6000498731534148e-04  -1.6421960160220317e-04 
 -1.6854522919491024e-04  -1.7298479409637185e-04  -1.7754129732021077e-04  -1.8221781891874885e-04 
 -1.8701752006438196e-04  -1.9194364518574993e-04  -1.9699952416014232e-04  -2.0218857456361978e-04 
 -2.0751430398037004e-04  -2.1298031237285651e-04  -2.1859029451435819e-04  -2.2434804248554321e-04 
 -2.3025744823676006e-04  -2.3632250621777502e-04  -2.4254731607672975e-04  -2.4893608543014078e-04 
 -2.5549313270580774e-04  -2.6222289006054908e-04  -2.6912990637473390e-04  -2.7621885032562697e-04 
 -2.8349451354162244e-04  -2.9096181383949157e-04  -2.9862579854682768e-04  -3.0649164791192918e-04 
 -3.1456467860341817e-04  -3.2285034730195663e-04  -3.3135425438647750e-04  -3.4008214771741893e-04 
 -3.4903992651951090e-04  -3.5823364536672887e-04  -3.6766951827210242e-04  -3.7735392288513428e-04 
 -3.8729340479965618e-04  -3.9749468197502677e-04  -4.0796464927364800e-04  -4.1871038311785535e-04 
 -4.2973914626932310e-04  -4.4105839273419763e-04  -4.5267577279726659e-04  -4.6459913818855077e-04 
 -4.7683654738579859e-04  -4.8939627105645258e-04  -5.0228679764275079e-04  -5.1551683909372174e-04 
 -5.2909533674793036e-04  -5.4303146737093657e-04  -5.5733464935152105e-04  -5.7201454906085562e-04 
 -5.8708108737888802e-04  -6.0254444639233412e-04  -6.1841507626878218e-04  -6.3470370231152862e-04 
 -6.5142133219988772e-04  -6.6857926341984614e-04  -6.8618909089004888e-04  -7.0426271478825125e-04 
 -7.2281234858348107e-04  -7.4185052727932009e-04  -7.6139011587383464e-04  -7.8144431804182948e-04 
 -8.0202668504527328e-04  -8.2315112487785702e-04  -8.4483191164982691e-04  -8.6708369521940271e-04 
 -8.8992151107722449e-04  -9.1336079049046768e-04  -9.3741737091342862e-04  -9.6210750667155489e-04 
 -9.8744787992609056e-04  -1.0134556119266748e-03  -1.0401482745594406e-03  -1.0675439021983410e-03 
 -1.0956610038676531e-03  -1.1245185757237843e-03  -1.1541361138647486e-03  -1.1845336274758822e-03 
 -1.2157316523205828e-03  -1.2477512645851134e-03  -1.2806140950867089e-03  -1.3143423438544894e-03 
 -1.3489587950929265e-03  -1.3844868325378562e-03  -1.4209504552152824e-03  -1.4583742936135093e-03 
 -1.4967836262793788e-03  -1.5362043968496918e-03  -1.5766632315291729e-03  -1.6181874570266189e-03 
 -1.6608051189611992e-03  -1.7045450007511520e-03  -1.7494366429974693e-03  -1.7955103633754603e-03 
 -1.8427972770474277e-03  -1.8913293176100446e-03  -1.9411392585903359e-03  -1.9922607355045705e-03 
 -2.0447282684946918e-03  -2.0985772855573277e-03  -2.1538441463807801e-03  -2.2105661668058224e-03 
 -2.2687816439264951e-03  -2.3285298818475323e-03  -2.3898512181154893e-03  -2.4527870508410420e-03 
 -2.5173798665304105e-03  -2.5836732686442937e-03  -2.6517120069031734e-03  -2.7215420073583565e-03 
 -2.7932104032485829e-03  -2.8667655666625240e-03  -2.9422571410280701e-03  -3.0197360744497596e-03 
 -3.0992546539163274e-03  -3.1808665404008066e-03  -3.2646268048763119e-03  -3.3505919652710692e-03 
 -3.4388200243870163e-03  -3.5293705088067545e-03  -3.6223045088143759e-03  -3.7176847193562488e-03 
 -3.8155754820685998e-03  -3.9160428283992613e-03  -4.0191545238518010e-03  -4.1249801133808051e-03 
 -4.2335909679679469e-03  -4.3450603324090816e-03  -4.4594633743434897e-03  -4.5768772345570301e-03 
 -4.6973810785918826e-03  -4.8210561496962916e-03  -4.9479858231485678e-03  -5.0782556619904454e-03 
 -5.2119534742058188e-03  -5.3491693713816537e-03  -5.4899958288888830e-03  -5.6345277476219646e-03 
 -5.7828625173367764e-03  -5.9351000816274093e-03  -6.0913430045834759e-03  -6.2516965391705964e-03 
 -6.4162686973776419e-03  -6.5851703221754872e-03  -6.7585151613330351e-03  -6.9364199431374216e-03 
 -7.1190044540664129e-03  -7.3063916184621701e-03  -7.4987075802566668e-03  -7.6960817868004230e-03 
 -7.8986470748471978e-03  -8.1065397587487317e-03  -8.3198997209148300e-03  -8.5388705045953486e-03 
 -8.7635994090420142e-03  -8.9942375871094101e-03  -9.2309401453556962e-03  -9.4738662467051971e-03 
 -9.7231792157363110e-03  -9.9790466466597380e-03  -1.0241640514053466e-02  -1.0511137286422429e-02 
 -1.0787718042652454e-02  -1.1071568591429387e-02  -1.1362879593696387e-02  -1.1661846688223296e-02 
 -1.1968670620364401e-02  -1.2283557374081979e-02  -1.2606718307315154e-02  -1.2938370290775002e-02 
 -1.3278735850248849e-02  -1.3628043312498363e-02  -1.3986526954837927e-02  -1.4354427158481538e-02 
 -1.4731990565748481e-02  -1.5119470241219745e-02  -1.5517125836939217e-02  -1.5925223761755623e-02 
 -1.6344037354902960e-02  -1.6773847063919451e-02  -1.7214940627006819e-02  -1.7667613259933823e-02 
 -1.8132167847589982e-02  -1.8608915140297562e-02  -1.9098173954991936e-02  -1.9600271381382463e-02 
 -2.0115542993208238e-02  -2.0644333064705270e-02  -2.1186994792403376e-02  -2.1743890522373806e-02 
 -2.2315391983050287e-02  -2.2901880523748457e-02  -2.3503747359010983e-02  -2.4121393818907492e-02 
 -2.4755231605420765e-02  -2.5405683055052888e-02  -2.6073181407786753e-02  -2.6758171082540909e-02 
 -2.7461107959257450e-02  -2.8182459667764698e-02  -2.8922705883558983e-02  -2.9682338630650864e-02 
 -3.0461862591623801e-02  -3.1261795425055153e-02  -3.2082668090450725e-02  -3.2925025180846244e-02 
 -3.3789425263230873e-02  -3.4676441226949385e-02  -3.5586660640240755e-02  -3.6520686115073600e-02 
 -3.7479135680438730e-02  -3.8462643164261304e-02  -3.9471858584095965e-02  -4.0507448546769360e-02 
 -4.1570096657134882e-02  -4.2660503936105980e-02  -4.3779389248134092e-02  -4.4927489738297910e-02 
 -4.6105561279171203e-02  -4.7314378927635410e-02  -4.8554737391804041e-02  -4.9827451508224686e-02 
 -5.1133356729523113e-02  -5.2473309622654798e-02  -5.3848188377925058e-02  -5.5258893328939671e-02 
 -5.6706347483644247e-02  -5.8191497066609386e-02  -5.9715312072713786e-02  -6.1278786832377329e-02 
 -6.2882940588488964e-02  -6.4528818085172940e-02  -6.6217490168529999e-02  -6.7950054399486537e-02 
 -6.9727635678877936e-02  -7.1551386884885521e-02  -7.3422489522941226e-02  -7.5342154388203311e-02 
 -7.7311622240701372e-02  -7.9332164493236254e-02  -8.1405083912112972e-02  -8.3531715330771694e-02 
 -8.5713426376371249e-02  -8.7951618209366103e-02  -9.0247726276103432e-02  -9.2603221074452541e-02 
 -9.5019608932462279e-02  -9.7498432800024293e-02  -1.0004127305350158e-01  -1.0264974831326190e-01 
 -1.0532551627403372e-01  -1.0807027454797850e-01  -1.1088576152035054e-01  -1.1377375721758626e-01 
 -1.1673608418764035e-01  -1.1977460839235253e-01  -1.2289124011159859e-01  -1.2608793485894623e-01 
 -1.2936669430849768e-01  -1.3272956723256488e-01  -1.3617865044978031e-01  -1.3971608978320457e-01 
 -1.4334408102794546e-01  -1.4706487092775411e-01  -1.5088075816001301e-01  -1.5479409432847424e-01 
 -1.5880728496305199e-01  -1.6292279052590747e-01  -1.6714312742300494e-01  -1.7147086902024408e-01 
 -1.7590864666320716e-01  -1.8045915069947904e-01  -1.8512513150242066e-01  -1.8990940049519062e-01 
 -1.9481483117372350e-01  -1.9984436012727350e-01  -2.0500098805504346e-01  -2.1028778077730437e-01 
 -2.1570787023931168e-01  -2.2126445550620208e-01  -2.2696080374694277e-01  -2.3280025120526940e-01 
 -2.3878620415542676e-01  -2.4492213984037828e-01  -2.5121160739001375e-01  -2.5765822871672628e-01 
 -2.6426569938557232e-01  -2.7103778945606544e-01  -2.7797834429247348e-01  -2.8509128533931360e-01 
 -2.9238061085854750e-01  -2.9985039662477814e-01  -3.0750479657454743e-01  -3.1534804340561534e-01 
 -3.2338444912187980e-01  -3.3161840551935662e-01  -3.4005438460840604e-01  -3.4869693896712928e-01 
 -3.5755070202060379e-01  -3.6662038824034976e-01  -3.7591079325813948e-01  -3.8542679388796725e-01 
 -3.9517334804969573e-01  -4.0515549458758054e-01  -4.1537835297655124e-01  -4.2584712290879029e-01 
 -4.3656708375281089e-01  -4.4754359387687087e-01  -4.5878208982820323e-01  -4.7028808535916083e-01 
 -4.8206717029098572e-01  -4.9412500920551988e-01  -5.0646733995476978e-01  -5.1909997197781321e-01 
 -5.3202878441411827e-01  -5.4525972400191547e-01  -5.5879880274981331e-01  -5.7265209536940498e-01 
 -5.8682573645616576e-01  -6.0132591740547070e-01  -6.1615888305010325e-01  -6.3133092800516577e-01 
 -6.4684839270582151e-01  -6.6271765912283698e-01  -6.7894514614042700e-01  -6.9553730458043450e-01 
 -7.1250061185641977e-01  -7.2984156624078422e-01  -7.4756668072760424e-01  -7.6568247647342147e-01 
 -7.8419547579782589e-01  -8.0311219472525486e-01  -8.2243913504906929e-01  -8.4218277589859580e-01 
 -8.6234956478951885e-01  -8.8294590813769835e-01  -9.0397816121623475e-01  -9.2545261753539076e-01 
 -9.4737549762481488e-01  -9.6975293719737232e-01  -9.9259097467386515e-01  -1.0158955380478825e+00 
 -1.0396724310701355e+00  -1.0639273187317380e+00  -1.0886657120261618e+00  -1.1138929519698904e+00 
 -1.1396141928622185e+00  -1.1658343847651678e+00  -1.1925582551851353e+00  -1.2197902899386310e+00 
 -1.2475347131853538e+00  -1.2757954666129023e+00  -1.3045761877585613e+00  -1.3338801874549577e+00 
 -1.3637104263878825e+00  -1.3940694907562254e+00  -1.4249595670258604e+00  -1.4563824157713563e+00 
 -1.4883393446016338e+00  -1.5208311801681826e+00  -1.5538582392571141e+00  -1.5874202989692519e+00 
 -1.6215165659955952e+00  -1.6561456449988889e+00  -1.6913055061156517e+00  -1.7269934515968903e+00 
 -1.7632060816098671e+00  -1.7999392592276466e+00  -1.8371880746378149e+00  -1.8749468086066055e+00 
 -1.9132088952398336e+00  -1.9519668840874063e+00  -1.9912124016437709e+00  -2.0309361123025162e+00 
 -2.0711276788294093e+00  -2.1117757224243578e+00  -2.1528677824492943e+00  -2.1943902759055516e+00 
 -2.2363284567510751e+00  -2.2786663751547764e+00  -2.3213868367922283e+00  -2.3644713622941929e+00 
 -2.4079001469664782e+00  -2.4516520209069790e+00  -2.4957044096529875e+00  -2.5400332954990916e+00 
 -2.5846131796333358e+00  -2.6294170452464867e+00  -2.6744163217765133e+00  -2.7195808504575232e+00 
 -2.7648788513495623e+00  -2.8102768920327055e+00  -2.8557398581559057e+00  -2.9012309260380191e+00 
 -2.9467115375253354e+00  -2.9921413773167838e+00  -3.0374783529748606e+00  -3.0826785778469907e+00 
 -3.1276963571288743e+00  -3.1724841773079131e+00  -3.2169926992314166e+00  -3.2611707550507107e+00 
 -3.3049653492984481e+00  -3.3483216643624849e+00  -3.3911830706252095e+00  -3.4334911415424210e+00 
 -3.4751856739404032e+00  -3.5162047138136159e+00  -3.5564845879083178e+00  -3.5959599413791850e+00 
 -3.6345637818064036e+00  -3.6722275298596778e+00  -3.7088810768927578e+00  -3.7444528497473444e+00 
 -3.7788698830385399e+00  -3.8120578991848322e+00  -3.8439413964343627e+00  -3.8744437451254319e+00 
 -3.9034872924030806e+00  -3.9309934755951406e+00  -3.9568829444304510e+00  -3.9810756922594099e+00 
 -4.0034911964125337e+00  -4.0240485678070410e+00  -4.0426667098846139e+00  -4.0592644869363301e+00 
 -4.0737609018430732e+00  -4.0860752832330105e+00  -4.0961274820313403e+00  -4.1038380773528482e+00 
 -4.1091285916647564e+00  -4.1119217151264360e+00  -4.1121415389940790e+00  -4.1097137979623799e+00 
 -4.1045661213019633e+00  -4.0966282926402915e+00  -4.0858325182249544e+00  -4.0721137035013504e+00 
 -4.0554097378305407e+00  -4.0356617871677969e+00  -4.0128145945157403e+00  -3.9868167879581198e+00 
 -3.9576211960689296e+00  -3.9251851704759919e+00  -3.8894709153360383e+00  -3.8504458234485863e+00 
 -3.8080828186963211e+00  -3.7623607044483531e+00  -3.7132645174977097e+00  -3.6607858870236289e+00 
 -3.6049233979703610e+00  -3.5456829581155223e+00  -3.4830781679599045e+00  -3.4171306924057299e+00 
 -3.3478706329987347e+00  -3.2753368992903624e+00  -3.1995775776266662e+00  -3.1206502953905799e+00 
 -3.0386225784096395e+00  -2.9535721988947192e+00  -2.8655875108916904e+00  -2.7747677698095079e+00 
 -2.6812234321330091e+00  -2.5850764309367915e+00  -2.4864604222887663e+00  -2.3855209970686868e+00 
 -2.2824158521310451e+00  -2.1773149141163342e+00  -2.0704004085659831e+00  -1.9618668663329131e+00 
 -1.8519210586152910e+00  -1.7407818512938522e+00  -1.6286799686493729e+00  -1.5158576560109034e+00 
 -1.4025682304810470e+00  -1.2890755086587335e+00  -1.1756531002961865e+00  -1.0625835571627087e+00 
 -9.5015736712361065e-01  -8.3867178466095327e-01  -7.2842949083987596e-01  -6.1973707812170764e-01 
 -5.1290335848012591e-01  -4.0823749699429640e-01  -3.0604697743934139e-01  -2.0663541129368271e-01 
 -1.1030020691883625e-01  -1.7330121285645268e-02  7.1997277662581127e-02  1.5741820431469941e-01 
 2.3868526540746263e-01  3.1557004312936499e-01  3.8786560389019537e-01  4.5538888268725053e-01 
 5.1798289179693657e-01  5.7551870302788954e-01  6.2789715519372913e-01  6.7505024288864446e-01 
 7.1694214900326048e-01  7.5356989143129605e-01  7.8496356362894337e-01  8.1118615849395237e-01 
 8.3233297477249213e-01  8.4853061427763676e-01  8.5993558617233234e-01  8.6673254121599652e-01 
 8.6913216421907580e-01  8.6736875883097619e-01  8.6169756940309894e-01  8.5239182030465199e-01 
 8.3973961979331813e-01  8.2404070706590193e-01  8.0560308116805823e-01  7.8473958783217368e-01 
 7.6176451101272635e-01  7.3699022256117441e-01  7.1072394473932909e-01  6.8326467929479084e-01 
 6.5490035427758153e-01  6.2590523558598088e-01  5.9653764443699497e-01  5.6703801472574733e-01 
 5.3762731583175172e-01  5.0850585718736263e-01  4.7985248123035701e-01  4.5182414162148954e-01 
 4.2455585421270126e-01  3.9816099956371132e-01  3.7273194813436428e-01  3.4834097287511445e-01 
 3.2504140897344519e-01  3.0286901709146125e-01  2.8184350457638940e-01  2.6197015879948615e-01 
 2.4324154787638771e-01  2.2563924638880956e-01  2.0913554716864419e-01  1.9369512449860410e-01 
 1.7927661899489686e-01  1.6583411972679915e-01  1.5331852456797507e-01  1.4167876515618114e-01 
 1.3086288797888682e-01  1.2081898785362936e-01  1.1149599431487983e-01  1.0284431507814806e-01 
 9.4816343786079241e-02  8.7366841629926251e-02  8.0453204202684508e-02  7.4035626116785200e-02 
 6.8077176560195907e-02  6.2543799052336355e-02  5.7404248955262485e-02  5.2629980424668800e-02 
 4.8194995479256035e-02  4.4075665507938462e-02  4.0250534979488967e-02  3.6700115837594631e-02 
 3.3406679849127381e-02  3.0354054966552364e-02  2.7527430597614821e-02  2.4913175570216561e-02 
 2.2498671555226901e-02  2.0272163778883637e-02  1.8222630028126529e-02  1.6339668231988087e-02 
 1.4613402292433466e-02  1.3034405338106776e-02  1.1593639181323247e-02  1.0282408467083160e-02 
 9.0923278057434831e-03  8.0153000695578226e-03  7.0435039977119916e-03  6.1693892838273713e-03 
 5.3856774030614993e-03  4.6853665614147713e-03  4.0617393067141905e-03  3.5083715185063751e-03 
 3.0191416832986047e-03  2.5882395539049605e-03  2.2101734800116036e-03  1.8797758758389372e-03 
 1.5922064556004231e-03  1.3429530153409046e-03  1.1278296688499185e-03  9.4297255487073186e-04 
 7.8483312281649783e-04  6.5016917536892004e-04  5.3603389990042360e-04  4.3976315815971435e-04 
 3.5896132686173444e-04  2.9148599257196913e-04  2.3543180440209442e-04  1.8911377936424193e-04 
 1.5105033942539422e-04  1.1994633796199203e-04  9.4676307857408267e-05  7.4268135221852949e-05 
 5.7887332790250438e-05  4.4822056508004505e-05  3.4468978518764879e-05  2.6320100498533414e-05 
 1.9950563653906332e-05  1.5007486243983182e-05  1.1199836570476828e-05  8.2893292897906488e-06 
 6.0823157919368858e-06  4.4226253228301592e-06  3.1853024611775548e-06  2.2711783817748935e-06 
 1.6022078506335423e-06  1.1175008615440909e-06  7.6997695089095771e-07  5.2357120312076434e-07 
 3.5092346030723301e-07  2.3148594999040446e-07  1.4998913368307788e-07  9.5210764152102840e-08 
 5.8998662881248601e-08  3.5503361359365563e-08  2.0582304507392078e-08  1.1342638125121452e-08 
 5.7945835407455268e-09  2.5919607378956188e-09  8.4051065915481287e-10  -4.1733893542668279e-11 
 -4.2466782369413247e-10  -5.3692015520053682e-10  -5.1503667984521849e-10  -4.3701654291159144e-10 
 -3.4471798812919442e-10  -2.5848802915506764e-10  -1.8646588091816524e-10  -1.3031658552179562e-10 
 -8.8629822213882743e-11  -5.8833934639596175e-11  -3.8196832950166222e-11  -2.4288279558287330e-11 
 -1.5141645502321652e-11  -9.2611392732961661e-12  -5.5601250736253826e-12  -3.2777529642425407e-12 
 -1.8976991054982834e-12  -1.0791531287617241e-12  -6.0277235862640307e-13  -3.3068936876824843e-13 
 -1.7817295439832631e-13  -9.4266148065036645e-14  -4.8964748603719862e-14  -2.4964919615471894e-14 
 -1.2490740374855047e-14  -6.1310792570146888e-15  -2.9515150952238073e-15  -1.3930869084948215e-15 
 -6.4441755258777288e-16  -2.9207123409204383e-16  -1.2964708721123683e-16  -5.6331686483545932e-17 
 -2.3951458670468053e-17  -9.9619498348039256e-18  -4.0497493537325423e-18  -1.6092197010498023e-18 
 -6.2312484989080031e-19  -2.3346435970975710e-19  -8.9042135231159689e-20  -3.1926496582745315e-20 
 -1.1750504351441106e-20  -3.1138868826949080e-21  -1.2339388642979176e-21  -9.7487835751289060e-22 
 0.0000000000000000e+00  0.0000000000000000e+00  0.0000000000000000e+00  0.0000000000000000e+00 
 0.0000000000000000e+00  0.0000000000000000e+00  0.0000000000000000e+00  0.0000000000000000e+00 
 0.0000000000000000e+00  0.0000000000000000e+00  0.0000000000000000e+00  0.0000000000000000e+00 
 0.0000000000000000e+00  0.0000000000000000e+00  0.0000000000000000e+00  0.0000000000000000e+00 
 0.0000000000000000e+00  0.0000000000000000e+00  0.0000000000000000e+00  0.0000000000000000e+00 
 0.0000000000000000e+00  0.0000000000000000e+00  0.0000000000000000e+00  0.0000000000000000e+00 
 0.0000000000000000e+00  0.0000000000000000e+00  0.0000000000000000e+00  0.0000000000000000e+00 
 0.0000000000000000e+00  0.0000000000000000e+00  0.0000000000000000e+00  0.0000000000000000e+00 
 0.0000000000000000e+00  0.0000000000000000e+00  0.0000000000000000e+00  0.0000000000000000e+00 
 0.0000000000000000e+00  0.0000000000000000e+00  0.0000000000000000e+00  0.0000000000000000e+00 
 0.0000000000000000e+00  0.0000000000000000e+00  0.0000000000000000e+00  0.0000000000000000e+00 
 0.0000000000000000e+00  0.0000000000000000e+00  0.0000000000000000e+00  0.0000000000000000e+00 
 0.0000000000000000e+00  0.0000000000000000e+00  0.0000000000000000e+00  0.0000000000000000e+00 
 0.0000000000000000e+00  0.0000000000000000e+00  0.0000000000000000e+00  0.0000000000000000e+00 
 0.0000000000000000e+00  0.0000000000000000e+00  0.0000000000000000e+00  0.0000000000000000e+00 
 0.0000000000000000e+00  0.0000000000000000e+00  0.0000000000000000e+00  0.0000000000000000e+00 
 0.0000000000000000e+00  0.0000000000000000e+00  0.0000000000000000e+00  0.0000000000000000e+00 
 0.0000000000000000e+00  0.0000000000000000e+00  0.0000000000000000e+00  0.0000000000000000e+00 
 0.0000000000000000e+00  0.0000000000000000e+00  0.0000000000000000e+00  0.0000000000000000e+00 
 0.0000000000000000e+00  0.0000000000000000e+00  0.0000000000000000e+00  0.0000000000000000e+00 
 0.0000000000000000e+00  0.0000000000000000e+00  0.0000000000000000e+00  0.0000000000000000e+00 
 0.0000000000000000e+00  0.0000000000000000e+00  0.0000000000000000e+00  0.0000000000000000e+00 
 0.0000000000000000e+00  0.0000000000000000e+00  0.0000000000000000e+00  0.0000000000000000e+00 
 0.0000000000000000e+00  0.0000000000000000e+00  0.0000000000000000e+00  0.0000000000000000e+00 
 0.0000000000000000e+00  0.0000000000000000e+00  0.0000000000000000e+00  0.0000000000000000e+00 
 0.0000000000000000e+00  0.0000000000000000e+00  0.0000000000000000e+00  0.0000000000000000e+00 
 0.0000000000000000e+00  0.0000000000000000e+00  0.0000000000000000e+00  0.0000000000000000e+00 
 0.0000000000000000e+00  0.0000000000000000e+00  0.0000000000000000e+00  0.0000000000000000e+00 
 0.0000000000000000e+00  0.0000000000000000e+00  0.0000000000000000e+00  0.0000000000000000e+00 
 0.0000000000000000e+00  0.0000000000000000e+00  0.0000000000000000e+00  0.0000000000000000e+00 
 0.0000000000000000e+00  0.0000000000000000e+00  0.0000000000000000e+00  0.0000000000000000e+00 
 0.0000000000000000e+00  0.0000000000000000e+00  0.0000000000000000e+00  0.0000000000000000e+00 
 0.0000000000000000e+00  0.0000000000000000e+00  0.0000000000000000e+00  0.0000000000000000e+00 
 0.0000000000000000e+00  0.0000000000000000e+00  0.0000000000000000e+00  0.0000000000000000e+00 
 0.0000000000000000e+00  0.0000000000000000e+00  0.0000000000000000e+00  0.0000000000000000e+00 
 0.0000000000000000e+00  0.0000000000000000e+00  0.0000000000000000e+00  0.0000000000000000e+00 
 0.0000000000000000e+00  0.0000000000000000e+00  0.0000000000000000e+00  0.0000000000000000e+00 
 0.0000000000000000e+00  0.0000000000000000e+00  0.0000000000000000e+00  0.0000000000000000e+00 
 0.0000000000000000e+00  0.0000000000000000e+00  0.0000000000000000e+00  0.0000000000000000e+00 
 0.0000000000000000e+00  0.0000000000000000e+00  0.0000000000000000e+00  0.0000000000000000e+00 
 0.0000000000000000e+00  0.0000000000000000e+00  0.0000000000000000e+00  0.0000000000000000e+00 
 0.0000000000000000e+00  0.0000000000000000e+00  0.0000000000000000e+00  0.0000000000000000e+00 
 0.0000000000000000e+00  0.0000000000000000e+00  0.0000000000000000e+00  0.0000000000000000e+00 
 0.0000000000000000e+00  0.0000000000000000e+00 
  </PP_BETA>
  <PP_BETA>
  2  1      Beta    L
  1190  
 -8.7886338360920020e-09  -9.0201347867917295e-09  -9.2577336920899170e-09  -9.5015911778935386e-09 
 -9.7518721011482483e-09  -1.0008745661287946e-08  -1.0272385514620073e-08  -1.0542969891723840e-08 
 -1.0820681717940910e-08  -1.1105708737039879e-08  -1.1398243638138210e-08  -1.1698484185967414e-08 
 -1.2006633354569519e-08  -1.2322899464515265e-08  -1.2647496323736724e-08  -1.2980643372069627e-08 
 -1.3322565829602991e-08  -1.3673494848936498e-08  -1.4033667671448455e-08  -1.4403327787679985e-08 
 -1.4782725101943888e-08  -1.5172116101269468e-08  -1.5571764028797545e-08  -1.5981939061742780e-08 
 -1.6402918494043843e-08  -1.6834986923824551e-08  -1.7278436445793097e-08  -1.7733566848709178e-08 
 -1.8200685818052573e-08  -1.8680109144030277e-08  -1.9172160935062629e-08  -1.9677173836893014e-08 
 -2.0195489257468926e-08  -2.0727457597746870e-08  -2.1273438488576567e-08  -2.1833801033825247e-08 
 -2.2408924059905791e-08  -2.2999196371877798e-08  -2.3605017016294694e-08  -2.4226795550974249e-08 
 -2.4864952321875249e-08  -2.5519918747267491e-08  -2.6192137609386725e-08  -2.6882063353772442e-08 
 -2.7590162396490229e-08  -2.8316913439446837e-08  -2.9062807794010867e-08  -2.9828349713157811e-08 
 -3.0614056732364376e-08  -3.1420460019482083e-08  -3.2248104733826860e-08  -3.3097550394727649e-08 
 -3.3969371259782451e-08  -3.4864156713078482e-08  -3.5782511663638194e-08  -3.6725056954360688e-08 
 -3.7692429781735163e-08  -3.8685284126609915e-08  -3.9704291196308183e-08  -4.0750139878389980e-08 
 -4.1823537206366064e-08  -4.2925208837679443e-08  -4.4055899544277516e-08  -4.5216373716106035e-08 
 -4.6407415877865889e-08  -4.7629831219381354e-08  -4.8884446139939299e-08  -5.0172108806966207e-08 
 -5.1493689729421597e-08  -5.2850082346295325e-08  -5.4242203630606036e-08  -5.5670994709309725e-08 
 -5.7137421499537399e-08  -5.8642475361591621e-08  -6.0187173769143649e-08  -6.1772560997084449e-08 
 -6.3399708827493761e-08  -6.5069717274205852e-08  -6.6783715326460272e-08  -6.8542861712141394e-08 
 -7.0348345681122761e-08  -7.2201387809244544e-08  -7.4103240823469545e-08  -7.6055190448773768e-08 
 -7.8058556277345495e-08  -8.0114692660679446e-08  -8.2224989625169644e-08  -8.4390873811820021e-08 
 -8.6613809440707953e-08  -8.8895299300851957e-08  -9.1236885766154593e-08  -9.3640151838105063e-08 
 -9.6106722215948521e-08  -9.8638264395044140e-08  -1.0123648979415486e-07  -1.0390315491243161e-07 
 -1.0664006251687320e-07  -1.0944906286106405e-07  -1.1233205493601705e-07  -1.1529098775396211e-07 
 -1.1832786166595263e-07  -1.2144472971417830e-07  -1.2464369901989919e-07  -1.2792693220793933e-07 
 -1.3129664886870273e-07  -1.3475512705870029e-07  -1.3830470484060220e-07  -1.4194778186385629e-07 
 -1.4568682098694154e-07  -1.4952434994235386e-07  -1.5346296304544787e-07  -1.5750532294829246e-07 
 -1.6165416243972363e-07  -1.6591228629281303e-07  -1.7028257316099992e-07  -1.7476797752416923e-07 
 -1.7937153168599189e-07  -1.8409634782387520e-07  -1.8894562009291306e-07  -1.9392262678525378e-07 
 -1.9903073254634979e-07  -2.0427339064958414e-07  -2.0965414533081277e-07  -2.1517663418440155e-07 
 -2.2084459062237645e-07  -2.2666184639835035e-07  -2.3263233419793213e-07  -2.3876009029736961e-07 
 -2.4504925729222376e-07  -2.5150408689791866e-07  -2.5812894282406017e-07  -2.6492830372446745e-07 
 -2.7190676622491009e-07  -2.7906904803059908e-07  -2.8641999111553282e-07  -2.9396456499585103e-07 
 -3.0170787008941520e-07  -3.0965514116387942e-07  -3.1781175087559088e-07  -3.2618321340170430e-07 
 -3.3477518816797171e-07  -3.4359348367472543e-07  -3.5264406142364043e-07  -3.6193303994793170e-07 
 -3.7146669894870895e-07  -3.8125148354028985e-07  -3.9129400860733479e-07  -4.0160106327675657e-07 
 -4.1217961550741944e-07  -4.2303681680074085e-07  -4.3418000703536856e-07  -4.4561671942921092e-07 
 -4.5735468563217198e-07  -4.6940184095303082e-07  -4.8176632972400494e-07  -4.9445651080661888e-07 
 -5.0748096324260124e-07  -5.2084849205363645e-07  -5.3456813419387892e-07  -5.4864916465927027e-07 
 -5.6310110275777498e-07  -5.7793371854478261e-07  -5.9315703942802439e-07  -6.0878135694646553e-07 
 -6.2481723372776539e-07  -6.4127551062899735e-07  -6.5816731406546455e-07  -6.7550406353256366e-07 
 -6.9329747932577751e-07  -7.1155959046402291e-07  -7.3030274282170329e-07  -7.4953960747496947e-07 
 -7.6928318926782440e-07  -7.8954683560387031e-07  -8.1034424546963486e-07  -8.3168947869557919e-07 
 -8.5359696546105324e-07  -8.7608151604961372e-07  -8.9915833086130910e-07  -9.2284301068869447e-07 
 -9.4715156726352643e-07  -9.7210043408126759e-07  -9.9770647751071352e-07  -1.0239870081962634e-06 
 -1.0509597927605253e-06  -1.0786430658151889e-06  -1.1070555422882663e-06  -1.1362164300760486e-06 
 -1.1661454430283175e-06  -1.1968628142756054e-06  -1.2283893099075012e-06  -1.2607462430112558e-06 
 -1.2939554880801739e-06  -1.3280394958015374e-06  -1.3630213082340516e-06  -1.3989245743850731e-06 
 -1.4357735661981664e-06  -1.4735931949617687e-06  -1.5124090281500862e-06  -1.5522473067075823e-06 
 -1.5931349627887563e-06  -1.6350996379652024e-06  -1.6781697019122519e-06  -1.7223742715878423e-06 
 -1.7677432309165616e-06  -1.8143072509921940e-06  -1.8620978108124137e-06  -1.9111472185596408e-06 
 -1.9614886334424501e-06  -2.0131560881123081e-06  -2.0661845116707697e-06  -2.1206097532827072e-06 
 -2.1764686064115247e-06  -2.2337988336927527e-06  -2.2926391924628177e-06  -2.3530294609602617e-06 
 -2.4150104652171249e-06  -2.4786241066586607e-06  -2.5439133904300378e-06  -2.6109224544691967e-06 
 -2.6796965993455013e-06  -2.7502823188843487e-06  -2.8227273315984693e-06  -2.8970806129471270e-06 
 -2.9733924284450559e-06  -3.0517143676435075e-06  -3.1320993790063663e-06  -3.2146018057049421e-06 
 -3.2992774223555882e-06  -3.3861834727250467e-06  -3.4753787084289287e-06  -3.5669234286495684e-06 
 -3.6608795209000434e-06  -3.7573105028619515e-06  -3.8562815653252011e-06  -3.9578596162588684e-06 
 -4.0621133260428902e-06  -4.1691131738911742e-06  -4.2789314954975237e-06  -4.3916425319365667e-06 
 -4.5073224798527385e-06  -4.6260495429712764e-06  -4.7479039849660088e-06  -4.8729681837197019e-06 
 -5.0013266870136353e-06  -5.1330662696840337e-06  -5.2682759922840112e-06  -5.4070472612906758e-06 
 -5.5494738908980708e-06  -5.6956521664377541e-06  -5.8456809094698440e-06  -5.9996615445885598e-06 
 -6.1576981679873865e-06  -6.3198976178302401e-06  -6.4863695464761440e-06  -6.6572264946062818e-06 
 -6.8325839673035076e-06  -7.0125605121357450e-06  -7.1972777992960043e-06  -7.3868607038532703e-06 
 -7.5814373901697525e-06  -7.7811393985416741e-06  -7.9861017341220094e-06  -8.1964629581854366e-06 
 -8.4123652817970587e-06  -8.6339546619483504e-06  -8.8613809002251440e-06  -9.0947977440745491e-06 
 -9.3343629907391334e-06  -9.5802385939286817e-06  -9.8325907733017165e-06  -1.0091590126830698e-05 
 -1.0357411746127046e-05  -1.0630235334803802e-05  -1.0910245329956181e-05  -1.1197631026842073e-05 
 -1.1492586706846768e-05  -1.1795311768818706e-05  -1.2106010863864847e-05  -1.2424894033696943e-05 
 -1.2752176852622408e-05  -1.3088080573275581e-05  -1.3432832276188222e-05  -1.3786665023300156e-05 
 -1.4149818015513921e-05  -1.4522536754400093e-05  -1.4905073208162189e-05  -1.5297685981973661e-05 
 -1.5700640492801756e-05  -1.6114209148836435e-05  -1.6538671533645382e-05  -1.6974314595179328e-05 
 -1.7421432839754569e-05  -1.7880328531132689e-05  -1.8351311894821819e-05  -1.8834701327782171e-05 
 -1.9330823613659599e-05  -1.9840014143688363e-05  -2.0362617143412107e-05  -2.0898985905376187e-05 
 -2.1449483027948904e-05  -2.2014480660432618e-05  -2.2594360754630793e-05  -2.3189515323040822e-05 
 -2.3800346703847085e-05  -2.4427267832893252e-05  -2.5070702522818031e-05  -2.5731085749542468e-05 
 -2.6408863946302691e-05  -2.7104495305426868e-05  -2.7818450088060169e-05  -2.8551210942046916e-05 
 -2.9303273228185205e-05  -3.0075145355073785e-05  -3.0867349122778241e-05  -3.1680420075547902e-05 
 -3.2514907863822518e-05  -3.3371376615772906e-05  -3.4250405318626805e-05  -3.5152588210037418e-05 
 -3.6078535179759418e-05  -3.7028872181903372e-05  -3.8004241658047676e-05  -3.9005302971493376e-05 
 -4.0032732852955613e-05  -4.1087225857992676e-05  -4.2169494836481838e-05  -4.3280271414458934e-05 
 -4.4420306488647739e-05  -4.5590370734012393e-05  -4.6791255124676783e-05  -4.8023771468561997e-05 
 -4.9288752956103486e-05  -5.0587054723418493e-05  -5.1919554430304180e-05  -5.3287152853456888e-05 
 -5.4690774495313450e-05  -5.6131368208925605e-05  -5.7609907839289682e-05  -5.9127392881564933e-05 
 -6.0684849156624855e-05  -6.2283329504397928e-05  -6.3923914495466310e-05  -6.5607713161402556e-05 
 -6.7335863744338170e-05  -6.9109534466270075e-05  -7.0929924318624649e-05  -7.2798263872611956e-05 
 -7.4715816110918650e-05  -7.6683877281300052e-05  -7.8703777772648283e-05  -8.0776883014128383e-05 
 -8.2904594397988855e-05  -8.5088350226670347e-05  -8.7329626684851762e-05  -8.9629938837090039e-05 
 -9.1990841651727389e-05  -9.4413931051757087e-05  -9.6900844993357522e-05  -9.9453264572822131e-05 
 -1.0207291516263349e-04  -1.0476156757744713e-04  -1.0752103927077332e-04  -1.1035319556316403e-04 
 -1.1325995090273404e-04  -1.1624327015886721e-04  -1.1930516994998113e-04  -1.2244772000624571e-04 
 -1.2567304456817619e-04  -1.2898332382204353e-04  -1.3238079537307155e-04  -1.3586775575741424e-04 
 -1.3944656199393372e-04  -1.4311963317682638e-04  -1.4688945211017027e-04  -1.5075856698549791e-04 
 -1.5472959310352567e-04  -1.5880521464120071e-04  -1.6298818646525774e-04  -1.6728133599350933e-04 
 -1.7168756510512346e-04  -1.7620985210117915e-04  -1.8085125371681955e-04  -1.8561490718636053e-04 
 -1.9050403236274850e-04  -1.9552193389279333e-04  -2.0067200344964581e-04  -2.0595772202402297e-04 
 -2.1138266227572580e-04  -2.1695049094703548e-04  -2.2266497133961242e-04  -2.2852996585656987e-04 
 -2.3454943861143295e-04  -2.4072745810574300e-04  -2.4706819997710830e-04  -2.5357594981955615e-04 
 -2.6025510607808266e-04  -2.6711018301935221e-04  -2.7414581378054599e-04  -2.8136675349841374e-04 
 -2.8877788252063431e-04  -2.9638420970164761e-04  -3.0419087578517840e-04  -3.1220315687572605e-04 
 -3.2042646800135789e-04  -3.2886636677020408e-04  -3.3752855712311492e-04  -3.4641889318500206e-04 
 -3.5554338321746128e-04  -3.6490819367532702e-04  -3.7451965336989239e-04  -3.8438425774159351e-04 
 -3.9450867324502983e-04  -4.0489974184926812e-04  -4.1556448565645526e-04  -4.2651011164184465e-04 
 -4.3774401651842113e-04  -4.4927379172938987e-04  -4.6110722857188737e-04  -4.7325232345535090e-04 
 -4.8571728329808338e-04  -4.9851053106562916e-04  -5.1164071145468461e-04  -5.2511669672635592e-04 
 -5.3894759269267577e-04  -5.5314274486040140e-04  -5.6771174473620731e-04  -5.8266443629750397e-04 
 -5.9801092263322454e-04  -6.1376157275902412e-04  -6.2992702861146320e-04  -6.4651821222585940e-04 
 -6.6354633310261720e-04  -6.8102289576696558e-04  -6.9895970752716845e-04  -7.1736888643639642e-04 
 -7.3626286946359314e-04  -7.5565442087879354e-04  -7.7555664085851301e-04  -7.9598297431695240e-04 
 -8.1694721996892095e-04  -8.3846353963054133e-04  -8.6054646776394087e-04  -8.8321092127230535e-04 
 -9.0647220955183592e-04  -9.3034604480731560e-04  -9.5484855263816039e-04  -9.7999628290203178e-04 
 -1.0058062208632298e-03  -1.0322957986333117e-03  -1.0594829069115533e-03  -1.0873859070330617e-03 
 -1.1160236433325756e-03  -1.1454154558321603e-03  -1.1755811932612421e-03  -1.2065412264176444e-03 
 -1.2383164618784898e-03  -1.2709283560700824e-03  -1.3043989297061083e-03  -1.3387507826037261e-03 
 -1.3740071088873872e-03  -1.4101917125904485e-03  -1.4473290236649233e-03  -1.4854441144099603e-03 
 -1.5245627163299321e-03  -1.5647112374332741e-03  -1.6059167799835129e-03  -1.6482071587141994e-03 
 -1.6916109195197920e-03  -1.7361573586347949e-03  -1.7818765423138116e-03  -1.8287993270254827e-03 
 -1.8769573801735843e-03  -1.9263832013589435e-03  -1.9771101441961344e-03  -2.0291724386992888e-03 
 -2.0826052142517170e-03  -2.1374445231744136e-03  -2.1937273649088804e-03  -2.2514917108301044e-03 
 -2.3107765297059415e-03  -2.3716218138195308e-03  -2.4340686057718027e-03  -2.4981590259815735e-03 
 -2.5639363009011596e-03  -2.6314447919658685e-03  -2.7007300252962110e-03  -2.7718387221721381e-03 
 -2.8448188302990906e-03  -2.9197195558861135e-03  -2.9965913965568497e-03  -3.0754861751146690e-03 
 -3.1564570741837855e-03  -3.2395586717486992e-03  -3.3248469776148678e-03  -3.4123794708141135e-03 
 -3.5022151379787646e-03  -3.5944145127092091e-03  -3.6890397159600914e-03  -3.7861544974709853e-03 
 -3.8858242782680479e-03  -3.9881161942637864e-03  -4.0930991409827040e-03  -4.2008438194412771e-03 
 -4.3114227832114311e-03  -4.4249104866973350e-03  -4.5413833346560611e-03  -4.6609197329934163e-03 
 -4.7836001408669872e-03  -4.9095071241291276e-03  -5.0387254101435649e-03  -5.1713419440098645e-03 
 -5.3074459462310224e-03  -5.4471289718601174e-03  -5.5904849711629024e-03  -5.7376103518339810e-03 
 -5.8886040428051904e-03  -6.0435675596855944e-03  -6.2026050718734741e-03  -6.3658234713816521e-03 
 -6.5333324434182763e-03  -6.7052445387663570e-03  -6.8816752480061550e-03  -7.0627430776256245e-03 
 -7.2485696280650529e-03  -7.4392796737430709e-03  -7.6350012451123390e-03  -7.8358657127941406e-03 
 -8.0420078738423200e-03  -8.2535660401879731e-03  -8.4706821293175343e-03  -8.6935017572379591e-03 
 -8.9221743337838007e-03  -9.1568531603223209e-03  -9.3976955299136782e-03  -9.6448628299846666e-03 
 -9.8985206475756034e-03  -1.0158838877221091e-02  -1.0425991831526791e-02  -1.0700158354505383e-02 
 -1.0981521937736362e-02  -1.1270270839415421e-02  -1.1566598206360532e-02  -1.1870702199043084e-02 
 -1.2182786119713853e-02  -1.2503058543694632e-02  -1.2831733453908034e-02  -1.3169030378718945e-02 
 -1.3515174533162559e-02  -1.3870396963635500e-02  -1.4234934696127308e-02  -1.4609030888071511e-02 
 -1.4992934983896375e-02  -1.5386902874357023e-02  -1.5791197059731640e-02  -1.6206086816966239e-02 
 -1.6631848370853235e-02  -1.7068765069330697e-02  -1.7517127562990328e-02  -1.7977233988883477e-02 
 -1.8449390158715492e-02  -1.8933909751520425e-02  -1.9431114510908641e-02  -1.9941334446981488e-02 
 -2.0464908043008039e-02  -2.1002182466959993e-02  -2.1553513788001938e-02  -2.2119267198034937e-02 
 -2.2699817238392404e-02  -2.3295548031788169e-02  -2.3906853519617039e-02  -2.4534137704709174e-02 
 -2.5177814899640088e-02  -2.5838309980698613e-02  -2.6516058647615210e-02  -2.7211507689154108e-02 
 -2.7925115254671982e-02  -2.8657351131746795e-02  -2.9408697029979482e-02  -3.0179646871071913e-02 
 -3.0970707085283343e-02  -3.1782396914367302e-02  -3.2615248721090645e-02  -3.3469808305434424e-02 
 -3.4346635227576396e-02  -3.5246303137752753e-02  -3.6169400113095558e-02  -3.7116529001539958e-02 
 -3.8088307772894119e-02  -3.9085369877161470e-02  -4.0108364610202521e-02  -4.1157957486820849e-02 
 -4.2234830621353830e-02  -4.3339683115845434e-02  -4.4473231455874312e-02  -4.5636209914105233e-02 
 -4.6829370961628168e-02  -4.8053485687142371e-02  -4.9309344224038307e-02  -5.0597756185422539e-02 
 -5.1919551107124956e-02  -5.3275578898719041e-02  -5.4666710302578046e-02  -5.6093837360981350e-02 
 -5.7557873891275410e-02  -5.9059755969083354e-02  -6.0600442419546159e-02  -6.2180915316566845e-02 
 -6.3802180490016083e-02  -6.5465268040843322e-02  -6.7171232864024780e-02  -6.8921155179260979e-02 
 -7.0716141069323057e-02  -7.2557323025926948e-02  -7.4445860502996258e-02  -7.6382940477154548e-02 
 -7.8369778015266067e-02  -8.0407616848820598e-02  -8.2497729954934193e-02  -8.4641420143711413e-02 
 -8.6840020651687388e-02  -8.9094895741037988e-02  -9.1407441304216977e-02  -9.3779085473644330e-02 
 -9.6211289236037001e-02  -9.8705547050934608e-02  -1.0126338747293624e-01  -1.0388637377712075e-01 
 -1.0657610458708133e-01  -1.0933421450495823e-01  -1.1216237474280616e-01  -1.1506229375458055e-01 
 -1.1803571786797354e-01  -1.2108443191527485e-01  -1.2421025986237044e-01  -1.2741506543493175e-01 
 -1.3070075274077991e-01  -1.3406926688734094e-01  -1.3752259459303381e-01  -1.4106276479135768e-01 
 -1.4469184922636177e-01  -1.4841196303809848e-01  -1.5222526533657044e-01  -1.5613395976258795e-01 
 -1.6014029503385893e-01  -1.6424656547452546e-01  -1.6845511152625950e-01  -1.7276832023891361e-01 
 -1.7718862573860863e-01  -1.8171850967101408e-01  -1.8636050161745107e-01  -1.9111717948131468e-01 
 -1.9599116984216830e-01  -2.0098514827472189e-01  -2.0610183962975120e-01  -2.1134401827385746e-01 
 -2.1671450828480199e-01  -2.2221618359897771e-01  -2.2785196810740516e-01  -2.3362483569644904e-01 
 -2.3953781022926282e-01  -2.4559396546377141e-01  -2.5179642490278864e-01  -2.5814836157165572e-01 
 -2.6465299771856754e-01  -2.7131360443251584e-01  -2.7813350117354946e-01  -2.8511605520980182e-01 
 -2.9226468095548491e-01  -2.9958283920378626e-01  -3.0707403624834084e-01  -3.1474182288667168e-01 
 -3.2258979329870824e-01  -3.3062158379320483e-01  -3.3884087141458047e-01  -3.4725137240239673e-01 
 -3.5585684049538285e-01  -3.6466106507159135e-01  -3.7366786911595534e-01  -3.8288110700617561e-01 
 -3.9230466210754533e-01  -4.0194244416697084e-01  -4.1179838649611039e-01  -4.2187644293320564e-01 
 -4.3218058457283348e-01  -4.4271479625245480e-01  -4.5348307278429245e-01  -4.6448941492071671e-01 
 -4.7573782504097584e-01  -4.8723230254675681e-01  -4.9897683895373812e-01  -5.1097541266594926e-01 
 -5.2323198341943356e-01  -5.3575048638139899e-01  -5.4853482589073654e-01  -5.6158886882549153e-01 
 -5.7491643758260591e-01  -5.8852130265499070e-01  -6.0240717479075412e-01  -6.1657769671919394e-01 
 -6.3103643442797808e-01  -6.4578686797578033e-01  -6.6083238182450332e-01  -6.7617625467513909e-01 
 -6.9182164879123442e-01  -7.0777159879395024e-01  -7.2402899991268388e-01  -7.4059659567533487e-01 
 -7.5747696502238815e-01  -7.7467250882917327e-01  -7.9218543582089074e-01  -8.1001774786527148e-01 
 -8.2817122462810122e-01  -8.4664740757724088e-01  -8.6544758332127047e-01  -8.8457276626942882e-01 
 -9.0402368060015081e-01  -9.2380074152621661e-01  -9.4390403584529703e-01  -9.6433330176555998e-01 
 -9.8508790799695445e-01  -1.0061668320998165e+00  -1.0275686380835980e+00  -1.0492914532497390e+00 
 -1.0713329442740300e+00  -1.0936902925252801e+00  -1.1163601686186160e+00  -1.1393387062034639e+00 
 -1.1626214749880366e+00  -1.1862034530041055e+00  -1.2100789981179674e+00  -1.2342418187957580e+00 
 -1.2586849441337715e+00  -1.2834006931671154e+00  -1.3083806434729701e+00  -1.3336155990879079e+00 
 -1.3590955577622741e+00  -1.3848096775784504e+00  -1.4107462429640945e+00  -1.4368926301361236e+00 
 -1.4632352720163877e+00  -1.4897596226656762e+00  -1.5164501212890378e+00  -1.5432901558723220e+00 
 -1.5702620265175655e+00  -1.5973469085532443e+00  -1.6245248155047141e+00  -1.6517745620202537e+00 
 -1.6790737268591747e+00  -1.7063986160604236e+00  -1.7337242264230353e+00  -1.7610242094436657e+00 
 -1.7882708358713195e+00  -1.8154349610551537e+00  -1.8424859912779441e+00  -1.8693918512853620e+00 
 -1.8961189532395497e+00  -1.9226321673445230e+00  -1.9488947944106390e+00  -1.9748685406455064e+00 
 -2.0005134949794017e+00  -2.0257881092540870e+00  -2.0506491816250985e+00  -2.0750518435487306e+00 
 -2.0989495507461520e+00  -2.1222940785581637e+00  -2.1450355221249686e+00  -2.1671223018460499e+00 
 -2.1885011745954794e+00  -2.2091172511880348e+00  -2.2289140206110010e+00  -2.2478333815557021e+00 
 -2.2658156818013619e+00  -2.2827997660220070e+00  -2.2987230326045172e+00  -2.3135215000825498e+00 
 -2.3271298838068515e+00  -2.3394816834869911e+00  -2.3505092822527760e+00  -2.3601440578949373e+00 
 -2.3683165069538923e+00  -2.3749563823317836e+00  -2.3799928451060492e+00  -2.3833546312217546e+00 
 -2.3849702337338701e+00  -2.3847681012590347e+00  -2.3826768532775695e+00  -2.3786255129000589e+00 
 -2.3725437576771857e+00  -2.3643621889856425e+00  -2.3540126204655274e+00  -2.3414283859144907e+00 
 -2.3265446669596304e+00  -2.3092988407285939e+00  -2.2896308476252405e+00  -2.2674835791814703e+00 
 -2.2428032858041731e+00  -2.2155400040640303e+00  -2.1856480029797356e+00  -2.1530862485370044e+00 
 -2.1178188854451347e+00  -2.0798157348751136e+00  -2.0390528066412115e+00  -1.9955128239834174e+00 
 -1.9491857587791273e+00  -1.9000693746612760e+00  -1.8481697751439334e+00  -1.7935019534568386e+00 
 -1.7360903403660370e+00  -1.6759693458081302e+00  -1.6131838896900295e+00  -1.5477899167031195e+00 
 -1.4798548894694425e+00  -1.4094582537771667e+00  -1.3366918690727934e+00  -1.2616603967598237e+00 
 -1.1844816382114514e+00  -1.1052868137455591e+00  -1.0242207731461950e+00  -9.4144212766611202e-01 
 -8.5712329283683508e-01  -7.7145043088497223e-01  -6.8462328115254611e-01  -5.9685486670572652e-01 
 -5.0837106535771570e-01  -4.1941003370217633e-01  -3.3022147352865805e-01  -2.4106573124065492e-01 
 -1.5221272267699590e-01  -6.3940678084786789e-02  2.3465295082368168e-02  1.0971483038307019e-01 
 1.9451409647303225e-01  2.7756775748349255e-01  3.5858108537553240e-01  4.3726220501670404e-01 
 5.1332444775771369e-01  5.8648878447404429e-01  6.5648630460437007e-01  7.2306070392388422e-01 
 7.8597074092760921e-01  8.4499262006064946e-01  8.9992225988319674e-01  9.5057740577021077e-01 
 9.9679954994362185e-01  1.0384556263478804e+00  1.0754394537318381e+00  1.1076729067443485e+00 
 1.1351068012560412e+00  1.1577214858834657e+00  1.1755271363611286e+00  1.1885637527640267e+00 
 1.1969008616795256e+00  1.2006369288007972e+00  1.1998984979447465e+00  1.1948389796434979e+00 
 1.1856372400195094e+00  1.1724959065445675e+00  1.1556393879668683e+00  1.1353116586434284e+00 
 1.1117738186013537e+00  1.0853014534181491e+00  1.0561818250273103e+00  1.0247109301778945e+00 
 9.9119046828536583e-01  9.5592476444777918e-01  9.1921769618753557e-01  8.8136967383018361e-01 
 8.4267472425984191e-01  8.0341772609814344e-01  7.6387184121979590e-01  7.2429618308518562e-01 
 6.8493375682750035e-01  6.4600969959934140e-01  6.0772984260065688e-01  5.7027960872395467e-01 
 5.3382325210917847e-01  4.9850343833686944e-01  4.6444115672510117e-01  4.3173594943316668e-01 
 4.0046643598695641e-01  3.7069110657177440e-01  3.4244935309872282e-01  3.1576270371613796e-01 
 2.9063622415260471e-01  2.6706004804489958e-01  2.4501099819719668e-01  2.2445426147953265e-01 
 2.0534508171913307e-01  1.8763043736316470e-01  1.7125067376596151e-01  1.5614106354774906e-01 
 1.4223327244855721e-01  1.2945671230528441e-01  1.1773976708071819e-01  1.0701088214404132e-01 
 9.7199511119048954e-02  8.8236918479235427e-02  8.0056839590060713e-02  7.2596003011887511e-02 
 6.5794522534416575e-02  5.9596168581105800e-02  5.3948530290591434e-02  4.8803080755448848e-02 
 4.4115158577275396e-02  3.9843879264238227e-02  3.5951989558590740e-02  3.2405677684032470e-02 
 2.9174351408503895e-02  2.6230394924062254e-02  2.3548914334241146e-02  2.1107480238808110e-02 
 1.8885874550848950e-02  1.6865847322604221e-02  1.5030888038923379e-02  1.3366014597699405e-02 
 1.1857582064309669e-02  1.0493112283093431e-02  9.2611445666311264e-03  8.1511069691560800e-03 
 7.1532070836658173e-03  6.2583408773834604e-03  5.4580177871715813e-03  4.7443001219221632e-03 
 4.1097547472939578e-03  3.5474150428221889e-03  3.0507512053056262e-03  2.6136471091034582e-03 
 2.2303821080708439e-03  1.8956163614537228e-03  1.6043784751260620e-03  1.3520544598992236e-03 
 1.1343772121875961e-03  9.4741591283211443e-04  7.8756491295385058e-04  6.5153182843333594e-04 
 5.3632469553042787e-04  4.3923814887390159e-04  3.5783867008606977e-04  2.8994902188253773e-04 
 2.3363203027056516e-04  1.8717390849247242e-04  1.4906733280176053e-04  1.1799448428437452e-04 
 9.2810264965601828e-05  7.2525882530157014e-05  5.6292978110367462e-05  4.3388447605096310e-05 
 3.3200080484526494e-05  2.5213112446948400e-05  1.8997760810072272e-05  1.4197785133029993e-05 
 1.0520091054557858e-05  7.7253732836681222e-06  5.6197744876627925e-06  4.0475207271353424e-06 
 2.8844811702819440e-06  2.0325900388373360e-06  1.4150619490026918e-06  9.7232777192080151e-07 
 6.5861656268364259e-07  4.3910964814628948e-07  2.8759526518642230e-07  1.8455583603937230e-07 
 1.1562470087809363e-07  7.0354567473680241e-08  4.1245785753861902e-08  2.2988548325016210e-08 
 1.1879043488759111e-08  5.3752675065925875e-09  1.7635132598387967e-09  -8.8601372827528054e-11 
 -9.1236778503185719e-10  -1.1674898933640668e-09  -1.1335978951459088e-09  -9.7375933086009275e-10 
 -7.7769061009668041e-10  -5.9051320374968183e-10  -4.3141256923724376e-10  -3.0539096618998293e-10 
 -2.1040650546005228e-10  -1.4151112184810637e-10  -9.3096838542130481e-11  -5.9994528048519941e-11 
 -3.7910421001958491e-11  -2.3506331693547445e-11  -1.4308863067538014e-11  -8.5538783990126907e-12 
 -5.0228201002899141e-12  -2.8973760774132094e-12  -1.6418963809226237e-12  -9.1401509253778819e-13 
 -4.9978905247450544e-13  -2.6840133515849818e-13  -1.4153685997546600e-13  -7.3273599324582135e-14 
 -3.7231636650577411e-14  -1.8562813678471260e-14  -9.0784609647176077e-15  -4.3539585523688899e-15 
 -2.0468777961590282e-15  -9.4300185782623560e-16  -4.2556666355821370e-16  -1.8802763007994297e-16 
 -8.1310968170768090e-17  -3.4402903233600043e-17  -1.4229806079909892e-17  -5.7543196226422567e-18 
 -2.2680385556615989e-18  -8.6513287621039820e-19  -3.3599748805106527e-19  -1.2270509512079905e-19 
 -4.6007919971722140e-20  -1.2423353817181919e-20  -5.0174847450191820e-21  -4.0410759818850914e-21 
 0.0000000000000000e+00  0.0000000000000000e+00  0.0000000000000000e+00  0.0000000000000000e+00 
 0.0000000000000000e+00  0.0000000000000000e+00  0.0000000000000000e+00  0.0000000000000000e+00 
 0.0000000000000000e+00  0.0000000000000000e+00  0.0000000000000000e+00  0.0000000000000000e+00 
 0.0000000000000000e+00  0.0000000000000000e+00  0.0000000000000000e+00  0.0000000000000000e+00 
 0.0000000000000000e+00  0.0000000000000000e+00  0.0000000000000000e+00  0.0000000000000000e+00 
 0.0000000000000000e+00  0.0000000000000000e+00  0.0000000000000000e+00  0.0000000000000000e+00 
 0.0000000000000000e+00  0.0000000000000000e+00  0.0000000000000000e+00  0.0000000000000000e+00 
 0.0000000000000000e+00  0.0000000000000000e+00  0.0000000000000000e+00  0.0000000000000000e+00 
 0.0000000000000000e+00  0.0000000000000000e+00  0.0000000000000000e+00  0.0000000000000000e+00 
 0.0000000000000000e+00  0.0000000000000000e+00  0.0000000000000000e+00  0.0000000000000000e+00 
 0.0000000000000000e+00  0.0000000000000000e+00  0.0000000000000000e+00  0.0000000000000000e+00 
 0.0000000000000000e+00  0.0000000000000000e+00  0.0000000000000000e+00  0.0000000000000000e+00 
 0.0000000000000000e+00  0.0000000000000000e+00  0.0000000000000000e+00  0.0000000000000000e+00 
 0.0000000000000000e+00  0.0000000000000000e+00  0.0000000000000000e+00  0.0000000000000000e+00 
 0.0000000000000000e+00  0.0000000000000000e+00  0.0000000000000000e+00  0.0000000000000000e+00 
 0.0000000000000000e+00  0.0000000000000000e+00  0.0000000000000000e+00  0.0000000000000000e+00 
 0.0000000000000000e+00  0.0000000000000000e+00  0.0000000000000000e+00  0.0000000000000000e+00 
 0.0000000000000000e+00  0.0000000000000000e+00  0.0000000000000000e+00  0.0000000000000000e+00 
 0.0000000000000000e+00  0.0000000000000000e+00  0.0000000000000000e+00  0.0000000000000000e+00 
 0.0000000000000000e+00  0.0000000000000000e+00  0.0000000000000000e+00  0.0000000000000000e+00 
 0.0000000000000000e+00  0.0000000000000000e+00  0.0000000000000000e+00  0.0000000000000000e+00 
 0.0000000000000000e+00  0.0000000000000000e+00  0.0000000000000000e+00  0.0000000000000000e+00 
 0.0000000000000000e+00  0.0000000000000000e+00  0.0000000000000000e+00  0.0000000000000000e+00 
 0.0000000000000000e+00  0.0000000000000000e+00  0.0000000000000000e+00  0.0000000000000000e+00 
 0.0000000000000000e+00  0.0000000000000000e+00  0.0000000000000000e+00  0.0000000000000000e+00 
 0.0000000000000000e+00  0.0000000000000000e+00  0.0000000000000000e+00  0.0000000000000000e+00 
 0.0000000000000000e+00  0.0000000000000000e+00  0.0000000000000000e+00  0.0000000000000000e+00 
 0.0000000000000000e+00  0.0000000000000000e+00  0.0000000000000000e+00  0.0000000000000000e+00 
 0.0000000000000000e+00  0.0000000000000000e+00  0.0000000000000000e+00  0.0000000000000000e+00 
 0.0000000000000000e+00  0.0000000000000000e+00  0.0000000000000000e+00  0.0000000000000000e+00 
 0.0000000000000000e+00  0.0000000000000000e+00  0.0000000000000000e+00  0.0000000000000000e+00 
 0.0000000000000000e+00  0.0000000000000000e+00  0.0000000000000000e+00  0.0000000000000000e+00 
 0.0000000000000000e+00  0.0000000000000000e+00  0.0000000000000000e+00  0.0000000000000000e+00 
 0.0000000000000000e+00  0.0000000000000000e+00  0.0000000000000000e+00  0.0000000000000000e+00 
 0.0000000000000000e+00  0.0000000000000000e+00  0.0000000000000000e+00  0.0000000000000000e+00 
 0.0000000000000000e+00  0.0000000000000000e+00  0.0000000000000000e+00  0.0000000000000000e+00 
 0.0000000000000000e+00  0.0000000000000000e+00  0.0000000000000000e+00  0.0000000000000000e+00 
 0.0000000000000000e+00  0.0000000000000000e+00  0.0000000000000000e+00  0.0000000000000000e+00 
 0.0000000000000000e+00  0.0000000000000000e+00  0.0000000000000000e+00  0.0000000000000000e+00 
 0.0000000000000000e+00  0.0000000000000000e+00  0.0000000000000000e+00  0.0000000000000000e+00 
 0.0000000000000000e+00  0.0000000000000000e+00  0.0000000000000000e+00  0.0000000000000000e+00 
 0.0000000000000000e+00  0.0000000000000000e+00  0.0000000000000000e+00  0.0000000000000000e+00 
 0.0000000000000000e+00  0.0000000000000000e+00  0.0000000000000000e+00  0.0000000000000000e+00 
 0.0000000000000000e+00  0.0000000000000000e+00 
  </PP_BETA>
  <PP_DIJ>
 2   Number of nonzero Dij
 1 1 3.7650887644733484e+02 
 2 2 2.2722833054263876e+00 
  </PP_DIJ>
</PP_NONLOCAL>
<PP_PSWFC>
S    0   2.00          Wavefunction
 4.8299315793247923e-07  4.8931305939342442e-07  4.9571565592884903e-07  5.0220202959291903e-07 
 5.0877327659833872e-07  5.1543050750161407e-07  5.2217484739073871e-07  5.2900743607533798e-07 
 5.3592942827929826e-07  5.4294199383591955e-07  5.5004631788561912e-07  5.5724360107622420e-07 
 5.6453505976588409e-07  5.7192192622863770e-07  5.7940544886267180e-07  5.8698689240130266e-07 
 5.9466753812671950e-07  6.0244868408652499e-07  6.1033164531310851e-07  6.1831775404588896e-07 
 6.2640835995646885e-07  6.3460483037673016e-07  6.4290855052991854e-07  6.5132092376474931e-07 
 6.5984337179257647e-07  6.6847733492766644e-07  6.7722427233061444e-07  6.8608566225494724e-07 
 6.9506300229695108e-07  7.0415780964877040e-07  7.1337162135481680e-07  7.2270599457153359e-07 
 7.3216250683055964e-07  7.4174275630533697e-07  7.5144836208120538e-07  7.6128096442903384e-07 
 7.7124222508242889e-07  7.8133382751857351e-07  7.9155747724273930e-07  8.0191490207652102e-07 
 8.1240785244984326e-07  8.2303810169678914e-07  8.3380744635529705e-07  8.4471770647078186e-07 
 8.5577072590372775e-07  8.6696837264130470e-07  8.7831253911306501e-07  8.8980514251076844e-07 
 9.0144812511239359e-07  9.1324345461038801e-07  9.2519312444421477e-07  9.3729915413724878e-07 
 9.4956358963808213e-07  9.6198850366629599e-07  9.7457599606275595e-07  9.8732819414449180e-07 
 1.0002472530642197e-06  1.0133353561745706e-06  1.0265947153970817e-06  1.0400275715960198e-06 
 1.0536361949570932e-06  1.0674228853711203e-06  1.0813899728227184e-06  1.0955398177840779e-06 
 1.1098748116138900e-06  1.1243973769614931e-06  1.1391099681763101e-06  1.1540150717226386e-06 
 1.1691152065998732e-06  1.1844129247682241e-06  1.1999108115800070e-06  1.2156114862165753e-06 
 1.2315176021309709e-06  1.2476318474963670e-06  1.2639569456603777e-06  1.2804956556053133e-06 
 1.2972507724144583e-06  1.3142251277444488e-06  1.3314215903038325e-06  1.3488430663378917e-06 
 1.3664925001198078e-06  1.3843728744482546e-06  1.4024872111515018e-06  1.4208385715981135e-06 
 1.4394300572143337e-06  1.4582648100082360e-06  1.4773460131007359e-06  1.4966768912635498e-06 
 1.5162607114641928e-06  1.5361007834181113e-06  1.5562004601480345e-06  1.5765631385506506e-06 
 1.5971922599706950e-06  1.6180913107825507e-06  1.6392638229794600e-06  1.6607133747704460e-06 
 1.6824435911850452e-06  1.7044581446859499e-06  1.7267607557896733e-06  1.7493551936953310e-06 
 1.7722452769216509e-06  1.7954348739523202e-06  1.8189279038897784e-06  1.8427283371175582e-06 
 1.8668401959713036e-06  1.8912675554185598e-06  1.9160145437474611e-06  1.9410853432644346e-06 
 1.9664841910010246e-06  1.9922153794299748e-06  2.0182832571906772e-06  2.0446922298241116e-06 
 2.0714467605174058e-06  2.0985513708581364e-06  2.1260106415984999e-06  2.1538292134294834e-06 
 2.1820117877651682e-06  2.2105631275372902e-06  2.2394880580002050e-06  2.2687914675463797e-06 
 2.2984783085325620e-06  2.3285535981167530e-06  2.3590224191061365e-06  2.3898899208161070e-06 
 2.4211613199405299e-06  2.4528419014333974e-06  2.4849370194020173e-06  2.5174520980118899e-06 
 2.5503926324034275e-06  2.5837641896206682e-06  2.6175724095521438e-06  2.6518230058840560e-06 
 2.6865217670659312e-06  2.7216745572889082e-06  2.7572873174768257e-06  2.7933660662902805e-06 
 2.8299169011438283e-06  2.8669459992364892e-06  2.9044596185957421e-06  2.9424640991351798e-06 
 2.9809658637259990e-06  3.0199714192825262e-06  3.0594873578619287e-06  3.0995203577783350e-06 
 3.1400771847315193e-06  3.1811646929503675e-06  3.2227898263512993e-06  3.2649596197118535e-06 
 3.3076811998596260e-06  3.3509617868767730e-06  3.3948086953202733e-06  3.4392293354581549e-06 
 3.4842312145219065e-06  3.5298219379752711e-06  3.5760092107996515e-06  3.6228008387963276e-06 
 3.6702047299057236e-06  3.7182288955439346e-06  3.7668814519567415e-06  3.8161706215913519e-06 
 3.8661047344860882e-06  3.9166922296782572e-06  3.9679416566304552e-06  4.0198616766755263e-06 
 4.0724610644804428e-06  4.1257487095293275e-06  4.1797336176259000e-06  4.2344249124155749e-06 
 4.2898318369274798e-06  4.3459637551366632e-06  4.4028301535467276e-06  4.4604406427932010e-06 
 4.5188049592678663e-06  4.5779329667643644e-06  4.6378346581453238e-06  4.6985201570313226e-06 
 4.7599997195119345e-06  4.8222837358791825e-06  4.8853827323836783e-06  4.9493073730137318e-06 
 5.0140684612977658e-06  5.0796769421303019e-06  5.1461439036218529e-06  5.2134805789730213e-06 
 5.2816983483731359e-06  5.3508087409237212e-06  5.4208234365871596e-06  5.4917542681608433e-06 
 5.5636132232771710e-06  5.6364124464297146e-06  5.7101642410259211e-06  5.7848810714666617e-06 
 5.8605755652530041e-06  5.9372605151205742e-06  6.0149488812018382e-06  6.0936537932166865e-06 
 6.1733885526917007e-06  6.2541666352084569e-06  6.3360016926812701e-06  6.4189075556647405e-06 
 6.5028982356915114e-06  6.5879879276406231e-06  6.6741910121368716e-06  6.7615220579815793e-06 
 6.8499958246151667e-06  6.9396272646119731e-06  7.0304315262077389e-06  7.1224239558601649e-06 
 7.2156201008429863e-06  7.3100357118740177e-06  7.4056867457775989e-06  7.5025893681818804e-06 
 7.6007599562514359e-06  7.7002151014556470e-06  7.8009716123733191e-06  7.9030465175340183e-06 
 8.0064570682966250e-06  8.1112207417655434e-06  8.2173552437451085e-06  8.3248785117326769e-06 
 8.4338087179508985e-06  8.5441642724196788e-06  8.6559638260683891e-06  8.7692262738888050e-06 
 8.8839707581293208e-06  9.0002166715310183e-06  9.1179836606060862e-06  9.2372916289591642e-06 
 9.3581607406521823e-06  9.4806114236132798e-06  9.6046643730903250e-06  9.7303405551497034e-06 
 9.8576612102208793e-06  9.9866478566873835e-06  1.0117322294524871e-05  1.0249706608986741e-05 
 1.0383823174338098e-05  1.0519694657638546e-05  1.0657344022574574e-05  1.0796794533342090e-05 
 1.0938069758579804e-05  1.1081193575354139e-05  1.1226190173196298e-05  1.1373084058192206e-05 
 1.1521900057126007e-05  1.1672663321677812e-05  1.1825399332676411e-05  1.1980133904407657e-05 
 1.2136893188979271e-05  1.2295703680742775e-05  1.2456592220773312e-05  1.2619586001408115e-05 
 1.2784712570844378e-05  1.2951999837797301e-05  1.3121476076219112e-05  1.3293169930079810e-05 
 1.3467110418210530e-05  1.3643326939210244e-05  1.3821849276416667e-05  1.4002707602942263e-05 
 1.4185932486776072e-05  1.4371554895952396e-05  1.4559606203787069e-05  1.4750118194182300e-05 
 1.4943123067000961e-05  1.5138653443511282e-05  1.5336742371902853e-05  1.5537423332874930e-05 
 1.5740730245298013e-05  1.5946697471949688e-05  1.6155359825325803e-05  1.6366752573527953e-05 
 1.6580911446228364e-05  1.6797872640713279e-05  1.7017672828005912e-05  1.7240349159070127e-05 
 1.7465939271095942e-05  1.7694481293868018e-05  1.7926013856218331e-05  1.8160576092564138e-05 
 1.8398207649532493e-05  1.8638948692672401e-05  1.8882839913255848e-05  1.9129922535168906e-05 
 1.9380238321893962e-05  1.9633829583584323e-05  1.9890739184232260e-05  2.0151010548931629e-05 
 2.0414687671236122e-05  2.0681815120614246e-05  2.0952438050002063e-05  2.1226602203454678e-05 
 2.1504353923896595e-05  2.1785740160958869e-05  2.2070808478892636e-05  2.2359607064615997e-05 
 2.2652184735872395e-05  2.2948590949496610e-05  2.3248875809789266e-05  2.3553090077001444e-05 
 2.3861285175930827e-05  2.4173513204630862e-05  2.4489826943234404e-05  2.4810279862893386e-05 
 2.5134926134836142e-05  2.5463820639543722e-05  2.5797018976047059e-05  2.6134577471346387e-05 
 2.6476553189954607e-05  2.6823003943566282e-05  2.7173988300853951e-05  2.7529565597393214e-05 
 2.7889795945718803e-05  2.8254740245512834e-05  2.8624460193927367e-05  2.8999018296042925e-05 
 2.9378477875464815e-05  2.9762903085059131e-05  3.0152358917830215e-05  3.0546911217941544e-05 
 3.0946626691881926e-05  3.1351572919779000e-05  3.1761818366861957e-05  3.2177432395075495e-05 
 3.2598485274847001e-05  3.3025048197009192e-05  3.3457193284880026e-05  3.3894993606502208e-05 
 3.4338523187044410e-05  3.4787857021366205e-05  3.5243071086749254e-05  3.5704242355796614e-05 
 3.6171448809502715e-05  3.6644769450496140e-05  3.7124284316457698e-05  3.7610074493715925e-05 
 3.8102222131022705e-05  3.8600810453511251e-05  3.9105923776838863e-05  3.9617647521517325e-05 
 4.0136068227432984e-05  4.0661273568559478e-05  4.1193352367865629e-05  4.1732394612421007e-05 
 4.2278491468702118e-05  4.2831735298101734e-05  4.3392219672644320e-05  4.3960039390910095e-05 
 4.4535290494171076e-05  4.5118070282741369e-05  4.5708477332545272e-05  4.6306611511905681e-05 
 4.6912573998556206e-05  4.7526467296879799e-05  4.8148395255377236e-05  4.8778463084368452e-05 
 4.9416777373929933e-05  5.0063446112071883e-05  5.0718578703157665e-05  5.1382285986569709e-05 
 5.2054680255624711e-05  5.2735875276742038e-05  5.3425986308868492e-05  5.4125130123163371e-05 
 5.4833425022947096e-05  5.5550990863917400e-05  5.6277949074636809e-05  5.7014422677295020e-05 
 5.7760536308750220e-05  5.8516416241853248e-05  5.9282190407058636e-05  6.0057988414326485e-05 
 6.0843941575319436e-05  6.1640182925898861e-05  6.2446847248924411e-05  6.3264071097361704e-05 
 6.4091992817701904e-05  6.4930752573698241e-05  6.5780492370423713e-05  6.6641356078654654e-05 
 6.7513489459584993e-05  6.8397040189875830e-05  6.9292157887045303e-05  7.0198994135203460e-05 
 7.1117702511137821e-05  7.2048438610753767e-05  7.2991360075875874e-05  7.3946626621414831e-05 
 7.4914400062905853e-05  7.5894844344423604e-05  7.6888125566879621e-05  7.7894412016707640e-05 
 7.8913874194942585e-05  7.9946684846699583e-05  8.0993018991058240e-05  8.2053053951358879e-05 
 8.3126969385916702e-05  8.4214947319160254e-05  8.5317172173200674e-05  8.6433830799838136e-05 
 8.7565112513012354e-05  8.8711209121703879e-05  8.9872314963293154e-05  9.1048626937384467e-05 
 9.2240344540101633e-05  9.3447669898863271e-05  9.4670807807645144e-05  9.5909965762736417e-05 
 9.7165353998998784e-05  9.8437185526635619e-05  9.9725676168479116e-05  1.0103104459780466e-04 
 1.0235351237667978e-04  1.0369330399485678e-04  1.0505064690921785e-04  1.0642577158378157e-04 
 1.0781891153027969e-04  1.0923030334931414e-04  1.1066018677210306e-04  1.1210880470282601e-04 
 1.1357640326157840e-04  1.1506323182794514e-04  1.1656954308520352e-04  1.1809559306516662e-04 
 1.1964164119367770e-04  1.2120795033676664e-04  1.2279478684747982e-04  1.2440242061339491e-04 
 1.2603112510483269e-04  1.2768117742377772e-04  1.2935285835352035e-04  1.3104645240903274e-04 
 1.3276224788809192e-04  1.3450053692316288e-04  1.3626161553405590e-04  1.3804578368137110e-04 
 1.3985334532074561e-04  1.4168460845791645e-04  1.4353988520461567e-04  1.4541949183531213e-04 
 1.4732374884481511e-04  1.4925298100675746e-04  1.5120751743297284e-04  1.5318769163378553e-04 
 1.5519384157922881e-04  1.5722630976121101e-04  1.5928544325664548e-04  1.6137159379156602e-04 
 1.6348511780624373e-04  1.6562637652132745e-04  1.6779573600502647e-04  1.6999356724135700e-04 
 1.7222024619947319e-04  1.7447615390410521e-04  1.7676167650712552e-04  1.7907720536026797e-04 
 1.8142313708902229e-04  1.8379987366772872e-04  1.8620782249589751e-04  1.8864739647577930e-04 
 1.9111901409121253e-04  1.9362309948777522e-04  1.9616008255426902e-04  1.9873039900556415e-04 
 2.0133449046683466e-04  2.0397280455921498e-04  2.0664579498690878e-04  2.0935392162578159e-04 
 2.1209765061347177e-04  2.1487745444105297e-04  2.1769381204628344e-04  2.2054720890847871e-04 
 2.2343813714504446e-04  2.2636709560970841e-04  2.2933458999249110e-04  2.3234113292145564e-04 
 2.3538724406627865e-04  2.3847345024368682e-04  2.4160028552480241e-04  2.4476829134444458e-04 
 2.4797801661243424e-04  2.5123001782695141e-04  2.5452485918999449e-04  2.5786311272499692e-04 
 2.6124535839665085e-04  2.6467218423299759e-04  2.6814418644983907e-04  2.7166196957753184e-04 
 2.7522614659022379e-04  2.7883733903759746e-04  2.8249617717918476e-04  2.8620330012132044e-04 
 2.8995935595680603e-04  2.9376500190735348e-04  2.9762090446888478e-04  3.0152773955976440e-04 
 3.0548619267204417e-04  3.0949695902580216e-04  3.1356074372666174e-04  3.1767826192657830e-04 
 3.2185023898798407e-04  3.2607741065138754e-04  3.3036052320652127e-04  3.3470033366714204e-04 
 3.3909760994958656e-04  3.4355313105518956e-04  3.4806768725667841e-04  3.5264208028865752e-04 
 3.5727712354230407e-04  3.6197364226439637e-04  3.6673247376080862e-04  3.7155446760459780e-04 
 3.7644048584882571e-04  3.8139140324425751e-04  3.8640810746208223e-04  3.9149149932181252e-04 
 3.9664249302451753e-04  4.0186201639155707e-04  4.0715101110898430e-04  4.1251043297779668e-04 
 4.1794125217021512e-04  4.2344445349218205e-04  4.2902103665227635e-04  4.3467201653724601e-04 
 4.4039842349437427e-04  4.4620130362089277e-04  4.5208171906067495e-04  4.5804074830844033e-04 
 4.6407948652171967e-04  4.7019904584082807e-04  4.7640055571711570e-04  4.8268516324976571e-04 
 4.8905403353142324e-04  4.9550835000295031e-04  5.0204931481761129e-04  5.0867814921500682e-04 
 5.1539609390508292e-04  5.2220440946255963e-04  5.2910437673213114e-04  5.3609729724480595e-04 
 5.4318449364577025e-04  5.5036731013417036e-04  5.5764711291522663e-04  5.6502529066510584e-04 
 5.7250325500899876e-04  5.8008244101286121e-04  5.8776430768930259e-04  5.9555033851811667e-04 
 6.0344204198197230e-04  6.1144095211780602e-04  6.1954862908447032e-04  6.2776665974722200e-04 
 6.3609665827965263e-04  6.4454026678369104e-04  6.5309915592832426e-04  6.6177502560772414e-04 
 6.7056960561947502e-04  6.7948465636364210e-04  6.8852196956343853e-04  6.9768336900828502e-04 
 7.0697071132008662e-04  7.1638588674358182e-04  7.2593081996165691e-04  7.3560747093654919e-04 
 7.4541783577790918e-04  7.5536394763871815e-04  7.6544787764010907e-04  7.7567173582617573e-04 
 7.8603767214989657e-04  7.9654787749135604e-04  8.0720458470947816e-04  8.1801006972855147e-04 
 8.2896665266086772e-04  8.4007669896685904e-04  8.5134262065415843e-04  8.6276687751709290e-04 
 8.7435197841815226e-04  8.8610048261306639e-04  8.9801500112116788e-04  9.1009819814280644e-04 
 9.2235279252564101e-04  9.3478155928171435e-04  9.4738733115730552e-04  9.6017300025761515e-04 
 9.7314151972845392e-04  9.8629590549716736e-04  9.9963923807514822e-04  1.0131746644243668e-03 
 1.0269053998904669e-03  1.0408347302050748e-03  1.0549660135600804e-03  1.0693026827567763e-03 
 1.0838482474328493e-03  1.0986062963703584e-03  1.1135804998879610e-03  1.1287746123207927e-03 
 1.1441924745915503e-03  1.1598380168764771e-03  1.1757152613701214e-03  1.1918283251528860e-03 
 1.2081814231655890e-03  1.2247788712954082e-03  1.2416250895778004e-03  1.2587246055191653e-03 
 1.2760820575452498e-03  1.2937021985804987e-03  1.3115898997637860e-03  1.3297501543062091e-03 
 1.3481880814968702e-03  1.3669089308628432e-03  1.3859180864897874e-03  1.4052210715099710e-03 
 1.4248235527647560e-03  1.4447313456489310e-03  1.4649504191445915e-03  1.4854869010526256e-03 
 1.5063470834302318e-03  1.5275374282432647e-03  1.5490645732426163e-03  1.5709353380742583e-03 
 1.5931567306330106e-03  1.6157359536705578e-03  1.6386804116687418e-03  1.6619977179896349e-03 
 1.6856957023144571e-03  1.7097824183839572e-03  1.7342661520534609e-03  1.7591554296764033e-03 
 1.7844590268308279e-03  1.8101859774039962e-03  1.8363455830509815e-03  1.8629474230438662e-03 
 1.8900013645289551e-03  1.9175175732102461e-03  1.9455065244782675e-03  1.9739790150043227e-03 
 2.0029461748211279e-03  2.0324194799118630e-03  2.0624107653307083e-03  2.0929322388790602e-03 
 2.1239964953628345e-03  2.1556165314574383e-03  2.1878057612083829e-03  2.2205780321968164e-03 
 2.2539476424007590e-03  2.2879293577842993e-03  2.3225384306486685e-03  2.3577906187807599e-03 
 2.3937022054364692e-03  2.4302900201981065e-03  2.4675714607471028e-03  2.5055645155953334e-03 
 2.5442877878205775e-03  2.5837605198539408e-03  2.6240026193695442e-03  2.6650346863293295e-03 
 2.7068780412385822e-03  2.7495547546706120e-03  2.7930876781221254e-03  2.8375004762639243e-03 
 2.8828176606550309e-03  2.9290646249918641e-03  2.9762676819678436e-03  3.0244541018227952e-03 
 3.0736521526657139e-03  3.1238911426588693e-03  3.1752014641559180e-03  3.2276146398916516e-03 
 3.2811633713262030e-03  3.3358815892520774e-03  3.3918045067781988e-03  3.4489686748113446e-03 
 3.5074120401618310e-03  3.5671740064072486e-03  3.6282954976552856e-03  3.6908190253544183e-03 
 3.7547887583094064e-03  3.8202505960670862e-03  3.8872522458471611e-03  3.9558433032022477e-03 
 4.0260753366017062e-03  4.0980019761445094e-03  4.1716790066178844e-03  4.2471644651304839e-03 
 4.3245187435616622e-03  4.4038046960819272e-03  4.4850877520139663e-03  4.5684360343187513e-03 
 4.6539204840073001e-03  4.7416149907955332e-03  4.8315965303376745e-03  4.9239453083925865e-03 
 5.0187449122974627e-03  5.1160824701445657e-03  5.2160488180791964e-03  5.3187386761606873e-03 
 5.4242508332535029e-03  5.5326883414419364e-03  5.6441587204900806e-03  5.7587741728983141e-03 
 5.8766518101389985e-03  5.9979138906871444e-03  6.1226880704968022e-03  6.2511076666109102e-03 
 6.3833119346312743e-03  6.5194463608165441e-03  6.6596629696194240e-03  6.8041206475200960e-03 
 6.9529854840610569e-03  7.1064311310393320e-03  7.2646391808654604e-03  7.4277995651548029e-03 
 7.5961109746759542e-03  7.7697813018428215e-03  7.9490281070023223e-03  8.1340791098377316e-03 
 8.3251727072792998e-03  8.5225585193885525e-03  8.7264979647609063e-03  8.9372648670728080e-03 
 9.1551460944847389e-03  9.3804422336999423e-03  9.6134683005707853e-03  9.8545544892401395e-03 
 1.0104046961903994e-02  1.0362308681383707e-02  1.0629720288801625e-02  1.0906681028762116e-02 
 1.1193609724551218e-02  1.1490945805981765e-02  1.1799150392626906e-02  1.2118707435302387e-02 
 1.2450124918777523e-02  1.2793936128814630e-02  1.3150700986757117e-02  1.3521007455006487e-02 
 1.3905473016847329e-02  1.4304746234196013e-02  1.4719508386962716e-02  1.5150475197825536e-02 
 1.5598398646319555e-02  1.6064068876240491e-02  1.6548316200450604e-02  1.7052013207252251e-02 
 1.7576076972559151e-02  1.8121471382145274e-02  1.8689209568282964e-02  1.9280356465092956e-02 
 1.9896031486915777e-02  2.0537411333971734e-02  2.1205732929503198e-02  2.1902296492480232e-02 
 2.2628468749796193e-02  2.3385686291674954e-02  2.4175459073751234e-02  2.4999374068960193e-02 
 2.5859099071975530e-02  2.6756386658455440e-02  2.7693078300783828e-02  2.8671108641317774e-02 
 2.9692509923359665e-02  3.0759416579149206e-02  3.1874069973102895e-02  3.3038823297300027e-02 
 3.4256146614808858e-02  3.5528632044845146e-02  3.6858999081941492e-02  3.8250100039256364e-02 
 3.9704925603850631e-02  4.1226610489182157e-02  4.2818439167195778e-02  4.4483851659195606e-02 
 4.6226449361156670e-02  4.8050000875242360e-02  4.9958447815023600e-02  5.1955910547223719e-02 
 5.4046693827723848e-02  5.6235292284039354e-02  5.8526395690505988e-02  6.0924893975984544e-02 
 6.3435881896997282e-02  6.6064663301847487e-02  6.8816754903446881e-02  7.1697889470294929e-02 
 7.4714018336336022e-02  7.7871313121287922e-02  8.1176166543526246e-02  8.4635192197766509e-02 
 8.8255223159667648e-02  9.2043309269158102e-02  9.6006712933844593e-02  1.0015290328340755e-01 
 1.0448954849553643e-01  1.0902450610385386e-01  1.1376581108858470e-01  1.1872166154163047e-01 
 1.2390040168942669e-01  1.2931050204973382e-01  1.3496053649261580e-01  1.4085915597160767e-01 
 1.4701505868881451e-01  1.5343695645781419e-01  1.6013353703120978e-01  1.6711342216599054e-01 
 1.7438512121007640e-01  1.8195698000824506e-01  1.8983712494569721e-01  1.9803340197373329e-01 
 2.0655331049525494e-01  2.1540393202910724e-01  2.2459185362275727e-01  2.3412308604366133e-01 
 2.4400297685213518e-01  2.5423611854385497e-01  2.6482625204939175e-01  2.7577616599235660e-01 
 2.8708759223733366e-01  2.9876109840379234e-01  3.1079597818176791e-01  3.2319014045742145e-01 
 3.3593999843852074e-01  3.4904036015678813e-01  3.6248432190984048e-01  3.7626316638239360e-01 
 3.9036626734559038e-01  4.0478100296488773e-01  4.1949267984072430e-01  4.3448446995232920e-01 
 4.4973736266452491e-01  4.6523013388255080e-01  4.8093933429444446e-01  4.9683929841896418e-01 
 5.1290217587573295e-01  5.2909798590898938e-01  5.4539469572491250e-01  5.6175832264536529e-01 
 5.7815305944430262e-01  5.9454142153330070e-01  6.1088441393051918e-01  6.2714171523200446e-01 
 6.4327187517352558e-01  6.5923252190570658e-01  6.7498057488998520e-01  6.9047245942746571e-01 
 7.0566431929286733e-01  7.2051222474577681e-01  7.3497237425542583e-01  7.4900128947191102e-01 
 7.6255600413944036e-01  7.7559424860421200e-01  7.8807463217840923e-01  7.9995682579644145e-01 
 8.1120174712473492e-01  8.2177175115211987e-01  8.3163083542681149e-01  8.4074480312912403e-01 
 8.4908148101082592e-01  8.5661092913406045e-01  8.6330562853567139e-01  8.6914066725079275e-01 
 8.7409391490479238e-01  8.7814618098154595e-01  8.8128135308765321e-01  8.8348651212739360e-01 
 8.8475202203824999e-01  8.8507159254192525e-01  8.8444231417685271e-01  8.8286466564248400e-01 
 8.8034249416427246e-01  8.7688297015689420e-01  8.7249651791069849e-01  8.6719672435219508e-01 
 8.6100022814111277e-01  8.5392659147675676e-01  8.4599815701042413e-01  8.3723989221455286e-01 
 8.2767922345887202e-01  8.1734586190338765e-01  8.0627162315033662e-01  7.9449024241310373e-01 
 7.8203718676859213e-01  7.6894946586838719e-01  7.5526544229898396e-01  7.4102464260384771e-01 
 7.2626756982111995e-01  7.1103551824574429e-01  6.9537039099775533e-01  6.7931452087106903e-01 
 6.6291049484990550e-01  6.4620098193317410e-01  6.2922856796823989e-01  6.1203559090980475e-01 
 5.9466398357811245e-01  5.7715512079111475e-01  5.5954967185001347e-01  5.4188745873707100e-01 
 5.2420732044662088e-01  5.0654698394297115e-01  4.8894294230712504e-01  4.7143034069759443e-01 
 4.5404287080945033e-01  4.3681267454340694e-01  4.1977025760015424e-01  4.0294441368812683e-01 
 3.8636215997155854e-01  3.7004868428582949e-01  3.5402730451731063e-01  3.3831944038978368e-01 
 3.2294459771832995e-01  3.0792036500228920e-01  2.9326242203666497e-01  2.7898456003544303e-01 
 2.6509871258964035e-01  2.5161499663448134e-01  2.3854176247920147e-01  2.2588565186302398e-01 
 2.1365166294335200e-01  2.0184322109691863e-01  1.9046225441980338e-01  1.7950927284489074e-01 
 1.6898344985167879e-01  1.5888270581889813e-01  1.4920379216043347e-01  1.3994237548473171e-01 
 1.3109312112256896e-01  1.2264977547336604e-01  1.1460524672231431e-01  1.0695168357607893e-01 
 9.9680551751156934e-02  9.2782708024157931e-02  8.6248471716192751e-02  8.0067693533756451e-02 
 7.4229821726234838e-02  6.8723965546295895e-02  6.3538956015284725e-02  5.8663404003010067e-02 
 5.4085755631891060e-02  4.9794345011287586e-02  4.5777444300871821e-02  4.2023311093845037e-02 
 3.8520233103141635e-02  3.5256570127667551e-02  3.2220793271935153e-02  2.9401521391701234e-02 
 2.6787554740602692e-02  2.4367905798275358e-02  2.2131827268767928e-02  2.0068837248846449e-02 
 1.8168741578537262e-02  1.6421653400246483e-02  1.4818009967854557e-02  1.3348586762583044e-02 
 1.2004508987289702e-02  1.0777260525513584e-02  9.6586904654242141e-03  8.6410173012779895e-03 
 7.7168309361986291e-03  6.8790926197829115e-03  6.1211329620846520e-03  5.4366481718738351e-03 
 4.8196946716620682e-03  4.2646822448211396e-03  3.7663658712255898e-03  3.3198364072850551e-03 
 2.9205102640953032e-03  2.5641182338572792e-03  2.2466936098468819e-03  1.9645597392381016e-03 
 1.7143171411785254e-03  1.4928303148951916e-03  1.2972143541473762e-03  1.1248214762447208e-03 
 9.7322756443836715e-04  8.4021881374586789e-04  7.2377856122002825e-04  6.2207437273370156e-04 
 5.3344544958172527e-04  4.5639040965876561e-04  3.8955548971541517e-04  3.3172320727381266e-04 
 2.8180151324089833e-04  2.3881345912893828e-04  2.0188739610966044e-04  1.7024771691369388e-04 
 1.4320614590308781e-04  1.2015357735904489e-04  1.0055245741205459e-04  8.3929700831778979e-05 
 6.9870130244376624e-05  5.8010422200796353e-05  4.8033541870428484e-05  3.9663645962663387e-05 
 3.2661431761225240e-05  2.6819908865609300e-05  2.1960569340364973e-05  1.7929931443765071e-05 
 1.4596431908441546e-05  1.1847641838167311e-05  9.5877816465021165e-06  7.7355110317025314e-06 
 6.2219707513381095e-06  4.9890538799572433e-06  3.9878852755987511e-06  3.1774891186382349e-06 
 2.5236255892177148e-06  1.9977789941440663e-06  1.5762809179893486e-06  1.2395532367106358e-06 
 9.7145707860223712e-07  7.5873503257268719e-07  5.9053507588295548e-07  4.5800581323833550e-07 
 3.5395367934115180e-07  2.7255375254206111e-07  2.0910675473962740e-07  1.5983567043440288e-07 
 1.2171620549479997e-07  9.2336024565563364e-08  6.9778356951013467e-08  5.2526146827336602e-08 
 3.9383447985349288e-08  2.9411229632349857e-08  2.1875172050766709e-08  1.6203393264611236e-08 
 1.1952364516077564e-08  8.7795474976608536e-09  6.4215240181181704e-09  4.6765930457066303e-09 
 3.3909846136901097e-09  2.4479883950002791e-09  1.7594201125936835e-09  1.2589543341423529e-09 
 8.9694031901481288e-10  6.3639090064728805e-10  4.4989509197148735e-10  3.1725516378212696e-10 
 0.0000000000000000e+00  0.0000000000000000e+00  0.0000000000000000e+00  0.0000000000000000e+00 
 0.0000000000000000e+00  0.0000000000000000e+00  0.0000000000000000e+00  0.0000000000000000e+00 
 0.0000000000000000e+00  0.0000000000000000e+00  0.0000000000000000e+00  0.0000000000000000e+00 
 0.0000000000000000e+00  0.0000000000000000e+00  0.0000000000000000e+00  0.0000000000000000e+00 
 0.0000000000000000e+00  0.0000000000000000e+00  0.0000000000000000e+00  0.0000000000000000e+00 
 0.0000000000000000e+00  0.0000000000000000e+00  0.0000000000000000e+00  0.0000000000000000e+00 
 0.0000000000000000e+00  0.0000000000000000e+00  0.0000000000000000e+00  0.0000000000000000e+00 
 0.0000000000000000e+00  0.0000000000000000e+00  0.0000000000000000e+00  0.0000000000000000e+00 
 0.0000000000000000e+00  0.0000000000000000e+00  0.0000000000000000e+00  0.0000000000000000e+00 
 0.0000000000000000e+00  0.0000000000000000e+00  0.0000000000000000e+00  0.0000000000000000e+00 
 0.0000000000000000e+00  0.0000000000000000e+00  0.0000000000000000e+00  0.0000000000000000e+00 
 0.0000000000000000e+00  0.0000000000000000e+00  0.0000000000000000e+00  0.0000000000000000e+00 
 0.0000000000000000e+00  0.0000000000000000e+00  0.0000000000000000e+00  0.0000000000000000e+00 
 0.0000000000000000e+00  0.0000000000000000e+00  0.0000000000000000e+00  0.0000000000000000e+00 
 0.0000000000000000e+00  0.0000000000000000e+00  0.0000000000000000e+00  0.0000000000000000e+00 
 0.0000000000000000e+00  0.0000000000000000e+00  0.0000000000000000e+00  0.0000000000000000e+00 
 0.0000000000000000e+00  0.0000000000000000e+00  0.0000000000000000e+00  0.0000000000000000e+00 
 0.0000000000000000e+00  0.0000000000000000e+00  0.0000000000000000e+00  0.0000000000000000e+00 
 0.0000000000000000e+00  0.0000000000000000e+00  0.0000000000000000e+00  0.0000000000000000e+00 
 0.0000000000000000e+00  0.0000000000000000e+00  0.0000000000000000e+00  0.0000000000000000e+00 
 0.0000000000000000e+00  0.0000000000000000e+00  0.0000000000000000e+00  0.0000000000000000e+00 
 0.0000000000000000e+00  0.0000000000000000e+00  0.0000000000000000e+00  0.0000000000000000e+00 
 0.0000000000000000e+00  0.0000000000000000e+00  0.0000000000000000e+00  0.0000000000000000e+00 
 0.0000000000000000e+00  0.0000000000000000e+00  0.0000000000000000e+00  0.0000000000000000e+00 
 0.0000000000000000e+00  0.0000000000000000e+00  0.0000000000000000e+00  0.0000000000000000e+00 
 0.0000000000000000e+00  0.0000000000000000e+00  0.0000000000000000e+00  0.0000000000000000e+00 
 0.0000000000000000e+00  0.0000000000000000e+00  0.0000000000000000e+00  0.0000000000000000e+00 
 0.0000000000000000e+00  0.0000000000000000e+00  0.0000000000000000e+00  0.0000000000000000e+00 
 0.0000000000000000e+00  0.0000000000000000e+00  0.0000000000000000e+00  0.0000000000000000e+00 
 0.0000000000000000e+00  0.0000000000000000e+00  0.0000000000000000e+00  0.0000000000000000e+00 
 0.0000000000000000e+00  0.0000000000000000e+00  0.0000000000000000e+00  0.0000000000000000e+00 
 0.0000000000000000e+00  0.0000000000000000e+00  0.0000000000000000e+00  0.0000000000000000e+00 
 0.0000000000000000e+00  0.0000000000000000e+00  0.0000000000000000e+00  0.0000000000000000e+00 
 0.0000000000000000e+00  0.0000000000000000e+00  0.0000000000000000e+00  0.0000000000000000e+00 
 0.0000000000000000e+00  0.0000000000000000e+00  0.0000000000000000e+00  0.0000000000000000e+00 
 0.0000000000000000e+00  0.0000000000000000e+00  0.0000000000000000e+00  0.0000000000000000e+00 
 0.0000000000000000e+00  0.0000000000000000e+00  0.0000000000000000e+00  0.0000000000000000e+00 
 0.0000000000000000e+00  0.0000000000000000e+00  0.0000000000000000e+00  0.0000000000000000e+00 
 0.0000000000000000e+00  0.0000000000000000e+00 
P    1   1.17          Wavefunction
 3.2687052138354722e-10  3.3548060093895939e-10  3.4431747815605859e-10  3.5338712710034974e-10 
 3.6269567919988819e-10  3.7224942739035940e-10  3.8205483036934183e-10  3.9211851696263380e-10 
 4.0244729060559094e-10  4.1304813394250806e-10  4.2392821354715229e-10  4.3509488476764010e-10 
 4.4655569669893195e-10  4.5831839728630856e-10  4.7039093856327683e-10  4.8278148202744671e-10 
 4.9549840415801474e-10  5.0855030207858252e-10  5.2194599936913996e-10  5.3569455203114038e-10 
 5.4980525460970335e-10  5.6428764647708037e-10  5.7915151828163305e-10  5.9440691856668568e-10 
 6.1006416056372130e-10  6.2613382916451955e-10  6.4262678807694658e-10  6.5955418716923483e-10 
 6.7692747000771786e-10  6.9475838159311750e-10  7.1305897630061144e-10  7.3184162602904859e-10 
 7.5111902856482438e-10  7.7090421616606809e-10  7.9121056437294368e-10  8.1205180105002592e-10 
 8.3344201566685807e-10  8.5539566882296935e-10  8.7792760202379192e-10  9.0105304771408157e-10 
 9.2478763957563101e-10  9.4914742309623408e-10  9.7414886641704435e-10  9.9980887146566769e-10 
 1.0261447853825066e-09  1.0531744122480871e-09  1.0809160251192964e-09  1.1093883783826624e-09 
 1.1386107204330340e-09  1.1686028066862276e-09  1.1993849129344402e-09  1.2309778490534568e-09 
 1.2634029730709165e-09  1.2966822056051537e-09  1.3308380446843684e-09  1.3658935809561498e-09 
 1.4018725132976331e-09  1.4387991648368398e-09  1.4766984993960401e-09  1.5155961383682440e-09 
 1.5555183780382389e-09  1.5964922073598778e-09  1.6385453262016379e-09  1.6817061640727867e-09 
 1.7260038993428106e-09  1.7714684789671005e-09  1.8181306387322361e-09  1.8660219240345433e-09 
 1.9151747112059828e-09  1.9656222294017808e-09  2.0173985830646032e-09  2.0705387749804531e-09 
 2.1250787299418862e-09  2.1810553190345352e-09  2.2385063845633676e-09  2.2974707656355191e-09 
 2.3579883244170088e-09  2.4200999730810786e-09  2.4838477014663736e-09  2.5492746054636736e-09 
 2.6164249161503506e-09  2.6853440296922583e-09  2.7560785380332652e-09  2.8286762603931772e-09 
 2.9031862755953494e-09  2.9796589552458360e-09  3.0581459977865062e-09  3.1387004634451563e-09 
 3.2213768101062393e-09  3.3062309301264654e-09  3.3933201881201533e-09  3.4827034597398902e-09 
 3.5744411714787094e-09  3.6685953415206920e-09  3.7652296216676170e-09  3.8644093403699895e-09 
 3.9662015468915664e-09  4.0706750566371834e-09  4.1779004976746017e-09  4.2879503584817454e-09 
 4.4008990369516767e-09  4.5168228906883805e-09  4.6358002886274173e-09  4.7579116640162829e-09 
 4.8832395687903415e-09  5.0118687293810674e-09  5.1438861039943192e-09  5.2793809413973890e-09 
 5.4184448412545507e-09  5.5611718160519099e-09  5.7076583546534022e-09  5.8580034875309261e-09 
 6.0123088537126955e-09  6.1706787694950709e-09  6.3332202989643304e-09  6.5000433263760485e-09 
 6.6712606304410168e-09  6.8469879605679176e-09  7.0273441151143098e-09  7.2124510216988171e-09 
 7.4024338196288148e-09  7.5974209444993394e-09  7.7975442150204055e-09  8.0029389221314449e-09 
 8.2137439204630994e-09  8.4301017222082057e-09  8.6521585934654216e-09  8.8800646531206421e-09 
 9.1139739743330386e-09  9.3540446886943451e-09  9.6004390931317813e-09  9.8533237596269037e-09 
 1.0112869647824579e-08  1.0379252220608127e-08  1.0652651562718883e-08  1.0933252502500258e-08 
 1.1221244736848696e-08  1.1516822959455912e-08  1.1820186992429191e-08  1.2131541921378650e-08 
 1.2451098234062846e-08  1.2779071962686448e-08  1.3115684829946130e-08  1.3461164398923477e-08 
 1.3815744226926189e-08  1.4179664023381622e-08  1.4553169811889377e-08  1.4936514096542510e-08 
 1.5329956032629795e-08  1.5733761601834449e-08  1.6148203792047743e-08  1.6573562781919069e-08 
 1.7010126130267244e-08  1.7458188970481048e-08  1.7918054210040493e-08  1.8390032735293636e-08 
 1.8874443621627382e-08  1.9371614349174459e-08  1.9881881024202214e-08  2.0405588606333079e-08 
 2.0943091141750140e-08  2.1494752002545644e-08  2.2060944132374124e-08  2.2642050298576220e-08 
 2.3238463350943764e-08  2.3850586487300841e-08  2.4478833526080626e-08  2.5123629186082049e-08 
 2.5785409373595575e-08  2.6464621477092066e-08  2.7161724669674065e-08  2.7877190219493927e-08 
 2.8611501808348600e-08  2.9365155858666513e-08  3.0138661869107563e-08  3.0932542759003165e-08 
 3.1747335221869101e-08  3.2583590088230225e-08  3.3441872698002359e-08  3.4322763282682955e-08 
 3.5226857357609091e-08  3.6154766124547844e-08  3.7107116884891290e-08  3.8084553463735331e-08 
 3.9087736645129324e-08  4.0117344618790336e-08  4.1174073438584424e-08  4.2258637493084694e-08 
 4.3371769988524119e-08  4.4514223444469983e-08  4.5686770202554665e-08  4.6890202948606931e-08 
 4.8125335248536493e-08  4.9393002098334409e-08  5.0694060488560891e-08  5.2029389983702068e-08 
 5.3399893316787818e-08  5.4806496999672017e-08  5.6250151949388385e-08  5.7731834131004833e-08 
 5.9252545217411346e-08  6.0813313266487101e-08  6.2415193416104822e-08  6.4059268597442114e-08 
 6.5746650267082062e-08  6.7478479158397869e-08  6.9255926052729738e-08  7.1080192570875133e-08 
 7.2952511985427534e-08  7.4874150054512937e-08  7.6846405877487605e-08  7.8870612773175659e-08 
 8.0948139181240096e-08  8.3080389587296854e-08  8.5268805472396907e-08  8.7514866287518548e-08 
 8.9820090453728777e-08  9.2186036388689576e-08  9.4614303560203203e-08  9.7106533567508763e-08 
 9.9664411251061009e-08  1.0228966583154159e-07  1.0498407207887271e-07  1.0774945151202369e-07 
 1.1058767363042111e-07  1.1350065717779548e-07  1.1649037143931863e-07  1.1955883757290858e-07 
 1.2270812997560184e-07  1.2594037768591751e-07  1.2925776582316001e-07  1.3266253706463496e-07 
 1.3615699316177503e-07  1.3974349649620231e-07  1.4342447167677852e-07  1.4720240717872204e-07 
 1.5107985702590103e-07  1.5505944251743872e-07  1.5914385399979916e-07  1.6333585268555048e-07 
 1.6763827252003536e-07  1.7205402209721105e-07  1.7658608662595310e-07  1.8123752994815339e-07 
 1.8601149660997485e-07  1.9091121398766478e-07  1.9593999446936234e-07  2.0110123769437581e-07 
 2.0639843285144347e-07  2.1183516103753059e-07  2.1741509767875794e-07  2.2314201501509794e-07 
 2.2901978465051755e-07  2.3505238017029233e-07  2.4124387982726007e-07  2.4759846929882991e-07 
 2.5412044451661140e-07  2.6081421457057352e-07  2.6768430468970020e-07  2.7473535930115413e-07 
 2.8197214517001749e-07  2.8939955462173315e-07  2.9702260884942257e-07  3.0484646130831735e-07 
 3.1287640119959844e-07  3.2111785704599909e-07  3.2957640036158739e-07  3.3825774941821087e-07 
 3.4716777311114933e-07  3.5631249492658918e-07  3.6569809701360380e-07  3.7533092436339156e-07 
 3.8521748909860051e-07  3.9536447487563851e-07  4.0577874140294904e-07  4.1646732907830779e-07 
 4.2743746374827704e-07  4.3869656159303916e-07  4.5025223413991248e-07  4.6211229340894222e-07 
 4.7428475719404840e-07  4.8677785448330013e-07  4.9960003102198639e-07  5.1275995502224244e-07 
 5.2626652302309441e-07  5.4012886590488214e-07  5.5435635506212575e-07  5.6895860873900688e-07 
 5.8394549853174326e-07  5.9932715606224799e-07  6.1511397982757855e-07  6.3131664222979772e-07 
 6.4794609679095969e-07  6.6501358555769351e-07  6.8253064670000446e-07  7.0050912231109123e-07 
 7.1896116641278485e-07  7.3789925317185833e-07  7.5733618533274896e-07  7.7728510287239768e-07 
 7.9775949188305368e-07  8.1877319368904718e-07  8.4034041420369701e-07  8.6247573353267240e-07 
 8.8519411583030463e-07  9.0851091941550658e-07  9.3244190715414278e-07  9.5700325711486314e-07 
 9.8221157350560460e-07  1.0080838978981542e-06  1.0346377207483583e-06  1.0618909932197631e-06 
 1.0898621393186857e-06  1.1185700683489084e-06  1.1480341876944195e-06  1.1782744159388412e-06 
 1.2093111963304061e-06  1.2411655106015919e-06  1.2738588931527487e-06  1.3074134456093050e-06 
 1.3418518517623940e-06  1.3771973929029985e-06  1.4134739635599769e-06  1.4507060876526045e-06 
 1.4889189350685521e-06  1.5281383386785034e-06  1.5683908117989112e-06  1.6097035661146917e-06 
 1.6521045300739762e-06  1.6956223677673427e-06  1.7402864983042977e-06  1.7861271157000947e-06 
 1.8331752092863302e-06  1.8814625846591178e-06  1.9310218851789847e-06  1.9818866140370365e-06 
 2.0340911569022864e-06  2.0876708051654668e-06  2.1426617797950173e-06  2.1991012558213901e-06 
 2.2570273874661939e-06  2.3164793339331809e-06  2.3774972858784861e-06  2.4401224925780204e-06 
 2.5043972898103648e-06  2.5703651284740188e-06  2.6380706039583275e-06  2.7075594862879352e-06 
 2.7788787510611548e-06  2.8520766112031233e-06  2.9272025495552283e-06  3.0043073523228104e-06 
 3.0834431434037432e-06  3.1646634196210898e-06  3.2480230868836389e-06  3.3335784972987434e-06 
 3.4213874872625485e-06  3.5115094165533417e-06  3.6040052084544293e-06  3.6989373909336435e-06 
 3.7963701389073185e-06  3.8963693176172694e-06  3.9990025271500812e-06  4.1043391481287981e-06 
 4.2124503886078494e-06  4.3234093322029181e-06  4.4372909874882572e-06  4.5541723386948107e-06 
 4.6741323977433938e-06  4.7972522576480739e-06  4.9236151473258355e-06  5.0533064878495307e-06 
 5.1864139501821206e-06  5.3230275144312060e-06  5.4632395306638440e-06  5.6071447813227591e-06 
 5.7548405452860722e-06  5.9064266636138056e-06  6.0620056070256001e-06  6.2216825451551643e-06 
 6.3855654176282525e-06  6.5537650070121622e-06  6.7263950136860002e-06  6.9035721326822634e-06 
 7.0854161325516569e-06  7.2720499363043380e-06  7.4635997044822758e-06  7.6601949204187978e-06 
 7.8619684777428701e-06  8.0690567701872062e-06  8.2815997837608018e-06  8.4997411913481442e-06 
 8.7236284497988986e-06  8.9534128995736869e-06  9.1892498670131237e-06  9.4312987692991838e-06 
 9.6797232221797264e-06  9.9346911505288698e-06  1.0196374901817825e-05  1.0464951362572761e-05 
 1.0740602077898261e-05  1.1023513374147049e-05  1.1313876484818721e-05  1.1611887679772439e-05 
 1.1917748397840712e-05  1.2231665382933784e-05  1.2553850823726402e-05  1.2884522497021136e-05 
 1.3223903914885052e-05  1.3572224475658896e-05  1.3929719618940548e-05  1.4296630984647475e-05 
 1.4673206576265191e-05  1.5059700928391948e-05  1.5456375278692550e-05  1.5863497744377219e-05 
 1.6281343503324504e-05  1.6710194979970257e-05  1.7150342036088010e-05  1.7602082166589290e-05 
 1.8065720700475885e-05  1.8541571007079348e-05  1.9029954707726798e-05  1.9531201892975550e-05 
 2.0045651345562940e-05  2.0573650769221549e-05  2.1115557023513818e-05  2.1671736364844358e-05 
 2.2242564693812074e-05  2.2828427809068829e-05  2.3429721667855373e-05  2.4046852653390035e-05 
 2.4680237849290099e-05  2.5330305321210554e-05  2.5997494405889769e-05  2.6682256007796501e-05 
 2.7385052903577901e-05  2.8106360054513163e-05  2.8846664927183183e-05  2.9606467822571654e-05 
 3.0386282213818931e-05  3.1186635092855898e-05  3.2008067326150578e-05  3.2851134019806823e-05 
 3.3716404894260230e-05  3.4604464668823190e-05  3.5515913456337203e-05  3.6451367168197824e-05 
 3.7411457930023929e-05  3.8396834508250517e-05  3.9408162747931457e-05  4.0446126022045981e-05 
 4.1511425692610396e-05  4.2604781583904497e-05  4.3726932468129845e-05  4.4878636563825949e-05 
 4.6060672047378457e-05  4.7273837577961929e-05  4.8518952836269438e-05  4.9796859077389753e-05 
 5.1108419698202447e-05  5.2454520819671044e-05  5.3836071884424117e-05  5.5254006270023986e-05 
 5.6709281918334030e-05  5.8202881981405190e-05  5.9735815484313828e-05  6.1309118005394172e-05 
 6.2923852374320127e-05  6.4581109388502688e-05  6.6282008548282023e-05  6.8027698811404594e-05 
 6.9819359367289700e-05  7.1658200431601597e-05  7.3545464061657890e-05  7.5482424993217532e-05 
 7.7470391499206536e-05  7.9510706270953887e-05  8.1604747322524434e-05  8.3753928918751147e-05 
 8.5959702527584604e-05  8.8223557797393343e-05  9.0547023559864860e-05  9.2931668859174706e-05 
 9.5379104008106756e-05  9.7890981671827025e-05  1.0046899798002970e-04  1.0311489366819434e-04 
 1.0583045524871058e-04  1.0861751621264692e-04  1.1147795826296012e-04  1.1441371257996130e-04 
 1.1742676111987746e-04  1.2051913794736619e-04  1.2369293060286512e-04  1.2695028150567977e-04 
 1.3029338939373600e-04  1.3372451080094733e-04  1.3724596157317114e-04  1.4086011842375358e-04 
 1.4456942052968648e-04  1.4837637116942850e-04  1.5228353940346584e-04  1.5629356179871809e-04 
 1.6040914419792173e-04  1.6463306353515115e-04  1.6896816969866929e-04  1.7341738744232669e-04 
 1.7798371834676130e-04  1.8267024283168015e-04  1.8748012222054048e-04  1.9241660085897490e-04 
 1.9748300828834444e-04  2.0268276147583533e-04  2.0801936710255060e-04  2.1349642391108511e-04 
 2.1911762511410814e-04  2.2488676086551733e-04  2.3080772079576504e-04  2.3688449661299910e-04 
 2.4312118477169979e-04  2.4952198921053667e-04  2.5609122416121179e-04  2.6283331703009854e-04 
 2.6975281135453109e-04  2.7685436983564333e-04  2.8414277744970388e-04  2.9162294463994088e-04 
 2.9929991059089950e-04  3.0717884658742291e-04  3.1526505946040043e-04  3.2356399512147797e-04 
 3.3208124218897706e-04  3.4082253570732617e-04  3.4979376096235941e-04  3.5900095739489817e-04 
 3.6845032261508578e-04  3.7814821652000632e-04  3.8810116551717670e-04  3.9831586685656575e-04 
 4.0879919307385177e-04  4.1955819654770010e-04  4.3060011417390146e-04  4.4193237215928193e-04 
 4.5356259093836309e-04  4.6549859021581622e-04  4.7774839413783268e-04  4.9032023659559385e-04 
 5.0322256666410648e-04  5.1646405417973915e-04  5.3005359545987222e-04  5.4400031916814959e-04 
 5.5831359232890387e-04  5.7300302649440020e-04  5.8807848406862808e-04  6.0355008479145837e-04 
 6.1942821238705607e-04  6.3572352138053416e-04  6.5244694408691682e-04  6.6960969777656954e-04 
 6.8722329202134151e-04  7.0529953622575959e-04  7.2385054734770389e-04  7.4288875781308359e-04 
 7.6242692362914015e-04  7.8247813270108273e-04  8.0305581335687231e-04  8.2417374308506493e-04 
 8.4584605749071817e-04  8.6808725947447925e-04  8.9091222864005762e-04  9.1433623093540315e-04 
 9.3837492853300391e-04  9.6304438995483213e-04  9.8836110044755641e-04  1.0143419726137675e-03 
 1.0410043573050444e-03  1.0683660547828240e-03  1.0964453261531179e-03  1.1252609050812490e-03 
 1.1548320097928783e-03  1.1851783553677013e-03  1.2163201663323118e-03  1.2482781895588203e-03 
 1.2810737074759495e-03  1.3147285515994064e-03  1.3492651163884678e-03  1.3847063734357986e-03 
 1.4210758859976430e-03  1.4583978238716291e-03  1.4966969786295219e-03  1.5359987792123841e-03 
 1.5763293078956719e-03  1.6177153166319221e-03  1.6601842437787573e-03  1.7037642312200472e-03 
 1.7484841418881456e-03  1.7943735776952043e-03  1.8414628978816595e-03  1.8897832377900541e-03 
 1.9393665280724496e-03  1.9902455143397308e-03  2.0424537772611852e-03  2.0960257531228003e-03 
 2.1509967548527598e-03  2.2074029935226923e-03  2.2652816003332337e-03  2.3246706490925241e-03 
 2.3856091791962680e-03  2.4481372191180180e-03  2.5122958104183196e-03  2.5781270322813854e-03 
 2.6456740265879300e-03  2.7149810235327703e-03  2.7860933677957846e-03  2.8590575452747268e-03 
 2.9339212103883764e-03  3.0107332139583973e-03  3.0895436316781865e-03  3.1704037931768957e-03 
 3.2533663116866771e-03  3.3384851143210387e-03  3.4258154729720942e-03  3.5154140358341955e-03 
 3.6073388595613725e-03  3.7016494420656402e-03  3.7984067559631027e-03  3.8976732826744042e-03 
 3.9995130471858686e-03  4.1039916534772666e-03  4.2111763206218542e-03  4.3211359195639062e-03 
 4.4339410105785591e-03  4.5496638814183591e-03  4.6683785861503938e-03  4.7901609846873984e-03 
 4.9150887830156868e-03  5.0432415741221261e-03  5.1747008796218423e-03  5.3095501920875417e-03 
 5.4478750180808281e-03  5.5897629218849172e-03  5.7353035699375656e-03  5.8845887759620911e-03 
 6.0377125467935043e-03  6.1947711288958766e-03  6.3558630555660620e-03  6.5210891948178926e-03 
 6.6905527979399127e-03  6.8643595487185701e-03  7.0426176133176364e-03  7.2254376908034200e-03 
 7.4129330643040534e-03  7.6052196527898056e-03  7.8024160634600648e-03  8.0046436447211346e-03 
 8.2120265397376112e-03  8.4246917405384793e-03  8.6427691426577222e-03  8.8663916002873298e-03 
 9.0956949819192400e-03  9.3308182264508939e-03  9.5719033997274470e-03  9.8190957514918756e-03 
 1.0072543772712519e-02  1.0332399253255733e-02  1.0598817339869540e-02  1.0871956594442421e-02 
 1.1151979052499440e-02  1.1439050281896205e-02  1.1733339441669334e-02  1.2035019341000323e-02 
 1.2344266498248026e-02  1.2661261200003285e-02  1.2986187560117638e-02  1.3319233578656537e-02 
 1.3660591200726192e-02  1.4010456375121678e-02  1.4369029112743055e-02  1.4736513544725103e-02 
 1.5113117980225615e-02  1.5499054963816622e-02  1.5894541332422567e-02  1.6299798271749565e-02 
 1.6715051372150090e-02  1.7140530683868133e-02  1.7576470771610959e-02  1.8023110768395058e-02 
 1.8480694428615940e-02  1.8949470180293831e-02  1.9429691176450568e-02  1.9921615345576623e-02 
 2.0425505441151740e-02  2.0941629090187645e-02  2.1470258840767784e-02  2.2011672208565213e-02 
 2.2566151722328374e-02  2.3133984968332882e-02  2.3715464633807640e-02  2.4310888549354596e-02 
 2.4920559730394153e-02  2.5544786417681497e-02  2.6183882116954743e-02  2.6838165637792014e-02 
 2.7507961131772903e-02  2.8193598130059429e-02  2.8895411580533267e-02  2.9613741884648857e-02 
 3.0348934934187471e-02  3.1101342148123757e-02  3.1871320509845417e-02  3.2659232604996979e-02 
 3.3465446660251821e-02  3.4290336583350262e-02  3.5134282004779069e-02  3.5997668321505201e-02 
 3.6880886743217253e-02  3.7784334341569997e-02  3.8708414102970636e-02  3.9653534985490742e-02 
 4.0620111980534342e-02  4.1608566179939764e-02  4.2619324849241934e-02  4.3652821507870719e-02 
 4.4709496017110884e-02  4.5789794676699073e-02  4.6894170330983150e-02  4.8023082485618915e-02 
 4.9176997435827860e-02  5.0356388407287248e-02  5.1561735710771855e-02  5.2793526911709625e-02 
 5.4052257015859521e-02  5.5338428672360072e-02  5.6652552395437511e-02  5.7995146806100718e-02 
 5.9366738895186177e-02  6.0767864309151001e-02  6.2199067660045432e-02  6.3660902861128923e-02 
 6.5153933489625629e-02  6.6678733178147820e-02  6.8235886036348309e-02  6.9825987104397400e-02 
 7.1449642839916824e-02  7.3107471640041471e-02  7.4800104400322573e-02  7.6528185112231320e-02 
 7.8292371501072267e-02  8.0093335706166086e-02  8.1931765005219273e-02  8.3808362584852650e-02 
 8.5723848359318691e-02  8.7678959839489895e-02  8.9674453054250633e-02  9.1711103526462417e-02 
 9.3789707305699119e-02  9.5911082059955327e-02  9.8076068228513141e-02  1.0028553023810424e-01 
 1.0254035778441757e-01  1.0484146718087153e-01  1.0718980277638390e-01  1.0958633844362817e-01 
 1.1203207913895048e-01  1.1452806253472998e-01  1.1707536072449341e-01  1.1967508200052736e-01 
 1.2232837270307216e-01  1.2503641913941757e-01  1.2780044957034734e-01  1.3062173626040077e-01 
 1.3350159758731753e-01  1.3644140020482218e-01  1.3944256125156540e-01  1.4250655059758568e-01 
 1.4563489311807140e-01  1.4882917098249862e-01  1.5209102594538193e-01  1.5542216162290795e-01 
 1.5882434573761478e-01  1.6229941231103376e-01  1.6584926378180886e-01  1.6947587302425240e-01 
 1.7318128523956880e-01  1.7696761968906485e-01  1.8083707123555992e-01  1.8479191165589004e-01 
 1.8883449068385103e-01  1.9296723673913357e-01  1.9719265729374555e-01  2.0151333882308295e-01 
 2.0593194628418313e-01  2.1045122205876360e-01  2.1507398429341154e-01  2.1980312456374443e-01 
 2.2464160478352485e-01  2.2959245327360717e-01  2.3465875989926369e-01  2.3984367017795066e-01 
 2.4515037825302555e-01  2.5058211862244073e-01  2.5614215650520888e-01  2.6183377672266689e-01 
 2.6766027096654582e-01  2.7362492332204441e-01  2.7973099391178130e-01  2.8598170052640220e-01 
 2.9238019811027705e-01  2.9892955597694693e-01  3.0563273263960911e-01  3.1249254815791155e-01 
 3.1951165392464559e-01  3.2669249984558357e-01  3.3403729890361844e-01  3.4154798914529594e-01 
 3.4922619318425768e-01  3.5707317538208533e-01  3.6508979694202315e-01  3.7327646923380248e-01 
 3.8163310575621501e-01  3.9015907323513482e-01  3.9885314244454001e-01  4.0771343942205246e-01 
 4.1673739782353370e-01  4.2592171321812400e-01  4.3526230016092982e-01  4.4475425289120263e-01 
 4.5439181048616850e-01  4.6416832725252277e-01  4.7407624905756190e-01  4.8410709618848430e-01 
 4.9425145318055669e-01  5.0449896586967780e-01  5.1483834570005993e-01  5.2525738105185482e-01 
 5.3574295504882208e-01  5.4628106897214568e-01  5.5685687006376439e-01  5.6745468218538331e-01 
 5.7805803755601948e-01  5.8864970767830982e-01  5.9921173164072039e-01  6.0972544029422615e-01 
 6.2017147536527006e-01  6.3052980335857456e-01  6.4077972505451541e-01  6.5089988240662189e-01 
 6.6086826556209877e-01  6.7066222342966386e-01  6.8025848159877367e-01  6.8963317141354352e-01 
 6.9876187362043252e-01  7.0761968061396374e-01  7.1618128645597268e-01  7.2442105689480796e-01 
 7.3231316391409196e-01  7.3983173133044056e-01  7.4695098009922190e-01  7.5364539129316355e-01 
 7.5988987841957634e-01  7.6565996466494768e-01  7.7093196138829534e-01  7.7568314438455810e-01 
 7.7989192477143188e-01  7.8353801177045435e-01  7.8660256511199067e-01  7.8906833525745979e-01 
 7.9091979007306679e-01  7.9214322698933670e-01  7.9272687003031939e-01  7.9266095139267911e-01 
 7.9193777750017103e-01  7.9055177965829582e-01  7.8849954959367274e-01  7.8577986028938995e-01 
 7.8239367262733761e-01  7.7834412842619172e-01  7.7363653052321124e-01  7.6827831059217777e-01 
 7.6227898542066019e-01  7.5565010238912766e-01  7.4840517490320813e-01  7.4055960852647884e-01 
 7.3213061855292616e-01  7.2313713973978211e-01  7.1359972889650403e-01  7.0354046099635914e-01 
 6.9298281944538898e-01  6.8195158111880660e-01  6.7047269674206311e-01  6.5857316716695169e-01 
 6.4628091609922611e-01  6.3362465983196736e-01  6.2063377454960145e-01  6.0733816180816902e-01 
 5.9376811284662001e-01  5.7995417166255714e-01  5.6592700157941334e-01  5.5171724832967028e-01 
 5.3735540843563934e-01  5.2287170000275318e-01  5.0829593776783011e-01  4.9365741348746001e-01 
 4.7898478274050166e-01  4.6430595916631201e-01  4.4964801707274388e-01  4.3503710322657663e-01 
 4.2049835847858219e-01  4.0605584969414471e-01  3.9173251226181088e-01  3.7755010324578941e-01 
 3.6352916504447563e-01  3.4968899922441166e-01  3.3604765002545711e-01  3.2262189688456072e-01 
 3.0942725520680697e-01  2.9647798452598523e-01  2.8378710314367900e-01  2.7136640831513764e-01 
 2.5922650105999279e-01  2.4737681471315662e-01  2.3582564639209586e-01  2.2458019063661180e-01 
 2.1364657457140879e-01  2.0302989404503799e-01  1.9273425030624994e-01  1.8276278688557127e-01 
 1.7311772645165288e-01  1.6380040750478697e-01  1.5481132085087401e-01  1.4615014586574501e-01 
 1.3781578661073454e-01  1.2980640789526549e-01  1.2211947140131403e-01  1.1475177198911396e-01 
 1.0769947429508678e-01  1.0095814971397488e-01  9.4522813830012362e-02  8.8387964329294161e-02 
 8.2547619389839025e-02  7.6995356509523563e-02  7.1724351697111000e-02  6.6727418919661122e-02 
 6.1997049671911747e-02  5.7525452510592948e-02  5.3304592379475255e-02  4.9326229539419314e-02 
 4.5581957911652468e-02  4.2063242641129102e-02  3.8761456690543643e-02  3.5667916283319064e-02 
 3.2773915024009878e-02  3.0070756538326374e-02  2.7549785491157323e-02  2.5202416858262310e-02 
 2.3020163346190642e-02  2.0994660874677745e-02  1.9117692055887751e-02  1.7381207625017502e-02 
 1.5777345796563653e-02  1.4298449539609612e-02  1.2937081783476643e-02  1.1686038581715432e-02 
 1.0538360277469962e-02  9.4873407265789814e-03  8.5265346463292650e-03  7.6497631675497444e-03 
 6.8511176758385131e-03  6.1249620343563410e-03  5.4659332847555855e-03  4.8689409287306631e-03 
 4.3291648933095851e-03  3.8420522857797916e-03  3.4033130449304064e-03  3.0089145954442678e-03 
 2.6550756117548575e-03  2.3382589965163882e-03  2.0551641770528120e-03  1.8027188207781443e-03 
 1.5780700676392009e-03  1.3785753741480916e-03  1.2017930595718249e-03  1.0454726403533155e-03 
 9.0754503414508926e-04  7.8611270912544743e-04  6.7943984914948640e-04  5.8594259925272675e-04 
 5.0417945006227965e-04  4.3284181358208690e-04  3.7074483669390725e-04  3.1681849262921478e-04 
 2.7009898468459436e-04  2.2972049063538477e-04  1.9490727070413925e-04  1.6496615661110557e-04 
 1.3927943421690627e-04  1.1729812755778016e-04  9.8535687836254606e-05  8.2562086935809842e-05 
 6.8998311541680466e-05  5.7511250832552264e-05  4.7808967985998330e-05  3.9636343432304254e-05 
 3.2771075855026682e-05  2.7020025372684218e-05  2.2215882119308554e-05  1.8214142549448332e-05 
 1.4890375200380003e-05  1.2137757323775744e-05  9.8648637229533166e-06  7.9936892717167592e-06 
 6.4578869184248266e-06  5.2012034666009791e-06  4.1760960443991357e-06  3.3425129041443996e-06 
 2.6668230061389780e-06  2.1208797159130940e-06  1.6812048610049090e-06  1.3282803341080419e-06 
 1.0459353780519015e-06  8.2081863068573614e-07  6.4194493247501437e-07  5.0030779661301787e-07 
 3.8854930269509665e-07  3.0067999423677794e-07  2.3184213288248858e-07  1.7811038481828474e-07 
 1.3632468583141442e-07  1.0395064971677512e-07  7.8963450641096892e-08  5.9751624579539152e-08 
 4.5037699581848361e-08  3.3812981833592887e-08  2.5284196575332114e-08  1.8830012948318948e-08 
 1.3965772751426692e-08  1.0314998066779483e-08  7.5864749042383892e-09  5.5559025461071902e-09 
 4.0512641675859839e-09  2.9412164562228769e-09  2.1259170822934011e-09  1.5298115256179384e-09 
 1.0959872911649354e-09  7.8177609366123169e-10  5.5534510884914980e-10  3.9306863219413552e-10 
 2.7751303096225338e-10  0.0000000000000000e+00  0.0000000000000000e+00  0.0000000000000000e+00 
 0.0000000000000000e+00  0.0000000000000000e+00  0.0000000000000000e+00  0.0000000000000000e+00 
 0.0000000000000000e+00  0.0000000000000000e+00  0.0000000000000000e+00  0.0000000000000000e+00 
 0.0000000000000000e+00  0.0000000000000000e+00  0.0000000000000000e+00  0.0000000000000000e+00 
 0.0000000000000000e+00  0.0000000000000000e+00  0.0000000000000000e+00  0.0000000000000000e+00 
 0.0000000000000000e+00  0.0000000000000000e+00  0.0000000000000000e+00  0.0000000000000000e+00 
 0.0000000000000000e+00  0.0000000000000000e+00  0.0000000000000000e+00  0.0000000000000000e+00 
 0.0000000000000000e+00  0.0000000000000000e+00  0.0000000000000000e+00  0.0000000000000000e+00 
 0.0000000000000000e+00  0.0000000000000000e+00  0.0000000000000000e+00  0.0000000000000000e+00 
 0.0000000000000000e+00  0.0000000000000000e+00  0.0000000000000000e+00  0.0000000000000000e+00 
 0.0000000000000000e+00  0.0000000000000000e+00  0.0000000000000000e+00  0.0000000000000000e+00 
 0.0000000000000000e+00  0.0000000000000000e+00  0.0000000000000000e+00  0.0000000000000000e+00 
 0.0000000000000000e+00  0.0000000000000000e+00  0.0000000000000000e+00  0.0000000000000000e+00 
 0.0000000000000000e+00  0.0000000000000000e+00  0.0000000000000000e+00  0.0000000000000000e+00 
 0.0000000000000000e+00  0.0000000000000000e+00  0.0000000000000000e+00  0.0000000000000000e+00 
 0.0000000000000000e+00  0.0000000000000000e+00  0.0000000000000000e+00  0.0000000000000000e+00 
 0.0000000000000000e+00  0.0000000000000000e+00  0.0000000000000000e+00  0.0000000000000000e+00 
 0.0000000000000000e+00  0.0000000000000000e+00  0.0000000000000000e+00  0.0000000000000000e+00 
 0.0000000000000000e+00  0.0000000000000000e+00  0.0000000000000000e+00  0.0000000000000000e+00 
 0.0000000000000000e+00  0.0000000000000000e+00  0.0000000000000000e+00  0.0000000000000000e+00 
 0.0000000000000000e+00  0.0000000000000000e+00  0.0000000000000000e+00  0.0000000000000000e+00 
 0.0000000000000000e+00  0.0000000000000000e+00  0.0000000000000000e+00  0.0000000000000000e+00 
 0.0000000000000000e+00  0.0000000000000000e+00  0.0000000000000000e+00  0.0000000000000000e+00 
 0.0000000000000000e+00  0.0000000000000000e+00  0.0000000000000000e+00  0.0000000000000000e+00 
 0.0000000000000000e+00  0.0000000000000000e+00  0.0000000000000000e+00  0.0000000000000000e+00 
 0.0000000000000000e+00  0.0000000000000000e+00  0.0000000000000000e+00  0.0000000000000000e+00 
 0.0000000000000000e+00  0.0000000000000000e+00  0.0000000000000000e+00  0.0000000000000000e+00 
 0.0000000000000000e+00  0.0000000000000000e+00  0.0000000000000000e+00  0.0000000000000000e+00 
 0.0000000000000000e+00  0.0000000000000000e+00  0.0000000000000000e+00  0.0000000000000000e+00 
 0.0000000000000000e+00  0.0000000000000000e+00  0.0000000000000000e+00  0.0000000000000000e+00 
 0.0000000000000000e+00  0.0000000000000000e+00  0.0000000000000000e+00  0.0000000000000000e+00 
 0.0000000000000000e+00  0.0000000000000000e+00  0.0000000000000000e+00  0.0000000000000000e+00 
 0.0000000000000000e+00  0.0000000000000000e+00  0.0000000000000000e+00  0.0000000000000000e+00 
 0.0000000000000000e+00  0.0000000000000000e+00  0.0000000000000000e+00  0.0000000000000000e+00 
 0.0000000000000000e+00  0.0000000000000000e+00  0.0000000000000000e+00  0.0000000000000000e+00 
 0.0000000000000000e+00  0.0000000000000000e+00 
P    1   2.33          Wavefunction
 1.7264203770507892e-10  1.7718959272378969e-10  1.8185693465492501e-10  1.8664721879937117e-10 
 1.9156368357163215e-10  1.9660965268912170e-10  2.0178853741912222e-10  2.0710383888493203e-10 
 2.1255915043275756e-10  2.1815816006095245e-10  2.2390465291324472e-10  2.2980251383763824e-10 
 2.3585573001271765e-10  2.4206839364313315e-10  2.4844470472608668e-10  2.5498897389068974e-10 
 2.6170562531211295e-10  2.6859919970249698e-10  2.7567435738064680e-10  2.8293588142258450e-10 
 2.9038868089509114e-10  2.9803779417442266e-10  3.0588839235244389e-10  3.1394578273248378e-10 
 3.2221541241727458e-10  3.3070287199140038e-10  3.3941389930074553e-10  3.4835438333149697e-10 
 3.5753036819132239e-10  3.6694805719541818e-10  3.7661381706018626e-10  3.8653418220737651e-10 
 3.9671585918160494e-10  4.0716573118423344e-10  4.1789086272667541e-10  4.2889850440627519e-10 
 4.4019609780798718e-10  4.5179128053517108e-10  4.6369189137290276e-10  4.7590597558729071e-10 
 4.8844179036438292e-10  5.0130781039233865e-10  5.1451273359064036e-10  5.2806548699021896e-10 
 5.4197523276846574e-10  5.5625137444321350e-10  5.7090356322987332e-10  5.8594170456602216e-10 
 6.0137596480785707e-10  6.1721677810303869e-10  6.3347485344457185e-10  6.5016118191049361e-10 
 6.6728704409425889e-10  6.8486401773085288e-10  7.0290398552377934e-10  7.2141914317822113e-10 
 7.4042200764580125e-10  7.5992542558651848e-10  7.7994258205357825e-10  8.0048700940699175e-10 
 8.2157259646196549e-10  8.4321359787826874e-10  8.6542464379692712e-10  8.8822074973075498e-10 
 9.1161732671541271e-10  9.3563019172785418e-10  9.6027557837920543e-10  9.8557014788930328e-10 
 1.0115310003503141e-09  1.0381756862870473e-09  1.0655222185217788e-09  1.0935890843516032e-09 
 1.1223952580465515e-09  1.1519602136769195e-09  1.1823039382784803e-09  1.2134469453644815e-09 
 1.2454102887935616e-09  1.2782155770029583e-09  1.3118849876166357e-09  1.3464412824382018e-09 
 1.3819078228387551e-09  1.4183085855500578e-09  1.4556681788737234e-09  1.4940118593173604e-09 
 1.5333655486689356e-09  1.5737558515208905e-09  1.6152100732558531e-09  1.6577562385061222e-09 
 1.7014231100993794e-09  1.7462402085034599e-09  1.7922378317833096e-09  1.8394470760836304e-09 
 1.8878998566510574e-09  1.9376289294100805e-09  1.9886679131072952e-09  2.0410513120389534e-09 
 2.0948145393771856e-09  2.1499939411106439e-09  2.2066268206157828e-09  2.2647514638753539e-09 
 2.3244071653611900e-09  2.3856342545987618e-09  2.4484741234314741e-09  2.5129692540031216e-09 
 2.5791632474774397e-09  2.6471008535141469e-09  2.7168280005214152e-09  2.7883918267052269e-09 
 2.8618407119365876e-09  2.9372243104581657e-09  3.0145935844524451e-09  3.0940008384941014e-09 
 3.1754997549098798e-09  3.2591454300698947e-09  3.3449944116348671e-09  3.4331047367844943e-09 
 3.5235359714527943e-09  3.6163492505969361e-09  3.7116073195268012e-09  3.8093745763231931e-09 
 3.9097171153733956e-09  4.0127027720534835e-09  4.1184011685876216e-09  4.2268837611153335e-09 
 4.3382238879985646e-09  4.4524968194012114e-09  4.5697798081746015e-09  4.6901521420833702e-09 
 4.8136951974069904e-09  4.9404924939532416e-09  5.0706297515207647e-09  5.2041949478489101e-09 
 5.3412783780940288e-09  5.4819727158724266e-09  5.6263730759112615e-09  5.7745770783496944e-09 
 5.9266849147338300e-09  6.0827994157499924e-09  6.2430261207421901e-09  6.4074733490607110e-09 
 6.5762522732901153e-09  6.7494769944061361e-09  6.9272646189122594e-09  7.1097353380081762e-09 
 7.2970125088435912e-09  7.4892227379123427e-09  7.6864959666431951e-09  7.8889655592451828e-09 
 8.0967683928668744e-09  8.3100449501305141e-09  8.5289394141036200e-09  8.7535997657721960e-09 
 8.9841778840814948e-09  9.2208296486119510e-09  9.4637150449596913e-09  9.7129982728928613e-09 
 9.9688478573568948e-09  1.0231436762403780e-08  1.0500942508122302e-08  1.0777547290648364e-08 
 1.1061438105336476e-08  1.1352806873175701e-08  1.1651850570535532e-08  1.1958771362329357e-08 
 1.2273776738685639e-08  1.2597079655219046e-08  1.2928898676996579e-08  1.3269458126295792e-08 
 1.3618988234255156e-08  1.3977725296519033e-08  1.4345911832982469e-08  1.4723796751743838e-08 
 1.5111635517376114e-08  1.5509690323630615e-08  1.5918230270689880e-08  1.6337531547089577e-08 
 1.6767877616432402e-08  1.7209559409020198e-08  1.7662875518533831e-08  1.8128132403893795e-08 
 1.8605644596438052e-08  1.9095734912557079e-08  1.9598734671929959e-08  2.0114983921508990e-08 
 2.0644831665404271e-08  2.1188636100823631e-08  2.1746764860227521e-08  2.2319595259862383e-08 
 2.2907514554840670e-08  2.3510920200939944e-08  2.4130220123297936e-08  2.4765832992185351e-08 
 2.5418188506042718e-08  2.6087727681972743e-08  2.6774903153884527e-08  2.7480179478491059e-08 
 2.8204033449367135e-08  2.8946954419279674e-08  2.9709444631008696e-08  3.0492019556882270e-08 
 3.1295208247255234e-08  3.2119553688167119e-08  3.2965613168421124e-08  3.3833958656332310e-08 
 3.4725177186399647e-08  3.5639871256163385e-08  3.6578659233516038e-08  3.7542175774742304e-08 
 3.8531072253570476e-08  3.9546017201525580e-08  4.0587696759881709e-08  4.1656815143519295e-08 
 4.2754095117000741e-08  4.3880278483186367e-08  4.5036126584720913e-08  4.6222420818729643e-08 
 4.7439963165072155e-08  4.8689576728510689e-08  4.9972106295159781e-08  5.1288418903593251e-08 
 5.2639404430994711e-08  5.4025976194747786e-08  5.5449071569872817e-08  5.6909652622727373e-08 
 5.8408706761398965e-08  5.9947247403229872e-08  6.1526314659924949e-08  6.3146976040706069e-08 
 6.4810327173987891e-08  6.6517492548063759e-08  6.8269626271301459e-08  7.0067912852363459e-08 
 7.1913568000978759e-08  7.3807839449807827e-08  7.5752007797956151e-08  7.7747387376706669e-08 
 7.9795327138056381e-08  8.1897211566657584e-08  8.4054461615780734e-08  8.6268535667931031e-08 
 8.8540930520768505e-08  9.0873182398998093e-08  9.3266867992913453e-08  9.5723605524297037e-08 
 9.8245055840396489e-08  1.0083292353671734e-07  1.0348895810939039e-07  1.0621495513789360e-07 
 1.0901275749892715e-07  1.1188425661226273e-07  1.1483139371940904e-07  1.1785616119595772e-07 
 1.2096060389849712e-07  1.2414682054700405e-07  1.2741696514364793e-07  1.3077324842896650e-07 
 1.3421793937639757e-07  1.3775336672617652e-07  1.4138192055963670e-07  1.4510605391497694e-07 
 1.4892828444558803e-07  1.5285119612205980e-07  1.5687744097901838e-07  1.6100974090797521e-07 
 1.6525088949739958e-07  1.6960375392125897e-07  1.7407127687730333e-07  1.7865647857640457e-07 
 1.8336245878429599e-07  1.8819239891709222e-07  1.9314956419200729e-07  1.9823730583472492e-07 
 2.0345906334491426e-07  2.0881836682142316e-07  2.1431883934872301e-07  2.1996419944621789e-07 
 2.2575826358207665e-07  2.3170494875328807e-07  2.3780827513368451e-07  2.4407236879172609e-07 
 2.5050146447988428e-07  2.5709990849751071e-07  2.6387216162912959e-07  2.7082280216013929e-07 
 2.7795652897196325e-07  2.8527816471874243e-07  2.9279265908771669e-07  3.0050509214549704e-07 
 3.0842067777249121e-07  3.1654476718780005e-07  3.2488285256696500e-07  3.3344057075500859e-07 
 3.4222370707725788e-07  3.5123819925031178e-07  3.6049014139559435e-07  3.6998578815908492e-07 
 3.7973155893965649e-07  3.8973404222879655e-07  4.0000000006463855e-07  4.1053637260331387e-07 
 4.2135028281071775e-07  4.3244904127785756e-07  4.4384015116304098e-07  4.5553131326424358e-07 
 4.6753043122508639e-07  4.7984561687793994e-07  4.9248519572777052e-07  5.0545771258043323e-07 
 5.1877193731921566e-07  5.3243687083354087e-07  5.4646175110383463e-07  5.6085605944666933e-07 
 5.7562952692441131e-07  5.9079214092369768e-07  6.0635415190719605e-07  6.2232608034320632e-07 
 6.3871872381779259e-07  6.5554316433425095e-07  6.7281077580484875e-07  6.9053323173989752e-07 
 7.0872251313936140e-07  7.2739091659233034e-07  7.4655106258983945e-07  7.6621590405664835e-07 
 7.8639873510775007e-07  8.0711320003553091e-07  8.2837330253365237e-07  8.5019341516389375e-07 
 8.7258828907235355e-07  8.9557306396157580e-07  9.1916327832534854e-07  9.4337487995308367e-07 
 9.6822423671088610e-07  9.9372814760659952e-07  1.0199038541463031e-06  1.0467690519899413e-06 
 1.0743419029139644e-06  1.1026410470890648e-06  1.1316856156813073e-06  1.1614952437851778e-06 
 1.1920900836972831e-06  1.2234908185396823e-06  1.2557186762420550e-06  1.2887954438921573e-06 
 1.3227434824642683e-06  1.3575857419355805e-06  1.3933457768007552e-06  1.4300477619951214e-06 
 1.4677165092372982e-06  1.5063774838022675e-06  1.5460568217362492e-06  1.5867813475250086e-06 
 1.6285785922275408e-06  1.6714768120873883e-06  1.7155050076341723e-06  1.7606929432882498e-06 
 1.8070711674817423e-06  1.8546710333095506e-06  1.9035247197242948e-06  1.9536652532895193e-06 
 2.0051265305058633e-06  2.0579433407252841e-06  2.1121513896688236e-06  2.1677873235638144e-06 
 2.2248887539168372e-06  2.2834942829391732e-06  2.3436435296419461e-06  2.4053771566185725e-06 
 2.4687368975326436e-06  2.5337655853297976e-06  2.6005071811926661e-06  2.6690068042584551e-06 
 2.7393107621192475e-06  2.8114665821256474e-06  2.8855230435149054e-06  2.9615302103852713e-06 
 3.0395394655388211e-06  3.1196035452156612e-06  3.2017765747429668e-06  3.2861141051229583e-06 
 3.3726731505845350e-06  3.4615122271239516e-06  3.5526913920605794e-06  3.6462722846344759e-06 
 3.7423181676732303e-06  3.8408939703561967e-06  3.9420663321050594e-06  4.0459036476303567e-06 
 4.1524761131644317e-06  4.2618557739120353e-06  4.3741165727506480e-06  4.4893344002134504e-06 
 4.6075871457886792e-06  4.7289547505700874e-06  4.8535192612940361e-06  4.9813648857997599e-06 
 5.1125780499502781e-06  5.2472474560524124e-06  5.3854641428153794e-06  5.5273215468884787e-06 
 5.6729155660194693e-06  5.8223446238762657e-06  5.9757097365758214e-06  6.1331145809650769e-06 
 6.2946655647001609e-06  6.4604718981711520e-06  6.6306456683210498e-06  6.8053019144087525e-06 
 6.9845587057673124e-06  7.1685372216099267e-06  7.3573618329376236e-06  7.5511601866039743e-06 
 7.7500632915936105e-06  7.9542056075728311e-06  8.1637251357721219e-06  8.3787635122620033e-06 
 8.5994661036851607e-06  8.8259821055095874e-06  9.0584646428690601e-06  9.2970708740590758e-06 
 9.5419620967581834e-06  9.7933038570464113e-06  1.0051266061294452e-05  1.0316023090999161e-05 
 1.0587753920642940e-05  1.0866642238656598e-05  1.1152876571567388e-05  1.1446650411416030e-05 
 1.1748162346528812e-05  1.2057616195733065e-05  1.2375221146106618e-05  1.2701191894354283e-05 
 1.3035748791906806e-05  1.3379117993840281e-05  1.3731531611716565e-05  1.4093227870447862e-05 
 1.4464451269291465e-05  1.4845452747083194e-05  1.5236489851821286e-05  1.5637826914715053e-05 
 1.6049735228815809e-05  1.6472493232350786e-05  1.6906386696883624e-05  1.7351708920428539e-05 
 1.7808760925648459e-05  1.8277851663270958e-05  1.8759298220859131e-05  1.9253426037078517e-05 
 1.9760569121604448e-05  2.0281070280818350e-05  2.0815281349445216e-05  2.1363563428288581e-05 
 2.1926287128223388e-05  2.2503832820611364e-05  2.3096590894307768e-05  2.3704962019432996e-05 
 2.4329357418086905e-05  2.4970199142188440e-05  2.5627920358627990e-05  2.6302965641924756e-05 
 2.6995791274586505e-05  2.7706865555374270e-05  2.8436669115679839e-05  2.9185695244229323e-05 
 2.9954450220331717e-05  3.0743453655897225e-05  3.1553238846455710e-05  3.2384353131411991e-05 
 3.3237358263780852e-05  3.4112830789650733e-05  3.5011362437632031e-05  3.5933560518552359e-05 
 3.6880048335668007e-05  3.7851465605667961e-05  3.8848468890754293e-05  3.9871732042089671e-05 
 4.0921946654910795e-05  4.1999822535614343e-05  4.3106088181129801e-05  4.4241491270901989e-05 
 4.5406799171814539e-05  4.6602799456394299e-05  4.7830300434645181e-05  4.9090131699869766e-05 
 5.0383144688845644e-05  5.1710213256733593e-05  5.3072234267104267e-05  5.4470128197480387e-05 
 5.5904839760801680e-05  5.7377338543230426e-05  5.8888619658726657e-05  6.0439704420832776e-05 
 6.2031641032119709e-05  6.3665505291757310e-05  6.5342401321685044e-05  6.7063462311870621e-05 
 6.8829851285157303e-05  7.0642761882213574e-05  7.2503419167112390e-05  7.4413080454080973e-05 
 7.6373036155975751e-05  7.8384610655052797e-05  8.0449163196617124e-05  8.2568088806151153e-05 
 8.4742819230537259e-05  8.6974823904005822e-05  8.9265610939456190e-05  9.1616728145815478e-05 
 9.4029764072117022e-05  9.6506349078997534e-05  9.9048156438332209e-05  1.0165690346174226e-04 
 1.0433435265873249e-04  1.0708231292523287e-04  1.0990264076334033e-04  1.1279724153307647e-04 
 1.1576807073699868e-04  1.1881713533852378e-04  1.2194649511484500e-04  1.2515826404534765e-04 
 1.2845461173644968e-04  1.3183776488381974e-04  1.3531000877294903e-04  1.3887368881907800e-04 
 1.4253121214750626e-04  1.4628504921533890e-04  1.5013773547575151e-04  1.5409187308588226e-04 
 1.5815013265949027e-04  1.6231525506554630e-04  1.6659005327395414e-04  1.7097741424963088e-04 
 1.7548030089620579e-04  1.8010175405063091e-04  1.8484489453002856e-04  1.8971292523213586e-04 
 1.9470913329074112e-04  1.9983689228754333e-04  2.0509966452190114e-04  2.1050100333997739e-04 
 2.1604455552482230e-04  2.2173406374897931e-04  2.2757336909123681e-04  2.3356641361919095e-04 
 2.3971724303932878e-04  2.4603000941638158e-04  2.5250897396374654e-04  2.5915850990681773e-04 
 2.6598310542111538e-04  2.7298736664715251e-04  2.8017602078402292e-04  2.8755391926375010e-04 
 2.9512604100848377e-04  3.0289749577268749e-04  3.1087352757251213e-04  3.1905951820460836e-04 
 3.2746099085668561e-04  3.3608361381218526e-04  3.4493320425149442e-04  3.5401573215218892e-04 
 3.6333732429085554e-04  3.7290426834910890e-04  3.8272301712648319e-04  3.9280019286294659e-04 
 4.0314259167385639e-04  4.1375718810023906e-04  4.2465113977735870e-04  4.3583179222460359e-04 
 4.4730668375980238e-04  4.5908355054115541e-04  4.7117033174004660e-04  4.8357517484808260e-04 
 4.9630644112178923e-04  5.0937271116848100e-04  5.2278279067690173e-04  5.3654571629633077e-04 
 5.5067076166793224e-04  5.6516744361222496e-04  5.8004552847663914e-04  5.9531503864722877e-04 
 6.1098625922870501e-04  6.2706974489705534e-04  6.4357632692912893e-04  6.6051712041365345e-04 
 6.7790353164828149e-04  6.9574726572735725e-04  7.1406033432521929e-04  7.3285506367996292e-04 
 7.5214410278271067e-04  7.7194043177755928e-04  7.9225737057748828e-04  8.1310858770165676e-04 
 8.3450810933962554e-04  8.5647032864819071e-04  8.7901001528663703e-04  9.0214232519636472e-04 
 9.2588281063098134e-04  9.5024743044309207e-04  9.7525256063417235e-04  1.0009150051740480e-03 
 1.0272520070966778e-03  1.0542812598790647e-03  1.0820209191103032e-03  1.1104896144579187e-03 
 1.1397064619388256e-03  1.1696910765024021e-03  1.2004635849333402e-03  1.2320446390821221e-03 
 1.2644554294311387e-03  1.2977176990046555e-03  1.3318537576310155e-03  1.3668864965656604e-03 
 1.4028394034837383e-03  1.4397365778512734e-03  1.4776027466840698e-03  1.5164632807037140e-03 
 1.5563442109002789e-03  1.5972722455115116e-03  1.6392747874285228e-03  1.6823799520382214e-03 
 1.7266165855129416e-03  1.7720142835579546e-03  1.8186034106278041e-03  1.8664151196225995e-03 
 1.9154813720756907e-03  1.9658349588443625e-03  2.0175095213154650e-03  2.0705395731381226e-03 
 2.1249605224959510e-03  2.1808086949314668e-03  2.2381213567356493e-03  2.2969367389158867e-03 
 2.3572940617558225e-03  2.4192335599809160e-03  2.4827965085438041e-03  2.5480252490438738e-03 
 2.6149632167957381e-03  2.6836549685616464e-03  2.7541462109631517e-03  2.8264838295877000e-03 
 2.9007159188061508e-03  2.9768918123175411e-03  3.0550621144377929e-03  3.1352787321493993e-03 
 3.2175949079295105e-03  3.3020652533741817e-03  3.3887457836369685e-03  3.4776939527004259e-03 
 3.5689686894994901e-03  3.6626304349161227e-03  3.7587411796650432e-03  3.8573645030908215e-03 
 3.9585656128970446e-03  4.0624113858287597e-03  4.1689704093298887e-03  4.2783130241978050e-03 
 4.3905113682578102e-03  4.5056394210807524e-03  4.6237730497676920e-03  4.7449900558259820e-03 
 4.8693702231618584e-03  4.9969953672152501e-03  5.1279493852631744e-03  5.2623183079188052e-03 
 5.4001903518540780e-03  5.5416559737744182e-03  5.6868079256750491e-03  5.8357413114092163e-03 
 5.9885536445995107e-03  6.1453449079245243e-03  6.3062176138140537e-03  6.4712768665871698e-03 
 6.6406304260685891e-03  6.8143887727200861e-03  6.9926651743249160e-03  7.1755757542646039e-03 
 7.3632395614290601e-03  7.5557786418023378e-03  7.7533181117682703e-03  7.9559862331818523e-03 
 8.1639144902542603e-03  8.3772376683014047e-03  8.5960939344081715e-03  8.8206249200627976e-03 
 9.0509758058184391e-03  9.2872954080416431e-03  9.5297362678103820e-03  9.7784547420273881e-03 
 1.0033611096817944e-02  1.0295369603284733e-02  1.0563898635696381e-02  1.0839370772190278e-02 
 1.1121962898074758e-02  1.1411856311820408e-02  1.1709236833835455e-02  1.2014294918125334e-02 
 1.2327225766942632e-02  1.2648229448539546e-02  1.2977511018141775e-02  1.3315280642269641e-02 
 1.3661753726539869e-02  1.4017151047089340e-02  1.4381698885770663e-02  1.4755629169278403e-02 
 1.5139179612374220e-02  1.5532593865389462e-02  1.5936121666194136e-02  1.6350018996832544e-02 
 1.6774548245037563e-02  1.7209978370847822e-02  1.7656585078565021e-02  1.8114650994301824e-02 
 1.8584465849385039e-02  1.9066326669892674e-02  1.9560537972618822e-02  2.0067411967775093e-02 
 2.0587268768753102e-02  2.1120436609288112e-02  2.1667252068379803e-02  2.2228060303342040e-02 
 2.2803215291369323e-02  2.3393080080022884e-02  2.3998027047054844e-02  2.4618438170002938e-02 
 2.5254705306002372e-02  2.5907230482273835e-02  2.6576426197758497e-02  2.7262715736380699e-02 
 2.7966533492427816e-02  2.8688325308543084e-02  2.9428548826832580e-02  3.0187673853588868e-02 
 3.0966182738134906e-02  3.1764570766288719e-02  3.2583346568944578e-02  3.3423032546258280e-02 
 3.4284165307914602e-02  3.5167296129941079e-02  3.6072991428517887e-02  3.7001833251215629e-02 
 3.7954419786073862e-02  3.8931365888912169e-02  3.9933303629243980e-02  4.0960882855140657e-02 
 4.2014771777371174e-02  4.3095657573120325e-02  4.4204247009567675e-02  4.5341267087589135e-02 
 4.6507465705826243e-02  4.7703612345350345e-02  4.8930498775136680e-02  5.0188939778549491e-02 
 5.1479773901029119e-02  5.2803864219160355e-02  5.4162099131290699e-02  5.5555393169851995e-02 
 5.6984687835521686e-02  5.8450952453333614e-02  5.9955185050814035e-02  6.1498413258170223e-02 
 6.3081695230494700e-02  6.4706120591863189e-02  6.6372811401094842e-02  6.8082923138804735e-02 
 6.9837645715207231e-02  7.1638204497918537e-02  7.3485861358756802e-02  7.5381915738239075e-02 
 7.7327705726128682e-02  7.9324609155986131e-02  8.1374044711220270e-02  8.3477473039621955e-02 
 8.5636397872786596e-02  8.7852367146194321e-02  9.0126974115014399e-02  9.2461858459933252e-02 
 9.4858707376472312e-02  9.7319256640360716e-02  9.9845291640557055e-02  1.0243864837047383e-01 
 1.0510121436684101e-01  1.0783492958445305e-01  1.1064178719376622e-01  1.1352383428694768e-01 
 1.1648317247651822e-01  1.1952195836915981e-01  1.2264240389557789e-01  1.2584677647549486e-01 
 1.2913739899489635e-01  1.3251664957053796e-01  1.3598696107443436e-01  1.3955082038857430e-01 
 1.4321076735741897e-01  1.4696939340283341e-01  1.5082933976295243e-01  1.5479329531308744e-01 
 1.5886399392313039e-01  1.6304421130200814e-01  1.6733676127559677e-01  1.7174449144014764e-01 
 1.7627027812875043e-01  1.8091702062373002e-01  1.8568763454325185e-01  1.9058504432592399e-01 
 1.9561217473300777e-01  2.0077194128429329e-01  2.0606723954094747e-01  2.1150093314720517e-01 
 2.1707584054304024e-01  2.2279472026249958e-01  2.2866025473783128e-01  2.3467503253860503e-01 
 2.4084152898845157e-01  2.4716208512062557e-01  2.5363888495804510e-01  2.6027393113441050e-01 
 2.6706901891086704e-01  2.7402570868754539e-01  2.8114529716084613e-01  2.8842878733460686e-01 
 2.9587685765473937e-01  3.0348983060020379e-01  3.1126764112531102e-01  3.1920980540562593e-01 
 3.2731539038815349e-01  3.3558298468184744e-01  3.4401067134285140e-01  3.5259600310692069e-01 
 3.6133598059660699e-01  3.7022703398132123e-01  3.7926500849322586e-01  3.8844515409993596e-01 
 3.9776211950559026e-01  4.0720995049277442e-01  4.1678209242727804e-01  4.2647139652460175e-01 
 4.3627012922325170e-01  4.4616998373275868e-01  4.5616209254063622e-01  4.6623703940021394e-01 
 4.7638486912057482e-01  4.8659509338862506e-01  4.9685669092235912e-01  5.0715810052414667e-01 
 5.1748720609201659e-01  5.2783131334094202e-01  5.3817711883210717e-01  5.4851067281798860e-01 
 5.5881733827473279e-01  5.6908174919827814e-01  5.7928777169371137e-01  5.8941847153172489e-01 
 5.9945609167028180e-01  6.0938204391555872e-01  6.1917692347866560e-01  6.2882050627535957e-01 
 6.3829180273701003e-01  6.4756912341732953e-01  6.5663014758846039e-01  6.6545201154728550e-01 
 6.7401141056250380e-01  6.8228471171437011e-01  6.9024807542090272e-01  6.9787758350429052e-01 
 7.0514937180820725e-01  7.1203976559374693e-01  7.1852541618399379e-01  7.2458343756592258e-01 
 7.3019154187195812e-01  7.3532817283889940e-01  7.3997263647323441e-01  7.4410522823951442e-01 
 7.4770735613726591e-01  7.5076165904945513e-01  7.5325211974068207e-01  7.5516417186491047e-01 
 7.5648480031897591e-01  7.5720263425620027e-01  7.5730803205978625e-01  7.5679315757218424e-01 
 7.5565204688691323e-01  7.5388066503496831e-01  7.5147695193903685e-01  7.4844085706157382e-01 
 7.4477436224329119e-01  7.4048149230826077e-01  7.3556831310083737e-01  7.3004291671649302e-01 
 7.2391539379162018e-01  7.1719779283223506e-01  7.0990406666914674e-01  7.0205000623837555e-01 
 6.9365316202623351e-01  6.8473275364312780e-01  6.7530956811891563e-01  6.6540584766300470e-01 
 6.5504516778113142e-01  6.4425230679841050e-01  6.3305310799012215e-01  6.2147433567004118e-01 
 6.0954352673430479e-01  5.9728883927424459e-01  5.8473889996199779e-01  5.7192265196839787e-01 
 5.5886920494997350e-01  5.4560769001001175e-01  5.3216711893555779e-01  5.1857625155404430e-01 
 5.0486347136560406e-01  4.9105667078317783e-01  4.7718314683046054e-01  4.6326950787996118e-01 
 4.4934159174015970e-01  4.3542439513314429e-01  4.2154201435264649e-01  4.0771759666591800e-01 
 3.9397330182844897e-01  3.8033027292310195e-01  3.6680861561779571e-01  3.5342738485946412e-01 
 3.4020457798596776e-01  3.2715713323972828e-01  3.1430093270365311e-01  3.0165080874687611e-01 
 2.8922055315967243e-01  2.7702292826772207e-01  2.6506967943950349e-01  2.5337154853070853e-01 
 2.4193828794009756e-01  2.3077867507646441e-01  2.1990052715138336e-01  2.0931071631298998e-01 
 1.9901518521912784e-01  1.8901896321176598e-01  1.7932618329783698e-01  1.6994010016480796e-01 
 1.6086310946364027e-01  1.5209676857936924e-01  1.4364181908301721e-01  1.3549821102098872e-01 
 1.2766512915268907e-01  1.2014102119700143e-01  1.1292362809637668e-01  1.0601001625619093e-01 
 9.9396611668812404e-02  9.3079235788119052e-02  8.7053142982092171e-02  8.1313059359333209e-02 
 7.5853222740247736e-02  7.0667423524422665e-02  6.5749046193598365e-02  6.1091111183449412e-02 
 5.6686316854781219e-02  5.2527081298295898e-02  4.8605583715129616e-02  4.4913805126070003e-02 
 4.1443568176816950e-02  3.8186575823788690e-02  3.5134448704352228e-02  3.2278761016462702e-02 
 2.9611074754980236e-02  2.7122972174813971e-02  2.4806086373953529e-02  2.2652129911844430e-02 
 2.0652921399980588e-02  1.8800410021652766e-02  1.7086697956260773e-02  1.5504060700342517e-02 
 1.4044965292538627e-02  1.2702086463361672e-02  1.1468320740576427e-02  1.0336798555845808e-02 
 9.3008944035076792e-03  8.3542351129450281e-03  7.4907063035105480e-03  6.7044570980181592e-03 
 5.9899031772736797e-03  5.3417282639463323e-03  4.7548841292623083e-03  4.2245892204889491e-03 
 3.7463260109198700e-03  3.3158371770120403e-03  2.9291207094048958e-03  2.5824240656945087e-03 
 2.2722374736221227e-03  1.9952864916412331e-03  1.7485239334318818e-03  1.5291212600481916e-03 
 1.3344595402868119e-03  1.1621200759672650e-03  1.0098747842396695e-03  8.7567642388018132e-04 
 7.5764874689144993e-04  6.5407665068974283e-04  5.6339639982867686e-04  4.8418597967954776e-04 
 4.1515563785961968e-04  3.5513866244632887e-04  3.0308243962587795e-04  2.5803982674992552e-04 
 2.1916087061873223e-04  1.8568489481547598e-04  1.5693297421185204e-04  1.3230080947048813e-04 
 1.1125200942585553e-04  9.3311784708878648e-05  7.8061051892145403e-05  6.5130943781957921e-05 
 5.4197718272104747e-05  4.4978055397048590e-05  3.7224729868320629e-05  3.0722644431403899e-05 
 2.5285207821133403e-05  2.0751039898024478e-05  1.6980985689618960e-05  1.3855419511557176e-05 
 1.1271820072971847e-05  9.1425974495940597e-06  7.3931530051950737e-06  5.9601537275992712e-06 
 4.7900029902989509e-06  3.8374904267292648e-06  3.0646043851393505e-06  2.4394912931567169e-06 
 1.9355471800250844e-06  1.5306275606754737e-06  1.2063628610497467e-06  9.4756754232502648e-07 
 7.4173204949864176e-07  5.7858765479735050e-07  4.4973517970698255e-07  3.4832945315877815e-07 
 2.6881219103098864e-07  2.0668676071473231e-07  1.5832901981386153e-07  1.2082908941818261e-07 
 9.1859539144544834e-08  6.9566023839530624e-08  5.2476921815236375e-08  3.9428983711348983e-08 
 2.9506412003155799e-08  2.1991156633940271e-08  1.6322535320957831e-08  1.2064570997177254e-08 
 8.8796869001853615e-09  6.5076152892571722e-09  4.7485618756200941e-09  3.4498278852513788e-09 
 2.4952281791857747e-09  1.7967597931714289e-09  1.2880731882966784e-09  9.1938078167568247e-10 
 6.5350609754053339e-10  4.6283408749983291e-10  3.2697056566662144e-10  0.0000000000000000e+00 
 0.0000000000000000e+00  0.0000000000000000e+00  0.0000000000000000e+00  0.0000000000000000e+00 
 0.0000000000000000e+00  0.0000000000000000e+00  0.0000000000000000e+00  0.0000000000000000e+00 
 0.0000000000000000e+00  0.0000000000000000e+00  0.0000000000000000e+00  0.0000000000000000e+00 
 0.0000000000000000e+00  0.0000000000000000e+00  0.0000000000000000e+00  0.0000000000000000e+00 
 0.0000000000000000e+00  0.0000000000000000e+00  0.0000000000000000e+00  0.0000000000000000e+00 
 0.0000000000000000e+00  0.0000000000000000e+00  0.0000000000000000e+00  0.0000000000000000e+00 
 0.0000000000000000e+00  0.0000000000000000e+00  0.0000000000000000e+00  0.0000000000000000e+00 
 0.0000000000000000e+00  0.0000000000000000e+00  0.0000000000000000e+00  0.0000000000000000e+00 
 0.0000000000000000e+00  0.0000000000000000e+00  0.0000000000000000e+00  0.0000000000000000e+00 
 0.0000000000000000e+00  0.0000000000000000e+00  0.0000000000000000e+00  0.0000000000000000e+00 
 0.0000000000000000e+00  0.0000000000000000e+00  0.0000000000000000e+00  0.0000000000000000e+00 
 0.0000000000000000e+00  0.0000000000000000e+00  0.0000000000000000e+00  0.0000000000000000e+00 
 0.0000000000000000e+00  0.0000000000000000e+00  0.0000000000000000e+00  0.0000000000000000e+00 
 0.0000000000000000e+00  0.0000000000000000e+00  0.0000000000000000e+00  0.0000000000000000e+00 
 0.0000000000000000e+00  0.0000000000000000e+00  0.0000000000000000e+00  0.0000000000000000e+00 
 0.0000000000000000e+00  0.0000000000000000e+00  0.0000000000000000e+00  0.0000000000000000e+00 
 0.0000000000000000e+00  0.0000000000000000e+00  0.0000000000000000e+00  0.0000000000000000e+00 
 0.0000000000000000e+00  0.0000000000000000e+00  0.0000000000000000e+00  0.0000000000000000e+00 
 0.0000000000000000e+00  0.0000000000000000e+00  0.0000000000000000e+00  0.0000000000000000e+00 
 0.0000000000000000e+00  0.0000000000000000e+00  0.0000000000000000e+00  0.0000000000000000e+00 
 0.0000000000000000e+00  0.0000000000000000e+00  0.0000000000000000e+00  0.0000000000000000e+00 
 0.0000000000000000e+00  0.0000000000000000e+00  0.0000000000000000e+00  0.0000000000000000e+00 
 0.0000000000000000e+00  0.0000000000000000e+00  0.0000000000000000e+00  0.0000000000000000e+00 
 0.0000000000000000e+00  0.0000000000000000e+00  0.0000000000000000e+00  0.0000000000000000e+00 
 0.0000000000000000e+00  0.0000000000000000e+00  0.0000000000000000e+00  0.0000000000000000e+00 
 0.0000000000000000e+00  0.0000000000000000e+00  0.0000000000000000e+00  0.0000000000000000e+00 
 0.0000000000000000e+00  0.0000000000000000e+00  0.0000000000000000e+00  0.0000000000000000e+00 
 0.0000000000000000e+00  0.0000000000000000e+00  0.0000000000000000e+00  0.0000000000000000e+00 
 0.0000000000000000e+00  0.0000000000000000e+00  0.0000000000000000e+00  0.0000000000000000e+00 
 0.0000000000000000e+00  0.0000000000000000e+00  0.0000000000000000e+00  0.0000000000000000e+00 
 0.0000000000000000e+00  0.0000000000000000e+00  0.0000000000000000e+00  0.0000000000000000e+00 
 0.0000000000000000e+00  0.0000000000000000e+00  0.0000000000000000e+00  0.0000000000000000e+00 
 0.0000000000000000e+00  0.0000000000000000e+00  0.0000000000000000e+00  0.0000000000000000e+00 
 0.0000000000000000e+00  0.0000000000000000e+00 
</PP_PSWFC>


<PP_RHOATOM>
 4.6656497541654242e-13  4.7885474474869905e-13  4.9146823854742242e-13  5.0441398403746280e-13 
 5.1770073305957232e-13  5.3133746798714792e-13  5.4533340779872385e-13  5.5969801431042572e-13 
 5.7444099857259201e-13  5.8957232743489510e-13  6.0510223028439204e-13  6.2104120596107055e-13 
 6.3740002985555515e-13  6.5418976119377955e-13  6.7142175051354909e-13  6.8910764733804215e-13 
 7.0725940805144682e-13  7.2588930398205277e-13  7.4500992969826262e-13  7.6463421152313055e-13 
 7.8477541627319435e-13  8.0544716022749196e-13  8.2666341833284307e-13  8.4843853365160887e-13 
 8.7078722705832059e-13  8.9372460719173401e-13  9.1726618066903568e-13  9.4142786256911071e-13 
 9.6622598719195228e-13  9.9167731910149697e-13  1.0177990644593447e-12  1.0446088826570250e-12 
 1.0721248982546829e-12  1.1003657132342486e-12  1.1293504195753734e-12  1.1590986121626452e-12 
 1.1896304020327948e-12  1.2209664299708659e-12  1.2531278804645299e-12  1.2861364960259810e-12 
 1.3200145918911000e-12  1.3547850711058258e-12  1.3904714400099231e-12  1.4270978241286284e-12 
 1.4646889844829172e-12  1.5032703343294045e-12  1.5428679563412242e-12  1.5835086202414771e-12 
 1.6252198009011865e-12  1.6680296969139908e-12  1.7119672496601373e-12  1.7570621628726590e-12 
 1.8033449227189694e-12  1.8508468184114577e-12  1.8995999633610075e-12  1.9496373168877535e-12 
 2.0009927065037503e-12  2.0537008507826192e-12  2.1077973828316379e-12  2.1633188743821468e-12 
 2.2203028605145583e-12  2.2787878650346787e-12  2.3388134265185228e-12  2.4004201250432009e-12 
 2.4636496096219903e-12  2.5285446263621026e-12  2.5951490473642259e-12  2.6635079003833427e-12 
 2.7336673992709163e-12  2.8056749752190075e-12  2.8795793088274608e-12  2.9554303630158298e-12 
 3.0332794168023116e-12  3.1131790999725303e-12  3.1951834286616003e-12  3.2793478418735427e-12 
 3.3657292389627494e-12  3.4543860181028282e-12  3.5453781157688592e-12  3.6387670472597580e-12 
 3.7346159482881370e-12  3.8329896176657991e-12  3.9339545611137366e-12  4.0375790362262357e-12 
 4.1439330986195425e-12  4.2530886492962382e-12  4.3651194832574019e-12  4.4801013393954216e-12 
 4.5981119517011773e-12  4.7192311018202817e-12  4.8435406729938307e-12  4.9711247054202486e-12 
 5.1020694530755888e-12  5.2364634420307554e-12  5.3743975303050829e-12  5.5159649692967653e-12 
 5.6612614668316513e-12  5.8103852518730696e-12  5.9634371409364696e-12  6.1205206062537647e-12 
 6.2817418457334845e-12  6.4472098547640905e-12  6.6170364999090051e-12  6.7913365945431518e-12 
 6.9702279764822837e-12  7.1538315876574783e-12  7.3422715558887715e-12  7.5356752788132794e-12 
 7.7341735100244297e-12  7.9379004474807829e-12  8.1469938242440809e-12  8.3615950016079718e-12 
 8.5818490646804401e-12  8.8079049204845290e-12  9.0399153986438114e-12  9.2780373547206329e-12 
 9.5224317762771544e-12  9.7732638917308185e-12  1.0030703282078010e-11  1.0294923995561420e-11 
 1.0566104665358762e-11  1.0844428630372383e-11  1.1130084059201586e-11  1.1423264077381562e-11 
 1.1724166897974898e-11  1.2032995955604194e-11  1.2349960044016367e-11  1.2675273457271821e-11 
 1.3009156134653967e-11  1.3351833809397201e-11  1.3703538161333989e-11  1.4064506973564327e-11 
 1.4434984293253703e-11  1.4815220596668318e-11  1.5205472958559275e-11  1.5606005226010416e-11 
 1.6017088196867512e-11  1.6438999802869523e-11  1.6872025297605941e-11  1.7316457449427446e-11 
 1.7772596739440401e-11  1.8240751564719526e-11  1.8721238446875817e-11  1.9214382246121491e-11 
 1.9720516380976441e-11  2.0239983053765304e-11  2.0773133482057615e-11  2.1320328136207914e-11 
 2.1881936983156538e-11  2.2458339736656419e-11  2.3049926114095167e-11  2.3657096100086388e-11 
 2.4280260217008983e-11  2.4919839802677436e-11  2.5576267295331403e-11  2.6249986526137468e-11 
 2.6941453019401461e-11  2.7651134300694497e-11  2.8379510213101667e-11  2.9127073241807690e-11 
 2.9894328847239397e-11  3.0681795806990769e-11  3.1490006566762503e-11  3.2319507600553653e-11 
 3.3170859780349761e-11  3.4044638755557869e-11  3.4941435342445787e-11  3.5861855923849609e-11 
 3.6806522859420406e-11  3.7776074906688470e-11  3.8771167653230217e-11  3.9792473960231637e-11 
 4.0840684417748102e-11  4.1916507811970172e-11  4.3020671604811933e-11  4.4153922426147535e-11 
 4.5317026579029467e-11  4.6510770558231769e-11  4.7735961582470062e-11  4.8993428140659154e-11 
 5.0284020552579714e-11  5.1608611544333940e-11  5.2968096838981215e-11  5.4363395762754741e-11 
 5.5795451867270885e-11  5.7265233568153438e-11  5.8773734800507093e-11  6.0321975691684901e-11 
 6.1911003251806962e-11  6.3541892082499557e-11  6.5215745104336531e-11  6.6933694303476729e-11 
 6.8696901498005542e-11  7.0506559124501741e-11  7.2363891045363541e-11  7.4270153377443713e-11 
 7.6226635342557044e-11  7.8234660140438633e-11  8.0295585844747228e-11  8.2410806322722813e-11 
 8.4581752179124964e-11  8.6809891725094005e-11  8.9096731972594894e-11  9.1443819655121175e-11 
 9.3852742275353469e-11  9.6325129180486872e-11  9.8862652665960101e-11  1.0146702910833785e-10 
 1.0414002012811886e-10  1.0688343378326290e-10  1.0969912579425031e-10  1.1258900080150910e-10 
 1.1555501365606868e-10  1.1859917074432031e-10  1.2172353134778801e-10  1.2493020903883948e-10 
 1.2822137311328986e-10  1.3159925006087572e-10  1.3506612507460601e-10  1.3862434360002049e-10 
 1.4227631292541484e-10  1.4602450381411989e-10  1.4987145217995289e-10  1.5381976080698529e-10 
 1.5787210111480544e-10  1.6203121497048572e-10  1.6629991654849334e-10  1.7068109423982072e-10 
 1.7517771261164302e-10  1.7979281441884827e-10  1.8452952266881717e-10  1.8939104274087272e-10 
 1.9438066456185088e-10  1.9950176483928913e-10  2.0475780935376769e-10  2.1015235531197444e-10 
 2.1568905376211784e-10  2.2137165207334298e-10  2.2720399648086313e-10  2.3319003469855388e-10 
 2.3933381860081262e-10  2.4563950697553122e-10  2.5211136835007859e-10  2.5875378389224403e-10 
 2.6557125038814331e-10  2.7256838329914317e-10  2.7974991989991683e-10  2.8712072249979982e-10 
 2.9468578174967447e-10  3.0245022003667116e-10  3.1041929496903709e-10  3.1859840295358809e-10 
 3.2699308286822359e-10  3.3560901983205149e-10  3.4445204907574247e-10  3.5352815991479935e-10 
 3.6284349982850844e-10  3.7240437864740589e-10  3.8221727285217592e-10  3.9228882998697936e-10 
 4.0262587319028305e-10  4.1323540584636155e-10  4.2412461636071109e-10  4.3530088306272000e-10 
 4.4677177923902384e-10  4.5854507830107456e-10  4.7062875909054057e-10  4.8303101132626798e-10 
 4.9576024119662738e-10  5.0882507710117780e-10  5.2223437554569882e-10  5.3599722719473925e-10 
 5.5012296308595890e-10  5.6462116101065802e-10  5.7950165206500472e-10  5.9477452737660994e-10 
 6.1045014501121752e-10  6.2653913706441530e-10  6.4305241694342060e-10  6.6000118684411491e-10 
 6.7739694542867167e-10  6.9525149570924833e-10  7.1357695314338620e-10  7.3238575394690944e-10 
 7.5169066363027419e-10  7.7150478576449520e-10  7.9184157098293913e-10  8.1271482622545481e-10 
 8.3413872423148612e-10  8.5612781328900803e-10  8.7869702724630579e-10  9.0186169579382241e-10 
 9.2563755502341809e-10  9.5004075827153418e-10  9.7508788725298478e-10  1.0007959634982584e-09 
 1.0271824601007863e-09  1.0542653137823403e-09  1.0820629372853464e-09  1.1105942321012303e-09 
 1.1398786015441545e-09  1.1699359641797846e-09  1.2007867676190045e-09  1.2324520026867908e-09 
 1.2649532179767722e-09  1.2983125348022723e-09  1.3325526625550101e-09  1.3676969144829118e-09 
 1.4037692238988573e-09  1.4407941608325336e-09  1.4787969491379347e-09  1.5178034840693889e-09 
 1.5578403503394631e-09  1.5989348406723926e-09  1.6411149748671811e-09  1.6844095193849057e-09 
 1.7288480074752124e-09  1.7744607598574484e-09  1.8212789059723437e-09  1.8693344058206458e-09 
 1.9186600724056271e-09  1.9692895947968906e-09  2.0212575618334574e-09  2.0745994864846535e-09 
 2.1293518308879246e-09  2.1855520320832894e-09  2.2432385284647512e-09  2.3024507869696462e-09 
 2.3632293310275742e-09  2.4256157692912060e-09  2.4896528251720503e-09  2.5553843672048961e-09 
 2.6228554402655098e-09  2.6921122976668879e-09  2.7632024341602267e-09  2.8361746198675808e-09 
 2.9110789351741113e-09  2.9879668066086972e-09  3.0668910437426155e-09  3.1479058771370733e-09 
 3.2310669973712274e-09  3.3164315951835490e-09  3.4040584027603814e-09  3.4940077362066948e-09 
 3.5863415392352505e-09  3.6811234281115785e-09  3.7784187378934552e-09  3.8782945700048565e-09 
 3.9808198411858296e-09  4.0860653338609613e-09  4.1941037479708401e-09  4.3050097543121936e-09 
 4.4188600494342058e-09  4.5357334121399792e-09  4.6557107616439924e-09  4.7788752174380576e-09 
 4.9053121609202393e-09  5.0351092988431443e-09  5.1683567286398614e-09  5.3051470056881231e-09 
 5.4455752125752917e-09  5.5897390304291477e-09  5.7377388123817052e-09  5.8896776592358834e-09 
 6.0456614974072640e-09  6.2057991592159823e-09  6.3702024656064896e-09  6.5389863113758192e-09 
 6.7122687529940369e-09  6.8901710991036844e-09  7.0728180037883298e-09  7.2603375627036631e-09 
 7.4528614121682663e-09  7.6505248313147924e-09  7.8534668474061684e-09  8.0618303444256309e-09 
 8.2757621750533091e-09  8.4954132761468147e-09  8.7209387878476261e-09  8.9524981764399586e-09 
 9.1902553610938381e-09  9.4343788446292067e-09  9.6850418484434409e-09  9.9424224517502815e-09 
 1.0206703735284286e-08  1.0478073929630773e-08  1.0756726568348211e-08  1.1042860646056270e-08 
 1.1336680781670346e-08  1.1638397386970295e-08  1.1948226840699308e-08  1.2266391668396626e-08 
 1.2593120728176368e-08  1.2928649402673828e-08  1.3273219797389398e-08  1.3627080945670423e-08 
 1.3990489020581217e-08  1.4363707553922117e-08  1.4747007662669574e-08  1.5140668283120905e-08 
 1.5544976413039507e-08  1.5960227362109108e-08  1.6386725011018974e-08  1.6824782079515857e-08 
 1.7274720403773242e-08  1.7736871223443709e-08  1.8211575478776531e-08  1.8699184118198756e-08 
 1.9200058416776687e-08  1.9714570305992264e-08  2.0243102715288530e-08  2.0786049925858992e-08 
 2.1343817937176308e-08  2.1916824846778540e-08  2.2505501243854419e-08  2.3110290617193630e-08 
 2.3731649778093681e-08  2.4370049298842248e-08  2.5025973967421661e-08  2.5699923259112335e-08 
 2.6392411825702816e-08  2.7103970003046913e-08  2.7835144337742232e-08  2.8586498133741128e-08 
 2.9358612019742155e-08  3.0152084538249950e-08  3.0967532757232922e-08  3.1805592905351982e-08 
 3.2666921031779050e-08  3.3552193691672335e-08  3.4462108658425592e-08  3.5397385663862089e-08 
 3.6358767167598753e-08  3.7347019156865472e-08  3.8362931978125039e-08  3.9407321201903859e-08 
 4.0481028522311808e-08  4.1584922692799490e-08  4.2719900499777394e-08  4.3886887775798656e-08 
 4.5086840454089692e-08  4.6320745666300750e-08  4.7589622885437510e-08  4.8894525116032376e-08 
 5.0236540133712959e-08  5.1616791776432282e-08  5.3036441289734393e-08  5.4496688728548531e-08 
 5.5998774418123711e-08  5.7543980476848185e-08  5.9133632403831084e-08  6.0769100734267158e-08 
 6.2451802765754636e-08  6.4183204358894317e-08  6.5964821815661541e-08  6.7798223839219582e-08 
 6.9685033579022901e-08  7.1626930765252784e-08  7.3625653936829265e-08  7.5683002767456039e-08 
 7.7800840494378812e-08  7.9981096454772357e-08  8.2225768734918518e-08  8.4536926937598366e-08 
 8.6916715073393918e-08  8.9367354581883731e-08  9.1891147489018500e-08  9.4490479707280357e-08 
 9.7167824485566280e-08  9.9925746016086105e-08  1.0276690320593698e-07  1.0569405362140576e-07 
 1.0871005761346009e-07  1.1181788263332107e-07  1.1502060774746383e-07  1.1832142836186834e-07 
 1.2172366116584656e-07  1.2523074930630046e-07  1.2884626780381913e-07  1.3257392922261060e-07 
 1.3641758960687821e-07  1.4038125469689910e-07  1.4446908643874188e-07  1.4868540980228344e-07 
 1.5303471992292991e-07  1.5752168958325064e-07  1.6215117705156079e-07  1.6692823429537442e-07 
 1.7185811558856973e-07  1.7694628653208530e-07  1.8219843350898843e-07  1.8762047359583538e-07 
 1.9321856495338181e-07  1.9899911772088827e-07  2.0496880543952984e-07  2.1113457703173874e-07 
 2.1750366936470094e-07  2.2408362042769291e-07  2.3088228315448757e-07  2.3790783992368248e-07 
 2.4516881777150711e-07  2.5267410435347311e-07  2.6043296469311156e-07  2.6845505875804481e-07 
 2.7675045990573070e-07  2.8532967424342240e-07  2.9420366094921732e-07  3.0338385360350294e-07 
 3.1288218258269001e-07  3.2271109856982270e-07  3.3288359723952008e-07  3.4341324517768464e-07 
 3.5431420709958907e-07  3.6560127443327065e-07  3.7728989533865648e-07  3.8939620623653965e-07 
 4.0193706492538588e-07  4.1493008536804843e-07  4.2839367423474975e-07  4.4234706929322306e-07 
 4.5681037974165360e-07  4.7180462858507555e-07  4.8735179716115663e-07  5.0347487192683905e-07 
 5.2019789362316658e-07  5.3754600894175428e-07  5.5554552482284972e-07  5.7422396552173010e-07 
 5.9361013258736677e-07  6.1373416790481087e-07  6.3462761996072886e-07  6.5632351349984952e-07 
 6.7885642274889875e-07  7.0226254839385870e-07  7.2657979850613082e-07  7.5184787362345115e-07 
 7.7810835620219549e-07  8.0540480466908732e-07  8.3378285231227502e-07  8.6329031126433872e-07 
 8.9397728184303686e-07  9.2589626752954743e-07  9.5910229587863280e-07  9.9365304567059867e-07 
 1.0296089806311838e-06  1.0670334900626015e-06  1.1059930367469840e-06  1.1465573125023906e-06 
 1.1887994017914981e-06  1.2327959538040690e-06  1.2786273634563489e-06  1.3263779617737933e-06 
 1.3761362161479516e-06  1.4279949409840683e-06  1.4820515192829916e-06  1.5384081357295132e-06 
 1.5971720218891432e-06  1.6584557141469132e-06  1.7223773250549231e-06  1.7890608287902529e-06 
 1.8586363614615728e-06  1.9312405370413896e-06  2.0070167797415024e-06  2.0861156736919686e-06 
 2.1686953308288699e-06  2.2549217779434036e-06  2.3449693638946302e-06  2.4390211880404963e-06 
 2.5372695509967940e-06  2.6399164288916375e-06  2.7471739723438549e-06  2.8592650314577965e-06 
 2.9764237081943450e-06  3.0988959375487970e-06  3.2269400990406375e-06  3.3608276600987090e-06 
 3.5008438530074384e-06  3.6472883871665509e-06  3.8004761985075575e-06  3.9607382380061698e-06 
 4.1284223013303332e-06  4.3038939017693458e-06  4.4875371887008719e-06  4.6797559139693116e-06 
 4.8809744486721765e-06  5.0916388529799599e-06  5.3122180017510109e-06  5.5432047688453771e-06 
 5.7851172731916050e-06  6.0385001898180530e-06  6.3039261292257217e-06  6.5819970886536946e-06 
 6.8733459789708984e-06  7.1786382311200242e-06  7.4985734862410599e-06  7.8338873738138652e-06 
 8.1853533823817443e-06  8.5537848276516854e-06  8.9400369230125879e-06  9.3450089577704210e-06 
 9.7696465886702983e-06  1.0214944250559403e-05  1.0681947692343439e-05  1.1171756644702519e-05 
 1.1685527626361395e-05  1.2224476896054278e-05  1.2789883557686785e-05  1.3383092826578066e-05 
 1.4005519465065229e-05  1.4658651396171111e-05  1.5344053504475706e-05  1.6063371633792898e-05 
 1.6818336791737444e-05  1.7610769571774791e-05  1.8442584803878148e-05  1.9315796445475171e-05 
 2.0232522724952020e-05  2.1194991550595632e-05  2.2205546198498368e-05  2.3266651293623461e-05 
 2.4380899098936124e-05  2.5551016128245728e-05  2.6779870099181048e-05  2.8070477243532549e-05 
 2.9426009993048929e-05  3.0849805059666238e-05  3.2345371930083766e-05  3.3916401795578449e-05 
 3.5566776938975664e-05  3.7300580601766641e-05  3.9122107355486808e-05  4.1035874002644816e-05 
 4.3046631033723059e-05  4.5159374668058642e-05  4.7379359507760877e-05  4.9712111835231669e-05 
 5.2163443586329908e-05  5.4739467032762973e-05  5.7446610208902517e-05  6.0291633119906717e-05 
 6.3281644769797225e-05  6.6424121049978675e-05  6.9726923530618817e-05  7.3198319199318506e-05 
 7.6847001193606010e-05  8.0682110575987329e-05  8.4713259202581558e-05  8.8950553738768171e-05 
 9.3404620877779340e-05  9.8086633820785836e-05  1.0300834007975705e-04  1.0818209066722930e-04 
 1.1362087074009243e-04  1.1933833176761482e-04  1.2534882529717192e-04  1.3166743839452844e-04 
 1.3831003083906245e-04  1.4529327415800311e-04  1.5263469258761328e-04  1.6035270605325341e-04 
 1.6846667526446762e-04  1.7699694902560193e-04  1.8596491386703426e-04  1.9539304610685957e-04 
 2.0530496645785291e-04  2.1572549729972058e-04  2.2668072274207622e-04  2.3819805160923824e-04 
 2.5030628348385705e-04  2.6303567795255559e-04  2.7641802720322400e-04  2.9048673213034827e-04 
 3.0527688211180612e-04  3.2082533862794015e-04  3.3717082290142953e-04  3.5435400774456018e-04 
 3.7241761380895700e-04  3.9140651044169235e-04  4.1136782136099370e-04  4.3235103537450908e-04 
 4.5440812237333510e-04  4.7759365484576399e-04  5.0196493516601118e-04  5.2758212892509604e-04 
 5.5450840458357682e-04  5.8281007973906888e-04  6.1255677431542276e-04  6.4382157099518347e-04 
 6.7668118323255353e-04  7.1121613120058488e-04  7.4751092604384843e-04  7.8565426282641232e-04 
 8.2573922258471599e-04  8.6786348391594895e-04  9.1212954455498012e-04  9.5864495341673275e-04 
 1.0075225536065107e-03  1.0588807369280558e-03  1.1128437104484259e-03  1.1695417757101466e-03 
 1.2291116212148473e-03  1.2916966288387963e-03  1.3574471948798340e-03  1.4265210664772161e-03 
 1.4990836941912926e-03  1.5753086015789473e-03  1.6553777726537244e-03  1.7394820581768909e-03 
 1.8278216017878130e-03  1.9206062870492954e-03  2.0180562065565850e-03  2.1204021543379157e-03 
 2.2278861428606089e-03  2.3407619460500983e-03  2.4592956698310051e-03  2.5837663518097536e-03 
 2.7144665918384572e-03  2.8517032153305092e-03  2.9957979713405051e-03  3.1470882675759130e-03 
 3.3059279446763191e-03  3.4726880922792431e-03  3.6477579095909821e-03  3.8315456133977649e-03 
 4.0244793966885094e-03  4.2270084413170653e-03  4.4396039884109020e-03  4.6627604705366029e-03 
 4.8969967099623275e-03  5.1428571877157082e-03  5.4009133885253502e-03  5.6717652271567401e-03 
 5.9560425621132708e-03  6.2544068031718907e-03  6.5675526197648357e-03  6.8962097578072791e-03 
 7.2411449732095873e-03  7.6031640910063708e-03  7.9831141997876182e-03  8.3818859919347517e-03 
 8.8004162610521956e-03  9.2396905689490910e-03  9.7007460955725374e-03  1.0184674686430625e-02 
 1.0692626113278305e-02  1.1225811565179700e-02  1.1785507388516785e-02  1.2373059096094922e-02 
 1.2989885667212330e-02  1.3637484162421637e-02  1.4317434678732241e-02  1.5031405673190199e-02 
 1.5781159685143566e-02  1.6568559490065519e-02  1.7395574720580186e-02  1.8264288993327313e-02 
 1.9176907583526311e-02  2.0135765692567968e-02  2.1143337357685144e-02  2.2202245056741440e-02 
 2.3315270065437092e-02  2.4485363628770400e-02  2.5715659013412995e-02  2.7009484512759006e-02 
 2.8370377481785846e-02  2.9802099484507912e-02  3.1308652642700087e-02  3.2894297280687622e-02 
 3.4563570967315743e-02  3.6321309062679524e-02  3.8172666883758311e-02  4.0123143609691839e-02 
 4.2178608053967392e-02  4.4345326437158800e-02  4.6629992299935315e-02  4.9039758701692554e-02 
 5.1582272855161690e-02  5.4265713351512368e-02  5.7098830133520420e-02  6.0090987376025820e-02 
 6.3252209432808765e-02  6.6593230006760262e-02  7.0125544695349706e-02  7.3861467055368030e-02 
 7.7814188319145106e-02  8.1997840878214490e-02  8.6427565628969555e-02  9.1119583247354474e-02 
 9.6091269425116269e-02  1.0136123405756384e-01  1.0694940432099267e-01  1.1287711151571186e-01 
 1.1916718147662758e-01  1.2584402826620264e-01  1.3293375076286917e-01  1.4046423164012434e-01 
 1.4846523809609247e-01  1.5696852353881990e-01  1.6600792925760052e-01  1.7561948491398344e-01 
 1.8584150646678932e-01  1.9671468990279384e-01  2.0828219887853969e-01  2.2058974408938872e-01 
 2.3368565187058404e-01  2.4762091920408424e-01  2.6244925195737623e-01  2.7822708282153868e-01 
 2.9501356505202808e-01  3.1287053775584361e-01  3.3186245812408910e-01  3.5205629569346653e-01 
 3.7352138345083552e-01  3.9632922039181540e-01  4.2055322003079321e-01  4.4626839936198837e-01 
 4.7355100291825281e-01  5.0247805689656078e-01  5.3312684884749406e-01  5.6557432918976613e-01 
 5.9989643183557018e-01  6.3616731251713754e-01  6.7445850499907500e-01  7.1483799724169028e-01 
 7.5736923172972492e-01  8.0211003656357283e-01  8.4911149647295725e-01  8.9841677558473654e-01 
 9.5005990646792626e-01  1.0040645625846398e+00  1.0604428336742577e+00  1.1191940256523050e+00 
 1.1803035081674154e+00  1.2437416338641665e+00  1.3094627534789169e+00  1.3774043499888673e+00 
 1.4474863130105693e+00  1.5196103714374614e+00  1.5936596979590032e+00  1.6694986938116603e+00 
 1.7469729562552272e+00  1.8259094254074331e+00  1.9061167019162182e+00  1.9873855232515538e+00 
 2.0694893848064728e+00  2.1521852928943761e+00  2.2352146400987447e+00  2.3183041987865169e+00 
 2.4011672350281863e+00  2.4835047514920894e+00  2.5650068728635369e+00  2.6453543899360432e+00 
 2.7242204780676600e+00  2.8012726124831286e+00  2.8761747464399257e+00  2.9485893615242138e+00 
 3.0181800472028657e+00  3.0846141860292735e+00  3.1475656293238954e+00  3.2067174899607367e+00 
 3.2617649663521751e+00  3.3124181403755077e+00  3.3584046969902883e+00  3.3994725150862610e+00 
 3.4353920830227027e+00  3.4659586978893246e+00  3.4909944141994607e+00  3.5103497149916540e+00 
 3.5239048856966502e+00  3.5315710782429997e+00  3.5332910594466815e+00  3.5290396435787788e+00 
 3.5188238140394787e+00  3.5026825432668831e+00  3.4806863234100023e+00  3.4529364229663249e+00 
 3.4195638866179676e+00  3.3807282969965335e+00  3.3366163181669020e+00  3.2874400413388765e+00 
 3.2334351537777017e+00  3.1748589521643593e+00  3.1119882218107442e+00  3.0451170031811747e+00 
 2.9745542672023255e+00  2.9006215208160211e+00  2.8236503641694606e+00  2.7439800207465348e+00 
 2.6619548616116324e+00  2.5779219430263129e+00  2.4922285871219767e+00  2.4052200079500299e+00 
 2.3172370211040252e+00  2.2286138471764856e+00  2.1396760295154467e+00  2.0507384840359393e+00 
 1.9621036977032866e+00  1.8740600898855488e+00  1.7868805555505642e+00  1.7008211911409181e+00 
 1.6161202234985990e+00  1.5329971432749327e+00  1.4516520480416808e+00  1.3722651961985726e+00 
 1.2949967689922057e+00  1.2199868384157302e+00  1.1473555262656792e+00  1.0772033491160138e+00 
 1.0096117317997195e+00  9.4464367343046163e-01  8.8234454749211211e-01  8.2274301618719337e-01 
 7.6585203846864625e-01  7.1166995098422314e-01  6.6018160151274097e-01  6.1135951531519916e-01 
 5.6516507609096456e-01  5.2154970483635743e-01  4.8045602175984470e-01  4.4181897842350337e-01 
 4.0556694936741483e-01  3.7162277455305481e-01  3.3990474596530051e-01  3.1032753358456266e-01 
 2.8280304763839514e-01  2.5724123553665157e-01  2.3355081316957199e-01  2.1163993129937442e-01 
 1.9141677860848400e-01  1.7279012359522838e-01  1.5566979795101343e-01  1.3996712433637232e-01 
 1.2559529162421743e-01  1.1246968072511984e-01  1.0050814407864567e-01  8.9631241811580872e-02 
 7.9762437449948945e-02  7.0828255944821686e-02  6.2758406645621795e-02  5.5485873738309079e-02 
 4.8946976565061903e-02  4.3081402158970501e-02  3.7832212261292096e-02  3.3145827037408288e-02 
 2.8971987666881600e-02  2.5263699948394426e-02  2.1977161027182869e-02  1.9071671316586478e-02 
 1.6509533642855425e-02  1.4255941590216866e-02  1.2278858960241754e-02  1.0548892184242596e-02 
 9.0391574390278860e-03  7.7251441167962712e-03  6.5845761897304379e-03  5.5972728901885812e-03 
 4.7450100008237014e-03  4.0113829173335286e-03  3.3816725120505197e-03  2.8427146913792343e-03 
 2.3827744062428964e-03  1.9914247441315184e-03  1.6594316057843897e-03  1.3786443504983494e-03 
 1.1418926827915659e-03  9.4288995066558112e-04  7.7614293272041670e-04  6.3686810834405038e-04 
 5.2091433232406262e-04  4.2469177249383473e-04  3.4510691603389357e-04  2.7950340699854008e-04 
 2.2560844288220793e-04  1.8148443212323684e-04  1.4548559593284538e-04  1.1621918621826869e-04 
 9.2510985854114646e-05  7.3374757376279022e-05  5.7985310579207549e-05  4.5654867768107080e-05 
 3.5812416867392814e-05  2.7985756572826480e-05  2.1785953663074216e-05  1.6893949914092907e-05 
 1.3049074306193324e-05  1.0039234916354950e-05  7.6925837269270957e-06  5.8704661724255007e-06 
 4.4614853585891614e-06  3.3765282919380755e-06  2.5446179848475718e-06  1.9094708248982858e-06 
 1.4266530319194066e-06  1.0612433210913690e-06  7.8592102587353216e-07  5.7940991665727076e-07 
 4.2521780775279193e-07  3.1062082140063004e-07  2.2584893200973235e-07  1.6343621260221248e-07 
 1.1770512415910588e-07  8.4359302997759990e-08  6.0163689702758162e-08  4.2694582316937235e-08 
 3.0145360423385850e-08  2.1176285694447081e-08  1.4799003896979525e-08  1.0288213426566824e-08 
 7.1144808306929257e-09  4.8934234597252573e-09  3.3474867877982412e-09  2.2773571735212434e-09 
 1.5407029677423750e-09  1.0364563741624708e-09  6.9325956744957841e-10  4.6102173577941197e-10 
 3.0478606354049677e-10  2.0030141007288758e-10  1.3084425595616675e-10  8.4951910477945067e-11 
 5.4815713239357853e-11  3.5149206944975012e-11  2.2395932645992366e-11  1.4178492435054317e-11 
 8.9178847730045022e-12  5.5722123984969465e-12  3.4585181981644869e-12  2.1321175120469124e-12 
 1.3054264984395698e-12  7.9373391912942249e-13  4.7922466309910668e-13  2.8727975453365882e-13 
 1.7097472189415577e-13  1.0101332047839659e-13  5.9238427042566639e-14  3.4479759569714122e-14 
 1.9916624784280959e-14  1.1416139619268943e-14  6.4927441225237521e-15  3.6635171604750691e-15 
 2.0506143466147730e-15  1.1385181435125710e-15  6.2693148239005531e-16  3.4235608166173705e-16 
 1.8538201153854912e-16  9.9527501927662252e-17  5.2973769290292578e-17  2.7949982462886134e-17 
 1.4617564283885932e-17  7.5328067601673507e-18  3.8713092562871313e-18  1.9722757173340409e-18 
 9.9649717888620011e-19  4.9983591595420707e-19  2.4945608522881758e-19  0.0000000000000000e+00 
 0.0000000000000000e+00  0.0000000000000000e+00  0.0000000000000000e+00  0.0000000000000000e+00 
 0.0000000000000000e+00  0.0000000000000000e+00  0.0000000000000000e+00  0.0000000000000000e+00 
 0.0000000000000000e+00  0.0000000000000000e+00  0.0000000000000000e+00  0.0000000000000000e+00 
 0.0000000000000000e+00  0.0000000000000000e+00  0.0000000000000000e+00  0.0000000000000000e+00 
 0.0000000000000000e+00  0.0000000000000000e+00  0.0000000000000000e+00  0.0000000000000000e+00 
 0.0000000000000000e+00  0.0000000000000000e+00  0.0000000000000000e+00  0.0000000000000000e+00 
 0.0000000000000000e+00  0.0000000000000000e+00  0.0000000000000000e+00  0.0000000000000000e+00 
 0.0000000000000000e+00  0.0000000000000000e+00  0.0000000000000000e+00  0.0000000000000000e+00 
 0.0000000000000000e+00  0.0000000000000000e+00  0.0000000000000000e+00  0.0000000000000000e+00 
 0.0000000000000000e+00  0.0000000000000000e+00  0.0000000000000000e+00  0.0000000000000000e+00 
 0.0000000000000000e+00  0.0000000000000000e+00  0.0000000000000000e+00  0.0000000000000000e+00 
 0.0000000000000000e+00  0.0000000000000000e+00  0.0000000000000000e+00  0.0000000000000000e+00 
 0.0000000000000000e+00  0.0000000000000000e+00  0.0000000000000000e+00  0.0000000000000000e+00 
 0.0000000000000000e+00  0.0000000000000000e+00  0.0000000000000000e+00  0.0000000000000000e+00 
 0.0000000000000000e+00  0.0000000000000000e+00  0.0000000000000000e+00  0.0000000000000000e+00 
 0.0000000000000000e+00  0.0000000000000000e+00  0.0000000000000000e+00  0.0000000000000000e+00 
 0.0000000000000000e+00  0.0000000000000000e+00  0.0000000000000000e+00  0.0000000000000000e+00 
 0.0000000000000000e+00  0.0000000000000000e+00  0.0000000000000000e+00  0.0000000000000000e+00 
 0.0000000000000000e+00  0.0000000000000000e+00  0.0000000000000000e+00  0.0000000000000000e+00 
 0.0000000000000000e+00  0.0000000000000000e+00  0.0000000000000000e+00  0.0000000000000000e+00 
 0.0000000000000000e+00  0.0000000000000000e+00  0.0000000000000000e+00  0.0000000000000000e+00 
 0.0000000000000000e+00  0.0000000000000000e+00  0.0000000000000000e+00  0.0000000000000000e+00 
 0.0000000000000000e+00  0.0000000000000000e+00  0.0000000000000000e+00  0.0000000000000000e+00 
 0.0000000000000000e+00  0.0000000000000000e+00  0.0000000000000000e+00  0.0000000000000000e+00 
 0.0000000000000000e+00  0.0000000000000000e+00  0.0000000000000000e+00  0.0000000000000000e+00 
 0.0000000000000000e+00  0.0000000000000000e+00  0.0000000000000000e+00  0.0000000000000000e+00 
 0.0000000000000000e+00  0.0000000000000000e+00  0.0000000000000000e+00  0.0000000000000000e+00 
 0.0000000000000000e+00  0.0000000000000000e+00  0.0000000000000000e+00  0.0000000000000000e+00 
 0.0000000000000000e+00  0.0000000000000000e+00  0.0000000000000000e+00  0.0000000000000000e+00 
 0.0000000000000000e+00  0.0000000000000000e+00  0.0000000000000000e+00  0.0000000000000000e+00 
 0.0000000000000000e+00  0.0000000000000000e+00  0.0000000000000000e+00  0.0000000000000000e+00 
 0.0000000000000000e+00  0.0000000000000000e+00  0.0000000000000000e+00  0.0000000000000000e+00 
 0.0000000000000000e+00  0.0000000000000000e+00  0.0000000000000000e+00  0.0000000000000000e+00 
 0.0000000000000000e+00  0.0000000000000000e+00 
</PP_RHOATOM>


<PP_ADDINFO>
 6S  6  0   0.50  2.00 
 6P  6  1   0.50  1.17 
 6P  6  1   1.50  2.33 
  1   0.50 
  1   1.50 
 -6.24077551,  116.96528670,   86.00000000,    0.01300000 
</PP_ADDINFO>
