  <PP_INFO>

############################################################
#    Opium Parameter File                                  #
############################################################
#-----------------------------------------------------------
#Command line   : opium Tl Tl.log ae ps nl tc2 ke upf qmcpack rpt 
 
#Opium version  : 4.1 
#Compile Host   : py-garuda.cos.ncsu.edu 
#Compile OS     : Linux 5.15.0-113-generic x86_64 
#Compile Date   : Sat Jul 13 02:11:52 EDT 2024 
#-----------------------------------------------------------
#Execution Host : Gwaihir 
#Execution Date : Tue Feb  3 16:47:30 2026
 
#-----------------------------------------------------------
############################################################
[Atom]
Tl
15
100   2.00  -
200   2.00  -
210   6.00  -
300   2.00  -
310   6.00  -
320   10.00  -
400   2.00  -
410   6.00  -
420   10.00  -
430   14.00  -
500   2.00  -
510   6.00  -
520   9.50  -
600   1.50  -
610   0.50  -

[Pseudo]
5 -1 -1 -1 -1 -1
g

[Gaussinfo]
21 5 3
2 2 2 2 4  4 4 4
2 9.6879918 150.3754568
2 7.8712284 62.0897970
2 9.5985987 41.4892097
2 8.0065803 159.6510663
2 7.3202181 89.7946316
2 4.8033564 25.9201089
2 5.5877192 36.9294974
2 2.8484200 6.8120201
1 9.9364736 21.0
3 9.7586918 208.66594560
2 9.2087436 -139.6278585
2 9.0063916 -0.5996814
2 7.45487225489508 -9.32583105022434
2 3.60695022095249 9.43220516232552
2 9.04517758863761 -144.675271481784
2 9.06452027492951 144.473759871600
2 7.61110133805649 -35.8041793206935
2 6.50957912204442 36.0902033395242
2 4.83254910704299 -10.2557481858193
2 5.98017023126105 10.4968262542656
2 5.70505800000000 -10.4918670000000
2 5.62761100000000 10.4935510000000
2 2.95360500000000 -1.88495900000000
2 2.90011000000000 1.88999200000000

[KBdesign]
s

[Relativity]
frl

[XC]
pbe

[Configs]
11

500  2.00 -
510  6.00 -
520  10.00 -
600  2.00 -
610  1.00 -

500  2.00 -
510  6.00 -
520  10.00 -
600  1.00 -
610  2.00 -

500  2.00 -
510  6.00 -
520  10.00 -
600  2.00 -
610  0.00 -

500  2.00 -
510  6.00 -
520  10.00 -
600  1.00 -
610  1.00 -

500  2.00 -
510  6.00 -
520  9.00 -
600  2.00 -
610  1.00 -

500  2.00 -
510  6.00 -
520  10.00 -
600  1.00 -
610  0.00 -

500  2.00 -
510  6.00 -
520  9.00 -
600  1.00 -
610  0.00 -

500  2.00 -
510  6.00 -
520  9.00 -
600  0.00 -
610  0.00 -

500  2.00 -
510  6.00 -
520  8.00 -
600  0.00 -
610  0.00 -

500  2.00 -
510  6.00 -
520  7.00 -
600  0.00 -
610  0.00 -

500  2.00 -
510  6.00 -
520  6.00 -
600  0.00 -
610  0.00 -
############################################################
  </PP_INFO>



<PP_HEADER>
   0         Version Number
   Tl        Element
   NC        Norm - Conserving pseudopotential
    F      Nonlinear Core Correction
SLA  PW   PBE  PBE     PBE  Exchange-Correlation functional
 21          Z valence
 0          Total energy
 0.000000   0.000000     Suggested cutoff for wfc and rho
 2           Max angular momentum component
 1189           Number of points in mesh
 5  4     Number of Wavefuncitons, Number of Projectors
 Wavefunctions         nl  l   occ
                      5S  0  2.000000
                      5P  1  2.000000
                      5P  1  4.000000
                      5D  2  3.800000
                      5D  2  5.700000
</PP_HEADER>
<PP_MESH>
  <PP_R>
 2.3112042478354488e-05  2.3414460488598028e-05  2.3720835598392826e-05  2.4031219585861634e-05 
 2.4345664906637075e-05  2.4664224702726803e-05  2.4986952811494510e-05  2.5313903774758726e-05 
 2.5645132848010410e-05  2.5980696009751310e-05  2.6320649970954424e-05  2.6665052184648326e-05 
 2.7013960855626835e-05  2.7367434950285787e-05  2.7725534206588507e-05  2.8088319144161564e-05 
 2.8455851074522903e-05  2.8828192111443519e-05  2.9205405181444849e-05  2.9587554034433531e-05 
 2.9974703254475282e-05  3.0366918270709726e-05  3.0764265368408128e-05  3.1166811700175742e-05 
 3.1574625297300686e-05  3.1987775081251538e-05  3.2406330875325119e-05  3.2830363416446834e-05 
 3.3259944367125367e-05  3.3695146327563830e-05  3.4136042847929360e-05  3.4582708440783273e-05 
 3.5035218593673902e-05  3.5493649781894043e-05  3.5958079481405639e-05  3.6428586181933306e-05 
 3.6905249400229282e-05  3.7388149693511949e-05  3.7877368673080241e-05  3.8372989018106078e-05 
 3.8875094489607405e-05  3.9383769944604003e-05  3.9899101350458379e-05  4.0421175799404708e-05 
 4.0950081523267445e-05  4.1485907908372764e-05  4.2028745510655072e-05  4.2578686070961162e-05 
 4.3135822530554639e-05  4.3700249046823256e-05  4.4272061009191553e-05  4.4851355055242200e-05 
 4.5438229087047747e-05  4.6032782287716386e-05  4.6635115138154121e-05  4.7245329434046292e-05 
 4.7863528303061270e-05  4.8489816222279296e-05  4.9124299035849338e-05  4.9767083972877066e-05 
 5.0418279665546639e-05  5.1077996167480074e-05  5.1746344972336391e-05  5.2423439032654337e-05 
 5.3109392778941651e-05  5.3804322139014108e-05  5.4508344557587534e-05  5.5221579016126399e-05 
 5.5944146052951625e-05  5.6676167783612271e-05  5.7417767921523126e-05  5.8169071798872564e-05 
 5.8930206387804010e-05  5.9701300321874597e-05  6.0482483917794462e-05  6.1273889197450583e-05 
 6.2075649910218867e-05  6.2887901555568016e-05  6.3710781405959413e-05  6.4544428530046176e-05 
 6.5388983816176506e-05  6.6244589996203882e-05  6.7111391669609141e-05  6.7989535327938176e-05 
 6.8879169379559304e-05  6.9780444174744714e-05  7.0693512031079803e-05  7.1618527259205552e-05 
 7.2555646188897136e-05  7.3505027195484087e-05  7.4466830726616147e-05  7.5441219329379269e-05 
 7.6428357677766468e-05  7.7428412600508086e-05  7.8441553109266304e-05  7.9467950427198467e-05 
 8.0507778017894311e-05  8.1561211614691401e-05  8.2628429250374959e-05  8.3709611287265497e-05 
 8.4804940447700533e-05  8.5914601844915204e-05  8.7038783014326720e-05  8.8177673945228461e-05 
 8.9331467112898263e-05  9.0500357511127694e-05  9.1684542685176092e-05  9.2884222765156379e-05 
 9.4099600499857394e-05  9.5330881291009066e-05  9.6578273227995617e-05  9.7841987123023323e-05 
 9.9122236546748258e-05  1.0041923786437006e-04  1.0173321027219856e-04  1.0306437583469782e-04 
 1.0441295952201636e-04  1.0577918924800707e-04  1.0716329590874537e-04  1.0856551342155127e-04 
 1.0998607876452184e-04  1.1142523201658124e-04  1.1288321639805412e-04  1.1436027831177130e-04 
 1.1585666738471167e-04  1.1737263651019015e-04  1.1890844189059705e-04  1.2046434308069708e-04 
 1.2204060303149453e-04  1.2363748813467275e-04  1.2525526826761492e-04  1.2689421683901396e-04 
 1.2855461083507942e-04  1.3023673086634831e-04  1.3194086121510960e-04  1.3366728988344829e-04 
 1.3541630864191838e-04  1.3718821307885285e-04  1.3898330265031886e-04  1.4080188073072660e-04 
 1.4264425466409980e-04  1.4451073581601840e-04  1.4640163962623939e-04  1.4831728566200731e-04 
 1.5025799767206158e-04  1.5222410364135099e-04  1.5421593584646391e-04  1.5623383091178369e-04 
 1.5827812986637924e-04  1.6034917820163946e-04  1.6244732592966241e-04  1.6457292764240772e-04 
 1.6672634257162408e-04  1.6890793464955988e-04  1.7111807257046865e-04  1.7335712985291958e-04 
 1.7562548490292223e-04  1.7792352107787908e-04  1.8025162675137333e-04  1.8261019537880487e-04 
 1.8499962556388537e-04  1.8742032112600311e-04  1.8987269116846971e-04  1.9235715014765911e-04 
 1.9487411794305213e-04  1.9742401992819676e-04  2.0000728704259749e-04  2.0262435586454515e-04 
 2.0527566868489946e-04  2.0796167358183768e-04  2.1068282449657991e-04  2.1343958131010758e-04 
 2.1623240992088352e-04  2.1906178232359032e-04  2.2192817668889787e-04  2.2483207744427639e-04 
 2.2777397535586496e-04  2.3075436761141286e-04  2.3377375790430496e-04  2.3683265651868685e-04 
 2.3993158041570511e-04  2.4307105332087395e-04  2.4625160581258679e-04  2.4947377541178448e-04 
 2.5273810667279843e-04  2.5604515127538132e-04  2.5939546811794192e-04  2.6278962341200088e-04 
 2.6622819077788110e-04  2.6971175134165161e-04  2.7324089383333889e-04  2.7681621468642395e-04 
 2.8043831813864020e-04  2.8410781633409231e-04  2.8782532942670886e-04  2.9159148568505067e-04 
 2.9540692159848937e-04  2.9927228198477511e-04  3.0318822009901326e-04  3.0715539774406548e-04 
 3.1117448538239611e-04  3.1524616224938156e-04  3.1937111646810360e-04  3.2355004516564285e-04 
 3.2778365459089554e-04  3.3207266023393099e-04  3.3641778694691094e-04  3.4081976906659173e-04 
 3.4527935053842889e-04  3.4979728504230535e-04  3.5437433611990531e-04  3.5901127730375462e-04 
 3.6370889224794986e-04  3.6846797486059739e-04  3.7328932943798591e-04  3.7817377080051401e-04 
 3.8312212443039764e-04  3.8813522661117764e-04  3.9321392456905446e-04  3.9835907661607052e-04 
 4.0357155229516780e-04  4.0885223252714237e-04  4.1420200975952182e-04  4.1962178811739162e-04 
 4.2511248355619368e-04  4.3067502401652547e-04  4.3631034958096425e-04  4.4201941263294326e-04 
 4.4780317801770608e-04  4.5366262320536873e-04  4.5959873845611399e-04  4.6561252698754785e-04 
 4.7170500514424560e-04  4.7787720256951610e-04  4.8413016237941486e-04  4.9046494133903236e-04 
 4.9688261004109027e-04  5.0338425308687367e-04  5.0997096926953193e-04  5.1664387175977700e-04 
 5.2340408829401196e-04  5.3025276136492113e-04  5.3719104841455363e-04  5.4422012202993476e-04 
 5.5134117014123563e-04  5.5855539622253587e-04  5.6586401949521329e-04  5.7326827513399657e-04 
 5.8076941447571153e-04  5.8836870523076010e-04  5.9606743169736745e-04  6.0386689497862961e-04 
 6.1176841320240464e-04  6.1977332174407897e-04  6.2788297345224878e-04  6.3609873887735403e-04 
 6.4442200650330600e-04  6.5285418298214378e-04  6.6139669337176167e-04  6.7005098137674771e-04 
 6.7881850959237229e-04  6.8770075975177177e-04  6.9669923297636363e-04  7.0581545002954037e-04 
 7.1505095157368092e-04  7.2440729843052773e-04  7.3388607184496878e-04  7.4348887375227154e-04 
 7.5321732704881417e-04  7.6307307586635776e-04  7.7305778584991071e-04  7.8317314443922433e-04 
 7.9342086115397655e-04  8.0380266788268183e-04  8.1432031917538729e-04  8.2497559254019468e-04 
 8.3577028874366299e-04  8.4670623211514353e-04  8.5778527085509379e-04  8.6900927734743063e-04 
 8.8038014847596530e-04  8.9189980594498277e-04  9.0357019660401217e-04  9.1539329277685248e-04 
 9.2737109259489635e-04  9.3950562033482169e-04  9.5179892676069847e-04  9.6425308947057080e-04 
 9.7687021324757923e-04  9.8965243041567222e-04  1.0026019011999746e-03  1.0157208140918685e-03 
 1.0290113862188579e-03  1.0424758637192649e-03  1.0561165221218338e-03  1.0699356667303013e-03 
 1.0839356330129963e-03  1.0981187869975419e-03  1.1124875256707193e-03  1.1270442773835632e-03 
 1.1417915022617589e-03  1.1567316926214112e-03  1.1718673733902500e-03  1.1872011025343490e-03 
 1.2027354714904306e-03  1.2184731056038203e-03  1.2344166645721409e-03  1.2505688428948052e-03 
 1.2669323703283937e-03  1.2835100123479892e-03  1.3003045706145508e-03  1.3173188834483956e-03 
 1.3345558263088897e-03  1.3520183122804018e-03  1.3697092925646238e-03  1.3876317569793298e-03 
 1.4057887344636631e-03  1.4241832935900339e-03  1.4428185430827157e-03  1.4616976323432271e-03 
 1.4808237519825852e-03  1.5002001343605322e-03  1.5198300541318073e-03  1.5397168287995735e-03 
 1.5598638192760820e-03  1.5802744304506747e-03  1.6009521117652194e-03  1.6219003577970733e-03 
 1.6431227088496763e-03  1.6646227515508649e-03  1.6864041194590280e-03  1.7084704936771852e-03 
 1.7308256034750987e-03  1.7534732269195317e-03  1.7764171915127501e-03  1.7996613748393791e-03 
 1.8232097052217238e-03  1.8470661623836684e-03  1.8712347781232501e-03  1.8957196369940546e-03 
 1.9205248769955073e-03  1.9456546902722070e-03  1.9711133238224090e-03  1.9969050802157778e-03 
 2.0230343183205300e-03  2.0495054540400960e-03  2.0763229610594176e-03  2.1034913716010063e-03 
 2.1310152771909082e-03  2.1588993294346780e-03  2.1871482408035115e-03  2.2157667854306655e-03 
 2.2447597999182959e-03  2.2741321841548584e-03  2.3038889021431974e-03  2.3340349828394795e-03 
 2.3645755210030882e-03  2.3955156780576647e-03  2.4268606829633927e-03  2.4586158331007042e-03 
 2.4907864951655531e-03  2.5233781060763983e-03  2.5563961738930543e-03  2.5898462787475682e-03 
 2.6237340737872775e-03  2.6580652861301957e-03  2.6928457178329221e-03  2.7280812468711956e-03 
 2.7637778281332879e-03  2.7999414944263929e-03  2.8365783574961878e-03  2.8736946090597306e-03 
 2.9112965218518754e-03  2.9493904506853832e-03  2.9879828335248890e-03  3.0270801925749487e-03 
 3.0666891353822970e-03  3.1068163559525418e-03  3.1474686358814665e-03  3.1886528455011345e-03 
 3.2303759450409949e-03  3.2726449858041739e-03  3.3154671113591687e-03  3.3588495587471121e-03 
 3.4027996597048721e-03  3.4473248419041136e-03  3.4924326302066028e-03  3.5381306479359258e-03 
 3.5844266181658431e-03  3.6313283650255112e-03  3.6788438150217829e-03  3.7269809983787997e-03 
 3.7757480503951154e-03  3.8251532128185930e-03  3.8752048352392720e-03  3.9259113765004686e-03 
 3.9772814061283428e-03  4.0293236057801661e-03  4.0820467707115482e-03  4.1354598112628453e-03 
 4.1895717543650440e-03  4.2443917450653134e-03  4.2999290480725616e-03  4.3561930493231813e-03 
 4.4131932575672975e-03  4.4709393059757692e-03  4.5294409537682189e-03  4.5887080878623627e-03 
 4.6487507245449242e-03  4.7095790111644151e-03  4.7712032278460423e-03  4.8336337892291008e-03 
 4.8968812462270549e-03  4.9609562878106727e-03  5.0258697428144858e-03  5.0916325817668903e-03 
 5.1582559187441932e-03  5.2257510132489105e-03  5.2941292721126647e-03  5.3634022514239422e-03 
 5.4335816584811254e-03  5.5046793537710421e-03  5.5767073529734154e-03  5.6496778289915443e-03 
 5.7236031140095534e-03  5.7984957015765580e-03  5.8743682487181099e-03  5.9512335780752658e-03 
 6.0291046800716227e-03  6.1079947151087633e-03  6.1879170157903771e-03  6.2688850891754987e-03 
 6.3509126190612461e-03  6.4340134682953996e-03  6.5182016811192690e-03  6.6034914855412005e-03 
 6.6898972957411410e-03  6.7774337145066589e-03  6.8661155357008768e-03  6.9559577467626470e-03 
 7.0469755312394730e-03  7.1391842713535610e-03  7.2325995506014578e-03  7.3272371563876922e-03 
 7.4231130826928901e-03  7.5202435327767969e-03  7.6186449219166428e-03  7.7183338801814052e-03 
 7.8193272552422987e-03  7.9216421152200848e-03  8.0252957515696156e-03  8.1303056820021431e-03 
 8.2366896534458427e-03  8.3444656450450926e-03  8.4536518711989996e-03  8.5642667846396407e-03 
 8.6763290795506681e-03  8.7898576947266441e-03  8.9048718167737389e-03  9.0213908833523242e-03 
 9.1394345864619798e-03  9.2590228757694869e-03  9.3801759619803679e-03  9.5029143202545602e-03 
 9.6272586936667209e-03  9.7532300967119179e-03  9.8808498188570921e-03  1.0010139428139029e-02 
 1.0141120774809423e-02  1.0273815995027608e-02  1.0408247514601629e-02  1.0544438052778255e-02 
 1.0682410626082590e-02  1.0822188552207896e-02  1.0963795453956380e-02  1.1107255263231476e-02 
 1.1252592225082403e-02  1.1399830901801623e-02  1.1548996177075950e-02  1.1700113260191932e-02 
 1.1853207690296286e-02  1.2008305340712093e-02  1.2165432423311397e-02  1.2324615492945145e-02 
 1.2485881451930981e-02  1.2649257554599799e-02  1.2814771411901798e-02  1.2982450996072807e-02 
 1.3152324645361643e-02  1.3324421068819347e-02  1.3498769351151104e-02  1.3675398957631573e-02 
 1.3854339739084653e-02  1.4035621936928307e-02  1.4219276188285439e-02  1.4405333531161645e-02 
 1.4593825409690704e-02  1.4784783679448719e-02  1.4978240612837776e-02  1.5174228904540076e-02 
 1.5372781677043364e-02  1.5573932486238781e-02  1.5777715327091837e-02  1.5984164639387659e-02 
 1.6193315313551396e-02  1.6405202696544781e-02  1.6619862597839853e-02  1.6837331295470839e-02 
 1.7057645542165253e-02  1.7280842571555124e-02  1.7506960104469664e-02  1.7736036355310115e-02 
 1.7968110038508098e-02  1.8203220375068430e-02  1.8441407099197577e-02  1.8682710465018820e-02 
 1.8927171253375306e-02  1.9174830778722132e-02  1.9425730896108492e-02  1.9679914008251420e-02 
 1.9937423072701833e-02  2.0198301609104536e-02  2.0462593706553085e-02  2.0730344031040997e-02 
 2.1001597833010380e-02  2.1276400954999372e-02  2.1554799839389675e-02  2.1836841536255321e-02 
 2.2122573711314389e-02  2.2412044653984536e-02  2.2705303285544043e-02  2.3002399167399625e-02 
 2.3303382509462432e-02  2.3608304178633643e-02  2.3917215707401088e-02  2.4230169302548392e-02 
 2.4547217853977957e-02  2.4868414943649594e-02  2.5193814854635944e-02  2.5523472580296441e-02 
 2.5857443833571345e-02  2.6195785056397341e-02  2.6538553429246364e-02  2.6885806880789259e-02 
 2.7237604097685855e-02  2.7594004534503065e-02  2.7955068423763007e-02  2.8320856786122336e-02 
 2.8691431440684895e-02  2.9066855015449308e-02  2.9447190957893266e-02  2.9832503545696262e-02 
 3.0222857897602737e-02  3.0618319984427253e-02  3.1018956640203675e-02  3.1424835573480407e-02 
 3.1836025378763205e-02  3.2252595548107839e-02  3.2674616482864398e-02  3.3102159505575310e-02 
 3.3535296872029004e-02  3.3974101783471322e-02  3.4418648398976730e-02  3.4869011847981239e-02 
 3.5325268242979692e-02  3.5787494692388754e-02  3.6255769313578531e-02  3.6730171246074542e-02 
 3.7210780664932497e-02  3.7697678794288085e-02  3.8190947921084031e-02  3.8690671408976827e-02 
 3.9196933712425247e-02  3.9709820390963560e-02  4.0229418123661161e-02  4.0755814723771565e-02 
 4.1289099153573067e-02  4.1829361539403580e-02  4.2376693186892168e-02  4.2931186596389975e-02 
 4.3492935478602994e-02  4.4062034770429248e-02  4.4638580651003609e-02  4.5222670557952128e-02 
 4.5814403203859273e-02  4.6413878592950583e-02  4.7021198037993622e-02  4.7636464177420082e-02 
 4.8259780992671919e-02  4.8891253825774507e-02  4.9530989397139534e-02  5.0179095823601208e-02 
 5.0835682636688181e-02  5.1500860801134592e-02  5.2174742733633421e-02  5.2857442321835181e-02 
 5.3549074943595149e-02  5.4249757486472566e-02  5.4959608367484918e-02  5.5678747553120508e-02 
 5.6407296579613388e-02  5.7145378573483042e-02  5.7893118272343135e-02  5.8650642045982485e-02 
 5.9418077917721801e-02  6.0195555586049998e-02  6.0983206446543474e-02  6.1781163614072397e-02 
 6.2589561945297204e-02  6.3408538061459963e-02  6.4238230371473581e-02  6.5078779095313163e-02 
 6.5930326287713656e-02  6.6793015862177313e-02  6.7666993615295531e-02  6.8552407251388725e-02 
 6.9449406407468758e-02  7.0358142678527955e-02  7.1278769643159018e-02  7.2211442889510133e-02 
 7.3156320041579931e-02  7.4113560785855750e-02  7.5083326898301814e-02  7.6065782271699273e-02 
 7.7061092943344567e-02  7.8069427123110158e-02  7.9090955221872331e-02  8.0125849880311129e-02 
 8.1174285998086973e-02  8.2236440763399157e-02  8.3312493682931019e-02  8.4402626612187101e-02 
 8.5507023786227071e-02  8.6625871850801880e-02  8.7759359893897437e-02  8.8907679477690835e-02 
 9.0071024670924843e-02  9.1249592081705980e-02  9.2443580890731944e-02  9.3653192884952954e-02 
 9.4878632491675177e-02  9.6120106813108813e-02  9.7377825661369030e-02  9.8652001593934655e-02 
 9.9942849949570964e-02  1.0125058888472238e-01  1.0257543941038154e-01  1.0391762542944052e-01 
 1.0527737377453107e-01  1.0665491424635984e-01  1.0805047965254527e-01  1.0946430584696257e-01 
 1.1089663176960365e-01  1.1234769948695851e-01  1.1381775423292505e-01  1.1530704445025422e-01 
 1.1681582183253759e-01  1.1834434136674345e-01  1.1989286137631125e-01  1.2146164356480825e-01 
 1.2305095306015819e-01  1.2466105845944844e-01  1.2629223187432373e-01  1.2794474897697350e-01 
 1.2961888904672125e-01  1.3131493501722341e-01  1.3303317352428573e-01  1.3477389495430547e-01 
 1.3653739349334740e-01  1.3832396717686191e-01  1.4013391794005373e-01  1.4196755166890970e-01 
 1.4382517825189420e-01  1.4570711163232114e-01  1.4761366986141122e-01  1.4954517515204244e-01 
 1.5150195393320631e-01  1.5348433690517424e-01  1.5549265909538668e-01  1.5752725991507383e-01 
 1.5958848321661673e-01  1.6167667735165928e-01  1.6379219522998037e-01  1.6593539437913662e-01 
 1.6810663700488523e-01  1.7030629005239770e-01  1.7253472526827451e-01  1.7479231926337099e-01 
 1.7707945357644558e-01  1.7939651473864082e-01  1.8174389433880797e-01  1.8412198908968644e-01 
 1.8653120089494954e-01  1.8897193691712583e-01  1.9144460964641263e-01  1.9394963697038636e-01 
 1.9648744224462700e-01  1.9905845436426609e-01  2.0166310783647109e-01  2.0430184285387820e-01 
 2.0697510536898575e-01  2.0968334716952144e-01  2.1242702595479543e-01  2.1520660541305262e-01 
 2.1802255529983719e-01  2.2087535151738219e-01  2.2376547619503837e-01  2.2669341777075494e-01 
 2.2965967107362703e-01  2.3266473740752283e-01  2.3570912463580546e-01  2.3879334726716170e-01 
 2.4191792654255734e-01  2.4508339052332673e-01  2.4829027418041674e-01  2.5153911948479812e-01 
 2.5483047549905985e-01  2.5816489847020213e-01  2.6154295192364330e-01  2.6496520675845708e-01 
 2.6843224134385590e-01  2.7194464161693649e-01  2.7550300118170490e-01  2.7910792140939683e-01 
 2.8276001154011077e-01  2.8645988878577122e-01  2.9020817843443869e-01  2.9400551395598518e-01 
 2.9785253710915222e-01  3.0174989805000813e-01  3.0569825544182833e-01  3.0969827656640969e-01 
 3.1375063743684262e-01  3.1785602291175924e-01  3.2201512681107602e-01  3.2622865203325108e-01 
 3.3049731067407551e-01  3.3482182414701933e-01  3.3920292330515239e-01  3.4364134856465983e-01 
 3.4813785002997427e-01  3.5269318762054563e-01  3.5730813119926869e-01  3.6198346070259241e-01 
 3.6671996627233050e-01  3.7151844838919756e-01  3.7637971800809294e-01  3.8130459669515115e-01 
 3.8629391676659275e-01  3.9134852142938470e-01  3.9646926492374562e-01  4.0165701266751375e-01 
 4.0691264140240541e-01  4.1223703934218536e-01  4.1763110632277822e-01  4.2309575395434218e-01 
 4.2863190577533306e-01  4.3424049740858550e-01  4.3992247671943435e-01  4.4567880397590687e-01 
 4.5151045201100998e-01  4.5741840638714149e-01  4.6340366556265244e-01  4.6946724106058907e-01 
 4.7561015763964321e-01  4.8183345346733586e-01  4.8813818029547462e-01  4.9452540363789943e-01 
 5.0099620295055747e-01  5.0755167181393346e-01  5.1419291811786816e-01  5.2092106424879359e-01 
 5.2773724727941962e-01  5.3464261916090150e-01  5.4163834691752288e-01  5.4872561284392485e-01 
 5.5590561470491762e-01  5.6317956593790452e-01  5.7054869585795687e-01  5.7801424986557026e-01 
 5.8557748965714085e-01  5.9323969343819449e-01  6.0100215613940811e-01  6.0886618963545147e-01 
 6.1683312296670378e-01  6.2490430256385987e-01  6.3308109247548194e-01  6.4136487459852665e-01 
 6.4975704891188890e-01  6.5825903371300198e-01  6.6687226585753268e-01  6.7559820100221379e-01 
 6.8443831385085330e-01  6.9339409840356314e-01  7.0246706820924809e-01  7.1165875662140010e-01 
 7.2097071705723781e-01  7.3040452326023819e-01  7.3996176956610293e-01  7.4964407117220500e-01 
 7.5945306441056193e-01  7.6939040702437467e-01  7.7945777844819808e-01  7.8965688009176416e-01 
 7.9998943562752556e-01  8.1045719128196025e-01  8.2106191613068802e-01  8.3180540239744882e-01 
 8.4268946575699211e-01  8.5371594564193054e-01  8.6488670555360936e-01  8.7620363337704044e-01 
 8.8766864169996185e-01  8.9928366813606764e-01  9.1105067565247055e-01  9.2297165290144767e-01 
 9.3504861455652677e-01  9.4728360165297221e-01  9.5967868193272521e-01  9.7223595019385123e-01 
 9.8495752864457586e-01  9.9784556726193541e-01  1.0109022441551312e+00  1.0241297659336346e+00 
 1.0375303680801085e+00  1.0511063153282103e+00  1.0648599020453378e+00  1.0787934526203804e+00 
 1.0929093218565484e+00  1.1072098953693401e+00  1.1216975899897159e+00  1.1363748541725489e+00 
 1.1512441684104191e+00  1.1663080456528232e+00  1.1815690317308685e+00  1.1970297057875248e+00 
 1.2126926807135081e+00  1.2285606035888557e+00  1.2446361561303028e+00  1.2609220551444902e+00 
 1.2774210529871137e+00  1.2941359380280777e+00  1.3110695351227373e+00  1.3282247060893049e+00 
 1.3456043501925048e+00  1.3632114046335557e+00  1.3810488450465648e+00  1.3991196860014166e+00 
 1.4174269815132428e+00  1.4359738255585581e+00  1.4547633525981494e+00  1.4737987381068074e+00 
 1.4930831991099889e+00  1.5126199947275025e+00  1.5324124267243098e+00  1.5524638400685205e+00 
 1.5727776234967168e+00  1.5933572100866471e+00  1.6142060778374261e+00  1.6353277502573267e+00 
 1.6567257969592588e+00  1.6784038342640444e+00  1.7003655258115844e+00  1.7226145831800210e+00 
 1.7451547665130043e+00  1.7679898851551656e+00  1.7911237982959050e+00  1.8145604156216044e+00 
 1.8383036979763729e+00  1.8623576580314403e+00  1.8867263609633065e+00  1.9114139251407665e+00 
 1.9364245228209287e+00  1.9617623808543223e+00  1.9874317813992644e+00  2.0134370626455427e+00 
 2.0397826195475832e+00  2.0664729045672070e+00  2.0935124284261084e+00  2.1209057608681756e+00 
 2.1486575314317906e+00  2.1767724302322304e+00  2.2052552087543082e+00  2.2341106806553865e+00 
 2.2633437225788948e+00  2.2929592749784962e+00  2.3229623429530339e+00  2.3533579970924059e+00 
 2.3841513743345057e+00  2.4153476788333794e+00  2.4469521828387411e+00  2.4789702275869812e+00 
 2.5114072242038725e+00  2.5442686546190463e+00  2.5775600724924566e+00  2.6112871041529599e+00 
 2.6454554495491815e+00  2.6800708832128164e+00  2.7151392552345426e+00  2.7506664922526971e+00 
 2.7866585984548951e+00  2.8231216565927491e+00  2.8600618290098692e+00  2.8974853586833165e+00 
 2.9353985702786765e+00  2.9738078712189462e+00  3.0127197527674019e+00  3.0521407911246401e+00 
 3.0920776485399739e+00  3.1325370744373502e+00  3.1735259065560473e+00  3.2150510721062506e+00 
 3.2571195889397728e+00  3.2997385667360861e+00  3.3429152082038738e+00  3.3866568102983101e+00 
 3.4309707654542572e+00  3.4758645628356089e+00  3.5213457896009732e+00  3.5674221321859241e+00 
 3.6141013776020245e+00  3.6613914147528499e+00  3.7093002357672344e+00  3.7578359373499572e+00 
 3.8070067221501054e+00  3.8568209001473415e+00  3.9072868900563158e+00  3.9584132207494229e+00 
 4.0102085326982442e+00  4.0626815794337743e+00  4.1158412290258051e+00  4.1696964655816418e+00 
 4.2242563907644426e+00  4.2795302253314205e+00  4.3355273106921759e+00  4.3922571104874129e+00 
 4.4497292121883190e+00  4.5079533287168703e+00  4.5669393000873404e+00  4.6266970950692823e+00 
 4.6872368128722783e+00  4.7485686848527262e+00  4.8107030762429668e+00  4.8736504879030313e+00 
 4.9374215580953198e+00  5.0020270642824594e+00  5.0674779249487703e+00  5.1337852014454848e+00 
 5.2009600998601497e+00  5.2690139729104786e+00  5.3379583218629936e+00  5.4078047984767599e+00 
 5.4785652069725668e+00  5.5502515060278679e+00  5.6228758107978232e+00  5.6964503949627918e+00 
 5.7709876928026116e+00  5.8465003012980237e+00  5.9230009822595919e+00  6.0005026644844781e+00 
 6.0790184459414380e+00  6.1585615959844144e+00  6.2391455575950951e+00  6.3207839496547686e+00 
 6.4034905692460118e+00  6.4872793939843838e+00  6.5721645843806922e+00  6.6581604862341477e+00 
 6.7452816330568437e+00  6.8335427485299487e+00  6.9229587489920483e+00  7.0135447459600391e+00 
 7.1053160486830125e+00  7.1982881667295509e+00  7.2924768126088910e+00  7.3878979044263620e+00 
 7.4845675685735920e+00  7.5825021424539063e+00  7.6817181772433827e+00  7.7822324406880474e+00 
 7.8840619199376665e+00  7.9872238244165725e+00  8.0917355887321705e+00  8.1976148756213778e+00 
 8.3048795789356813e+00  8.4135478266652406e+00  8.5236379840025656e+00  8.6351686564462700e+00 
 8.7481586929454505e+00  8.8626271890852006e+00  8.9785934903138180e+00  9.0960771952122190e+00 
 9.2150981588061569e+00  9.3356764959217546e+00  9.4578325845849776e+00  9.5815870694655523e+00 
 9.7069608653659696e+00  9.8339751607561414e+00  9.9626514213543107e+00  1.0093011393754745e+01 
 1.0225077109103067e+01  1.0358870886819501e+01  1.0494415338370922e+01  1.0631733371092251e+01 
 1.0770848192057848e+01  1.0911783312003566e+01  1.1054562549300108e+01  1.1199210033978414e+01 
 1.1345750211807664e+01  1.1494207848426692e+01  1.1644608033529432e+01  1.1796976185105132e+01 
 1.1951338053734059e+01  1.2107719726939408e+01  1.2266147633596153e+01  1.2426648548397596e+01 
 1.2589249596380364e+01  1.2753978257508530e+01  1.2920862371317918e+01  1.3089930141620963e+01 
 1.3261210141273237e+01  1.3434731317002351e+01  1.3610522994300002e+01  1.3788614882378049e+01 
 1.3969037079189455e+01  1.4151820076514904e+01  1.4336994765115982e+01  1.4524592439955802e+01 
 1.4714644805487907e+01  1.4907183981014422e+01  1.5102242506114267e+01  1.5299853346142443e+01 
 1.5500049897801246e+01  1.5702865994784425e+01  1.5908335913495037e+01  1.6116494378838404e+01 
 1.6327376570090614e+01  1.6541018126843905e+01  1.6757455155029856e+01  1.6976724233021368e+01 
 1.7198862417814507e+01  1.7423907251291219e+01  1.7651896766563976e+01  1.7882869494403508e+01 
 1.8116864469750553e+01  1.8353921238312878e+01  1.8594079863248584e+01  1.8837380931936888e+01 
 1.9083865562837477e+01  1.9333575412439632e+01  1.9586552682302273e+01  1.9842840126186147e+01 
 2.0102481057279189e+01  2.0365519355516760e+01  2.0631999474997322e+01  2.0901966451495312e+01 
 2.1175465910072308e+01  2.1452544072787763e+01  2.1733247766510647e+01  2.2017624430833308e+01 
 2.2305722126088853e+01  2.2597589541473479e+01  2.2893276003275073e+01  2.3192831483209424e+01 
 2.3496306606865623e+01  2.3803752662261864e+01  2.4115221608513263e+01  2.4430766084613062e+01 
 2.4750439418328746e+01  2.5074295635214611e+01  2.5402389467742037e+01  2.5734776364549649e+01 
 2.6071512499814130e+01  2.6412654782743797e+01  2.6758260867196430e+01  2.7108389161422863e+01 
 2.7463098837938166e+01  2.7822449843521913e+01  2.8186502909349343e+01  2.8555319561255047e+01 
 2.8928962130131030e+01  2.9307493762460734e+01  2.9690978430990963e+01  3.0079480945543434e+01 
 3.0473066963967771e+01  3.0871803003237869e+01  3.1275756450693393e+01  3.1684995575428466e+01 
 3.2099589539829083e+01  3.2519608411262062e+01  3.2945123173916357e+01  3.3376205740799627e+01 
 3.3812928965891686e+01  3.4255366656457021e+01  3.4703593585518384e+01  3.5157685504493614e+01 
 3.5617719155997797e+01  3.6083772286812959e+01  3.6555923661027457e+01  3.7034253073347308e+01 
 3.7518841362581661e+01  3.8009770425304758e+01  3.8507123229696667e+01  3.9010983829565070e+01 
 3.9521437378550580e+01  4.0038570144517990e+01  4.0562469524135416e+01  4.1093224057645024e+01 
 4.1630923443826227e+01  4.2175658555155053e+01  4.2727521453161856e+01  4.3286605403989881e+01 
 4.3853004894157479e+01  4.4426815646526585e+01  4.5008134636480072e+01  4.5597060108310842e+01 
 4.6193691591825335e+01  4.6798129919164296e+01  4.7410477241843672e+01  4.8030837048018441e+01 
 4.8659314179972370e+01  4.9296014851836581e+01  4.9941046667540043e+01  5.0594518638994927e+01 
 5.1256541204519557e+01  5.1927226247503292e+01  5.2606687115314656e+01  5.3295038638457534e+01 
 5.3992397149977648e+01  5.4698880505123235e+01  5.5414608101262822e+01  5.6139700898063644e+01 
 5.6874281437934165e+01  5.7618473866733979e+01  5.8372403954754816e+01  5.9136199117975977e+01 
 5.9909988439597946e+01  6.0693902691857787e+01  6.1488074358129900e+01  6.2292637655316106e+01 
 6.3107728556528564e+01  6.3933484814069686e+01  6.4770045982712148e+01  6.5617553443284692e+01 
 6.6476150426565241e+01  6.7345982037487559e+01  6.8227195279664173e+01  6.9119939080230367e+01 
 7.0024364315013258e+01  7.0940623834030163e+01  7.1868872487320559e+01  7.2809267151116174e+01 
 7.3761966754353423e+01  7.4727132305532791e+01  7.5704926919929591e+01  7.6695515847160905e+01 
 7.7699066499113144e+01  7.8715748478235014e+01  7.9745733606200815e+01  8.0789195952948759e+01 
 8.1846311866098716e+01  8.2917260000756201e+01  8.4002221349704882e+01  8.5101379273995093e+01 
 8.6214919533932118e+01  8.7343030320470234e+01  8.8485902287017382e+01  8.9643728581656021e+01 
 9.0816704879785718e+01  9.2005029417192631e+01  9.3208903023551926e+01  9.4428529156368413e+01 
 9.5664113935361357e+01  9.6915866177299222e+01  9.8183997431290180e+01  9.9468722014534436e+01 
 1.0077025704854435e+02  1.0208882249583860e+02  1.0342464119711575e+02  1.0477793890891584e+02 
 1.0614894434177319e+02  1.0753788919886904e+02  1.0894500821519007e+02  1.1037053919719916e+02 
 1.1181472306302510e+02  1.1327780388317858e+02  1.1476002892180043e+02  1.1626164867845004e+02 
 1.1778291693044028e+02 
  </PP_R>
  <PP_RAB>
 3.0045655221860832e-07  3.0438798635177436e-07  3.0837086277910673e-07  3.1240585461620125e-07 
 3.1649364378628197e-07  3.2063492113544845e-07  3.2483038654942861e-07  3.2908074907186344e-07 
 3.3338672702413534e-07  3.3774904812676701e-07  3.4216844962240747e-07  3.4664567840042820e-07 
 3.5118149112314886e-07  3.5577665435371520e-07  3.6043194468565058e-07  3.6514814887410032e-07 
 3.6992606396879774e-07  3.7476649744876574e-07  3.7967026735878301e-07  3.8463820244763587e-07 
 3.8967114230817863e-07  3.9476993751922640e-07  3.9993544978930562e-07  4.0516855210228464e-07 
 4.1047012886490893e-07  4.1584107605626997e-07  4.2128230137922650e-07  4.2679472441380880e-07 
 4.3237927677262976e-07  4.3803690225832976e-07  4.4376855702308166e-07  4.4957520973018255e-07 
 4.5545784171776072e-07  4.6141744716462251e-07  4.6745503325827328e-07  4.7357162036513295e-07 
 4.7976824220298069e-07  4.8604594601565529e-07  4.9240579275004310e-07  4.9884885723537900e-07 
 5.0537622836489620e-07  5.1198900927985204e-07  5.1868831755595895e-07  5.2547528539226118e-07 
 5.3235105980247679e-07  5.3931680280884588e-07  5.4637369163851592e-07  5.5352291892249511e-07 
 5.6076569289721028e-07  5.6810323760870234e-07  5.7553679311949019e-07  5.8306761571814854e-07 
 5.9069697813162073e-07  5.9842616974031296e-07  6.0625649679600353e-07  6.1418928264260172e-07 
 6.2222586793979647e-07  6.3036761088963083e-07  6.3861588746604139e-07  6.4697209164740178e-07 
 6.5543763565210626e-07  6.6401395017724091e-07  6.7270248464037305e-07  6.8150470742450632e-07 
 6.9042210612624139e-07  6.9945618780718336e-07  7.0860847924863787e-07  7.1788052720964312e-07 
 7.2727389868837106e-07  7.3679018118695948e-07  7.4643098297980061e-07  7.5619793338534332e-07 
 7.6609268304145209e-07  7.7611690418436973e-07  7.8627229093132793e-07  7.9656055956685753e-07 
 8.0698344883284520e-07  8.1754272022238413e-07  8.2824015827747238e-07  8.3907757089060029e-07 
 8.5005678961029452e-07  8.6117966995065044e-07  8.7244809170491878e-07  8.8386395926319626e-07 
 8.9542920193427086e-07  9.0714577427168125e-07  9.1901565640403741e-07  9.3104085436967210e-07 
 9.4322340045566275e-07  9.5556535354129302e-07  9.6806879944600996e-07  9.8073585128193038e-07 
 9.9356864981096395e-07  1.0065693638066051e-06  1.0197401904204619e-06  1.0330833555535801e-06 
 1.0466011142326260e-06  1.0602957509909882e-06  1.0741695802548743e-06  1.0882249467344513e-06 
 1.1024642258201068e-06  1.1168898239838977e-06  1.1315041791862472e-06  1.1463097612879699e-06 
 1.1613090724676775e-06  1.1765046476446599e-06  1.1918990549072891e-06  1.2074948959470329e-06 
 1.2232948064981460e-06  1.2393014567831179e-06  1.2555175519639429e-06  1.2719458325993032e-06 
 1.2885890751077272e-06  1.3054500922368108e-06  1.3225317335385813e-06  1.3398368858510717e-06 
 1.3573684737862126e-06  1.3751294602240918e-06  1.3931228468136898e-06  1.4113516744801664e-06 
 1.4298190239387839e-06  1.4485280162155561e-06  1.4674818131747034e-06  1.4866836180530268e-06 
 1.5061366760012516e-06  1.5258442746324718e-06  1.5458097445777617e-06  1.5660364600490619e-06 
 1.5865278394094289e-06  1.6072873457507456e-06  1.6283184874789939e-06  1.6496248189071813e-06 
 1.6712099408560323e-06  1.6930775012625279e-06  1.7152311957964247e-06  1.7376747684848277e-06 
 1.7604120123449390e-06  1.7834467700250870e-06  1.8067829344541451e-06  1.8304244494994457e-06 
 1.8543753106332973e-06  1.8786395656082391e-06  1.9032213151411121e-06  1.9281247136060948e-06 
 1.9533539697368005e-06  1.9789133473375630e-06  2.0048071660040308e-06  2.0310398018531879e-06 
 2.0576156882629302e-06  2.0845393166213131e-06  2.1118152370856113e-06  2.1394480593513003e-06 
 2.1674424534311130e-06  2.1958031504442785e-06  2.2245349434160925e-06  2.2536426880879544e-06 
 2.2831313037379888e-06  2.3130057740124282e-06  2.3432711477678533e-06  2.3739325399244630e-06 
 2.4049951323305097e-06  2.4364641746380404e-06  2.4683449851901061e-06  2.5006429519195681e-06 
 2.5333635332596774e-06  2.5665122590665577e-06  2.6000947315537672e-06  2.6341166262390868e-06 
 2.6685836929036930e-06  2.7035017565638898e-06  2.7388767184555387e-06  2.7747145570313983e-06 
 2.8110213289714855e-06  2.8478031702066739e-06  2.8850662969556720e-06  2.9228170067755928e-06 
 2.9610616796262444e-06  2.9998067789483672e-06  3.0390588527559643e-06  3.0788245347429291e-06 
 3.1191105454041664e-06  3.1599236931713614e-06  3.2012708755636281e-06  3.2431590803531983e-06 
 3.2855953867463795e-06  3.3285869665799568e-06  3.3721410855332447e-06  3.4162651043560112e-06 
 3.4609664801124541e-06  3.5062527674414707e-06  3.5521316198334053e-06  3.5986107909235112e-06 
 3.6456981358023225e-06  3.6934016123432000e-06  3.7417292825472149e-06  3.7906893139056587e-06 
 3.8402899807803621e-06  3.8905396658020763e-06  3.9414468612871718e-06  3.9930201706728506e-06 
 4.0452683099711497e-06  4.0982001092419603e-06  4.1518245140853466e-06  4.2061505871533571e-06 
 4.2611875096816416e-06  4.3169445830411029e-06  4.3734312303098425e-06  4.4306569978656926e-06 
 4.4886315569995753e-06  4.5473647055499692e-06  4.6068663695587692e-06  4.6671466049488097e-06 
 4.7282155992233476e-06  4.7900836731877657e-06  4.8527612826938169e-06  4.9162590204066815e-06 
 4.9805876175951691e-06  5.0457579459453094e-06  5.1117810193977080e-06  5.1786679960089163e-06 
 5.2464301798371809e-06  5.3150790228528509e-06  5.3846261268737833e-06  5.4550832455260911e-06 
 5.5264622862305176e-06  5.5987753122148312e-06  5.6720345445525349e-06  5.7462523642282618e-06 
 5.8214413142301791e-06  5.8976141016697933e-06  5.9747835999294817e-06  6.0529628508381222e-06 
 6.1321650668751922e-06  6.2124036334037094e-06  6.2936921109323926e-06  6.3760442374074202e-06 
 6.4594739305341735e-06  6.5439952901293572e-06  6.6296226005039150e-06  6.7163703328771011e-06 
 6.8042531478221554e-06  6.8932858977439741e-06  6.9834836293891972e-06  7.0748615863891515e-06 
 7.1674352118360631e-06  7.2612201508929663e-06  7.3562322534377729e-06  7.4524875767419552e-06 
 7.5500023881842495e-06  7.6487931679998807e-06  7.7488766120657763e-06  7.8502696347221843e-06 
 7.9529893716312602e-06  8.0570531826730271e-06  8.1624786548792338e-06  8.2692836054056020e-06 
 8.3774860845429775e-06  8.4871043787678684e-06  8.5981570138329010e-06  8.7106627578977192e-06 
 8.8246406247008386e-06  8.9401098767730319e-06  9.0570900286927272e-06  9.1756008503840238e-06 
 9.2956623704578512e-06  9.4172948795968603e-06  9.5405189339845931e-06  9.6653553587795302e-06 
 9.7918252516345846e-06  9.9199499862626500e-06  1.0049751216048839e-05  1.0181250877709916e-05 
 1.0314471195001694e-05  1.0449434682474864e-05  1.0586164149280035e-05  1.0724682703022530e-05 
 1.0865013753667618e-05  1.1007181017496865e-05  1.1151208521116219e-05  1.1297120605516597e-05 
 1.1444941930187549e-05  1.1594697477284776e-05  1.1746412555852157e-05  1.1900112806099082e-05 
 1.2055824203733651e-05  1.2213573064352682e-05  1.2373386047889079e-05  1.2535290163117420e-05 
 1.2699312772218530e-05  1.2865481595403738e-05  1.3033824715599669e-05  1.3204370583194290e-05 
 1.3377148020845153e-05  1.3552186228350444e-05  1.3729514787583839e-05  1.3909163667493917e-05 
 1.4091163229168950e-05  1.4275544230968044e-05  1.4462337833719351e-05  1.4651575605986321e-05 
 1.4843289529402865e-05  1.5037512004078346e-05  1.5234275854073249e-05  1.5433614332946536e-05 
 1.5635561129375599e-05  1.5840150372849664e-05  1.6047416639437832e-05  1.6257394957632467e-05 
 1.6470120814269118e-05  1.6685630160523860e-05  1.6903959417989161e-05  1.7125145484829143e-05 
 1.7349225742015564e-05  1.7576238059645221e-05  1.7806220803340108e-05  1.8039212840731288e-05 
 1.8275253548027619e-05  1.8514382816670439e-05  1.8756641060075305e-05  1.9002069220461952e-05 
 1.9250708775773607e-05  1.9502601746686917e-05  1.9757790703713494e-05  2.0016318774394454e-05 
 2.0278229650589064e-05  2.0543567595858768e-05  2.0812377452947851e-05  2.1084704651361952e-05 
 2.1360595215045792e-05  2.1640095770161244e-05  2.1923253552967362e-05  2.2210116417803406e-05 
 2.2500732845176282e-05  2.2795151949953912e-05  2.3093423489665750e-05  2.3395597872911927e-05 
 2.3701726167882409e-05  2.4011860110987689e-05  2.4326052115602250e-05  2.4644355280922710e-05 
 2.4966823400941595e-05  2.5293510973538688e-05  2.5624473209691315e-05  2.5959766042805110e-05 
 2.6299446138166890e-05  2.6643570902521247e-05  2.6992198493772429e-05  2.7345387830813081e-05 
 2.7703198603481807e-05  2.8065691282650812e-05  2.8432927130445650e-05  2.8804968210598651e-05 
 2.9181877398937847e-05  2.9563718394013156e-05  2.9950555727861566e-05  3.0342454776913233e-05 
 3.0739481773040148e-05  3.1141703814749637e-05  3.1549188878524108e-05  3.1962005830309153e-05 
 3.2380224437152191e-05  3.2803915378993177e-05  3.3233150260609705e-05  3.3668001623718389e-05 
 3.4108542959234606e-05  3.4554848719692543e-05  3.5006994331827985e-05  3.5465056209325545e-05 
 3.5929111765732738e-05  3.6399239427543108e-05  3.6875518647450442e-05  3.7358029917776498e-05 
 3.7846854784074377e-05  3.8342075858909981e-05  3.8843776835823554e-05  3.9352042503474331e-05 
 3.9866958759969861e-05  4.0388612627383041e-05  4.0917092266459062e-05  4.1452486991514750e-05 
 4.1994887285532934e-05  4.2544384815454260e-05  4.3101072447669194e-05  4.3665044263712456e-05 
 4.4236395576163332e-05  4.4815222944753476e-05  4.5401624192685835e-05  4.5995698423167034e-05 
 4.6597546036155955e-05  4.7207268745331643e-05  4.7824969595283174e-05  4.8450752978924396e-05 
 4.9084724655136495e-05  4.9726991766641710e-05  5.0377662858110532e-05  5.1036847894506089e-05 
 5.1704658279668451e-05  5.2381206875142158e-05  5.3066608019250124e-05  5.3760977546416983e-05 
 5.4464432806745567e-05  5.5177092685849071e-05  5.5899077624943299e-05  5.6630509641201357e-05 
 5.7371512348374864e-05  5.8122210977684999e-05  5.8882732398986845e-05  5.9653205142210713e-05 
 6.0433759419084010e-05  6.1224527145137392e-05  6.2025641961998551e-05  6.2837239259978307e-05 
 6.3659456200951711e-05  6.4492431741538738e-05  6.5336306656588319e-05  6.6191223562969573e-05 
 6.7057326943674504e-05  6.7934763172235833e-05  6.8823680537464640e-05  6.9724229268511252e-05 
 7.0636561560254629e-05  7.1560831599023543e-05  7.2497195588654397e-05  7.3445811776890079e-05 
 7.4406840482124184e-05  7.5380444120495249e-05  7.6366787233335425e-05  7.7366036514978450e-05 
 7.8378360840931097e-05  7.9403931296413913e-05  8.0442921205274904e-05  8.1495506159281485e-05 
 8.2561864047796200e-05  8.3642175087840192e-05  8.4736621854550489e-05  8.5845389312035601e-05 
 8.6968664844634829e-05  8.8106638288586563e-05  8.9259501964111397e-05  9.0427450707914411e-05 
 9.1610681906113145e-05  9.2809395527596283e-05  9.4023794157818951e-05  9.5254083033039991e-05 
 9.6500470075007566e-05  9.7763165926098361e-05  9.9042383984916351e-05  1.0033834044235826e-04 
 1.0165125431814988e-04  1.0298134749786110e-04  1.0432884477040500e-04  1.0569397386602785e-04 
 1.0707696549479595e-04  1.0847805338558619e-04  1.0989747432558699e-04  1.1133546820031533e-04 
 1.1279227803415868e-04  1.1426815003144637e-04  1.1576333361805860e-04  1.1727808148358022e-04 
 1.1881264962400573e-04  1.2036729738500332e-04  1.2194228750574478e-04  1.2353788616330927e-04 
 1.2515436301766737e-04  1.2679199125725492e-04  1.2845104764514219e-04  1.3013181256580738e-04 
 1.3183457007252250e-04  1.3355960793535890e-04  1.3530721768982118e-04  1.3707769468611732e-04 
 1.3887133813907367e-04  1.4068845117870264e-04  1.4252934090143294e-04  1.4439431842200919e-04 
 1.4628369892607124e-04  1.4819780172342108e-04  1.5013695030198734e-04  1.5210147238249510e-04 
 1.5409169997385172e-04  1.5610796942925719e-04  1.5815062150304816e-04  1.6022000140828688e-04 
 1.6231645887510276e-04  1.6444034820979739e-04  1.6659202835472337e-04  1.6877186294894647e-04 
 1.7098022038970135e-04  1.7321747389465150e-04  1.7548400156496433e-04  1.7778018644921045e-04 
 1.8010641660810048e-04  1.8246308518006800e-04  1.8485059044771068e-04  1.8726933590510137e-04 
 1.8971973032597914e-04  1.9220218783283334e-04  1.9471712796689108e-04  1.9726497575902097e-04 
 1.9984616180156374e-04  2.0246112232110414e-04  2.0511029925219387e-04  2.0779414031203957e-04 
 2.1051309907616815e-04  2.1326763505508215e-04  2.1605821377191809e-04  2.1888530684112091e-04 
 2.2174939204814829e-04  2.2465095343021660e-04  2.2759048135810562e-04  2.3056847261903148e-04 
 2.3358543050060526e-04  2.3664186487588957e-04  2.3973829228956850e-04  2.4287523604524466e-04 
 2.4605322629387896e-04  2.4927280012338772e-04  2.5253450164941038e-04  2.5583888210726845e-04 
 2.5918649994512383e-04  2.6257792091835894e-04  2.6601371818519009e-04  2.6949447240353296e-04 
 2.7302077182913490e-04  2.7659321241499185e-04  2.8021239791206577e-04  2.8387893997131915e-04 
 2.8759345824708703e-04  2.9135658050179897e-04  2.9516894271207253e-04  2.9903118917619511e-04 
 3.0294397262301161e-04  3.0690795432223732e-04  3.1092380419621413e-04  3.1499220093312907e-04 
 3.1911383210171343e-04  3.2328939426744469e-04  3.2751959311026725e-04  3.3180514354385374e-04 
 3.3614676983642746e-04  3.4054520573316541e-04  3.4500119458020270e-04  3.4951548945026033e-04 
 3.5408885326991611e-04  3.5872205894853986e-04  3.6341588950891907e-04  3.6817113821959032e-04 
 3.7298860872890359e-04  3.7786911520084097e-04  3.8281348245261244e-04  3.8782254609405140e-04 
 3.9289715266883554e-04  3.9803815979755428e-04  4.0324643632264778e-04  4.0852286245524527e-04 
 4.1386832992392164e-04  4.1928374212540188e-04  4.2477001427723715e-04  4.3032807357247900e-04 
 4.3595885933637703e-04  4.4166332318512717e-04  4.4744242918669746e-04  4.5329715402375606e-04 
 4.5922848715873599e-04  4.6523743100105377e-04  4.7132500107652090e-04  4.7749222619896899e-04 
 4.8374014864412243e-04  4.9006982432574513e-04  4.9648232297409237e-04  5.0297872831669879e-04 
 5.0956013826152814e-04  5.1622766508252623e-04  5.2298243560759509e-04  5.2982559140903030e-04 
 5.3675828899644984e-04  5.4378170001224654e-04  5.5089701142959822e-04  5.5810542575306966e-04 
 5.6540816122183893e-04  5.7280645201558016e-04  5.8030154846304687e-04  5.8789471725337761e-04 
 5.9558724165017054e-04  6.0338042170835751e-04  6.1127557449391706e-04  6.1927403430646105e-04 
 6.2737715290473492e-04  6.3558629973506852e-04  6.4390286216281392e-04  6.5232824570681566e-04 
 6.6086387427694634e-04  6.6951119041474964e-04  6.7827165553723445e-04  6.8714675018385733e-04 
 6.9613797426673694e-04  7.0524684732414333e-04  7.1447490877730394e-04  7.2382371819056655e-04 
 7.3329485553497403e-04  7.4288992145527953e-04  7.5261053754046073e-04  7.6245834659777222e-04 
 7.7243501293038335e-04  7.8254222261864997e-04  7.9278168380506509e-04  8.0315512698294115e-04 
 8.1366430528886360e-04  8.2431099479897949e-04  8.3509699482915657e-04  8.4602412823907107e-04 
 8.5709424174027751e-04  8.6830920620830504e-04  8.7967091699884192e-04  8.9118129426805340e-04 
 9.0284228329709385e-04  9.1465585482086340e-04  9.2662400536106719e-04  9.3874875756363172e-04 
 9.5103216054053907e-04  9.6347629021612468e-04  9.7608324967792350e-04  9.8885516953209048e-04 
 1.0017942082634792e-03  1.0149025526004320e-03  1.0281824178843403e-03  1.0416360484440446e-03 
 1.0552657179751306e-03  1.0690737299241890e-03  1.0830624178781031e-03  1.0972341459584323e-03 
 1.1115913092209519e-03  1.1261363340604243e-03  1.1408716786206667e-03  1.1557998332099807e-03 
 1.1709233207220229e-03  1.1862446970621777e-03  1.2017665515795153e-03  1.2174915075043884e-03 
 1.2334222223917772e-03  1.2495613885704145e-03  1.2659117335977973e-03  1.2824760207211505e-03 
 1.2992570493444225e-03  1.3162576555013909e-03  1.3334807123349599e-03  1.3509291305827268e-03 
 1.3686058590689039e-03  1.3865138852026779e-03  1.4046562354830885e-03  1.4230359760105133e-03 
 1.4416562130048474e-03  1.4605200933304606e-03  1.4796308050280256e-03  1.4989915778533048e-03 
 1.5186056838229886e-03  1.5384764377676648e-03  1.5586071978920461e-03  1.5790013663425071e-03 
 1.5996623897820564e-03  1.6205937599728297e-03  1.6417990143662083e-03  1.6632817367006555e-03 
 1.6850455576073761e-03  1.7070941552239042e-03  1.7294312558157143e-03  1.7520606344059711e-03 
 1.7749861154135161e-03  1.7982115732992046e-03  1.8217409332206983e-03  1.8455781716958260e-03 
 1.8697273172746244e-03  1.8941924512201748e-03  1.9189777081983458e-03  1.9440872769765517e-03 
 1.9695254011316819e-03  1.9952963797672651e-03  2.0214045682400267e-03  2.0478543788959597e-03 
 2.0746502818160175e-03  2.1017968055715703e-03  2.1292985379897447e-03  2.1571601269287761e-03 
 2.1853862810635081e-03  2.2139817706811698e-03  2.2429514284875687e-03  2.2723001504238228e-03 
 2.3020328964937927e-03  2.3321546916023304e-03  2.3626706264045037e-03  2.3935858581659235e-03 
 2.4249056116343441e-03  2.4566351799226358e-03  2.4887799254033642e-03  2.5213452806150225e-03 
 2.5543367491801510e-03  2.5877599067354591e-03  2.6216204018741241e-03  2.6559239571004164e-03 
 2.6906763697968146e-03  2.7258835132037786e-03  2.7615513374123404e-03  2.7976858703696837e-03 
 2.8342932188978832e-03  2.8713795697259685e-03  2.9089511905354987e-03  2.9470144310198140e-03 
 2.9855757239571515e-03  3.0246415862977966e-03  3.0642186202654710e-03  3.1043135144731017e-03 
 3.1449330450532454e-03  3.1860840768032474e-03  3.2277735643454174e-03  3.2700085533023753e-03 
 3.3127961814877777e-03  3.3561436801126275e-03  3.4000583750073629e-03  3.4445476878599418e-03 
 3.4896191374701267e-03  3.5352803410201744e-03  3.5815390153621637e-03  3.6284029783221587e-03 
 3.6758801500214400e-03  3.7239785542150256e-03  3.7727063196477026e-03  3.8220716814278072e-03 
 3.8720829824189784e-03  3.9227486746501051e-03  3.9740773207437678e-03  4.0260775953633258e-03 
 4.0787582866789540e-03  4.1321282978528696e-03  4.1861966485439881e-03  4.2409724764322634e-03 
 4.2964650387629817e-03  4.3526837139112508e-03  4.4096380029669813e-03  4.4673375313405775e-03 
 4.5257920503896654e-03  4.5850114390670934e-03  4.6450057055904929e-03  4.7057849891337013e-03 
 4.7673595615402966e-03  4.8297398290595680e-03  4.8929363341052084e-03  4.9569597570369647e-03 
 5.0218209179657058e-03  5.0875307785820008e-03  5.1541004440086927e-03  5.2215411646776783e-03 
 5.2898643382312703e-03  5.3590815114484096e-03  5.4292043821961167e-03  5.5002448014064478e-03 
 5.5722147750793295e-03  5.6451264663116112e-03  5.7189921973526464e-03  5.7938244516867890e-03 
 5.8696358761431292e-03  5.9464392830328389e-03  6.0242476523144819e-03  6.1030741337876580e-03 
 6.1829320493153612e-03  6.2638348950753656e-03  6.3457963438411698e-03  6.4288302472926924e-03 
 6.5129506383572464e-03  6.5981717335811350e-03  6.6845079355322854e-03  6.7719738352343163e-03 
 6.8605842146324545e-03  6.9503540490917191e-03  7.0412985099277976e-03  7.1334329669710227e-03 
 7.2267729911639289e-03  7.3213343571927585e-03  7.4171330461534389e-03  7.5141852482524130e-03 
 7.6125073655428305e-03  7.7121160146965285e-03  7.8130280298123050e-03  7.9152604652608684e-03 
 8.0188305985671483e-03  8.1237559333301786e-03  8.2300542021812653e-03  8.3377433697808465e-03 
 8.4468416358545548e-03  8.5573674382690250e-03  8.6693394561479249e-03  8.7827766130287796e-03 
 8.8976980800610922e-03  9.0141232792463211e-03  9.1320718867202253e-03  9.2515638360782006e-03 
 9.3726193217440919e-03  9.4952588023830952e-03  9.6195030043593373e-03  9.7453729252386639e-03 
 9.8728898373373047e-03  1.0002075291316871e-02  1.0132951119826575e-02  1.0265539441192933e-02 
 1.0399862663157832e-02  1.0535943486665483e-02  1.0673804909698943e-02  1.0813470231166834e-02 
 1.0954963054840897e-02  1.1098307293345096e-02  1.1243527172196921e-02  1.1390647233901525e-02 
 1.1539692342099504e-02  1.1690687685768879e-02  1.1843658783482116e-02  1.1998631487718819e-02 
 1.2155631989234847e-02  1.2314686821488638e-02  1.2475822865125427e-02  1.2639067352520066e-02 
 1.2804447872379486e-02  1.2971992374405160e-02  1.3141729174016705e-02  1.3313686957137250e-02 
 1.3487894785041409e-02  1.3664382099266733e-02  1.3843178726589390e-02  1.4024314884064944e-02 
 1.4207821184135130e-02  1.4393728639801422e-02  1.4582068669866307e-02  1.4772873104243136e-02 
 1.4966174189335447e-02  1.5162004593486701e-02  1.5360397412501290e-02  1.5561386175237821e-02 
 1.5765004849275604e-02  1.5971287846655122e-02  1.6180270029693935e-02  1.6391986716878370e-02 
 1.6606473688832477e-02  1.6823767194365010e-02  1.7043903956595583e-02  1.7266921179160961e-02 
 1.7492856552502562e-02  1.7721748260236224e-02  1.7953634985605340e-02  1.8188555918018413e-02 
 1.8426550759672155e-02  1.8667659732261255e-02  1.8911923583775941e-02  1.9159383595388494e-02 
 1.9410081588429856e-02  1.9664059931457530e-02  1.9921361547416028e-02  2.0182029920890764e-02 
 2.0446109105457317e-02  2.0713643731126410e-02  2.0984679011886540e-02  2.1259260753345246e-02 
 2.1537435360470362e-02  2.1819249845432577e-02  2.2104751835550596e-02  2.2393989581340274e-02 
 2.2687011964669053e-02  2.2983868507017152e-02  2.3284609377846762e-02  2.3589285403080855e-02 
 2.3897948073692846e-02  2.4210649554408721e-02  2.4527442692522983e-02  2.4848381026829965e-02 
 2.5173518796672071e-02  2.5502910951106190e-02  2.5836613158190434e-02  2.6174681814392052e-02 
 2.6517174054118582e-02  2.6864147759373690e-02  2.7215661569539407e-02  2.7571774891286281e-02 
 2.7932547908613277e-02  2.8298041593018994e-02  2.8668317713806006e-02  2.9043438848520023e-02 
 2.9423468393525630e-02  2.9808470574720448e-02  3.0198510458389439e-02  3.0593653962201275e-02 
 3.0993967866348573e-02  3.1399519824833931e-02  3.1810378376903634e-02  3.2226612958630753e-02 
 3.2648293914650343e-02  3.3075492510047599e-02  3.3508280942401936e-02  3.3946732353988478e-02 
 3.4390920844139361e-02  3.4840921481766610e-02  3.5296810318049050e-02  3.5758664399285059e-02 
 3.6226561779913631e-02  3.6700581535705733e-02  3.7180803777128298e-02  3.7667309662883112e-02 
 3.8160181413622790e-02  3.8659502325846300e-02  3.9165356785976220e-02  3.9677830284620318e-02 
 4.0197009431019656e-02  4.0722981967685548e-02  4.1255836785228615e-02  4.1795663937381260e-02 
 4.2342554656217044e-02  4.2896601367569120e-02  4.3457897706650359e-02  4.4026538533878029e-02 
 4.4602619950905344e-02  4.5186239316862914e-02  4.5777495264812652e-02  4.6376487718417014e-02 
 4.6983317908826316e-02  4.7598088391787044e-02  4.8220903064974042e-02  4.8851867185549444e-02 
 4.9491087387951369e-02  5.0138671701915438e-02  5.0794729570732104e-02  5.1459371869742497e-02 
 5.2132710925077173e-02  5.2814860532639063e-02  5.3505935977335460e-02  5.4206054052561341e-02 
 5.4915333079937755e-02  5.5633892929308461e-02  5.6361855038998286e-02  5.7099342436336367e-02 
 5.7846479758448144e-02  5.8603393273319308e-02  5.9370210901135423e-02  6.0147062235900668e-02 
 6.0934078567339615e-02  6.1731392903085436e-02  6.2539139991158565e-02  6.3357456342739399e-02 
 6.4186480255239153e-02  6.5026351835671972e-02  6.5877213024334011e-02  6.6739207618791305e-02 
 6.7612481298181940e-02  6.8497181647836219e-02  6.9393458184218909e-02  7.0301462380197868e-02 
 7.1221347690643366e-02  7.2153269578362281e-02  7.3097385540371693e-02  7.4053855134516289e-02 
 7.5022840006433944e-02  7.6004503916874300e-02  7.6999012769374695e-02  7.8006534638298208e-02 
 7.9027239797238691e-02  8.0061300747797381e-02  8.1108892248736228e-02  8.2170191345511984e-02 
 8.3245377400198148e-02  8.4334632121796982e-02  8.5438139596949000e-02  8.6556086321043918e-02 
 8.7688661229738965e-02  8.8836055730889332e-02  8.9998463736896628e-02  9.1176081697480510e-02 
 9.2369108632879157e-02  9.3577746167484155e-02  9.4802198563915585e-02  9.6042672757542705e-02 
 9.7299378391456692e-02  9.8572527851900779e-02  9.9862336304163968e-02  1.0116902172894461e-01 
 1.0249280495918967e-01  1.0383390971741543e-01  1.0519256265351822e-01  1.0656899338307790e-01 
 1.0796343452616385e-01  1.0937612174664813e-01  1.1080729379203334e-01  1.1225719253380151e-01 
 1.1372606300829086e-01  1.1521415345810761e-01  1.1672171537407963e-01  1.1824900353775884e-01 
 1.1979627606448004e-01  1.2136379444698281e-01  1.2295182359960470e-01  1.2456063190305218e-01 
 1.2619049124975759e-01  1.2784167708982982e-01  1.2951446847760603e-01  1.3120914811881168e-01 
 1.3292600241833985e-01  1.3466532152865351e-01  1.3642739939882198e-01  1.3821253382419926e-01 
 1.4002102649675202e-01  1.4185318305604636e-01  1.4370931314090141e-01  1.4558973044171938e-01 
 1.4749475275349963e-01  1.4942470202954700e-01  1.5137990443588259e-01  1.5336069040636671e-01 
 1.5536739469854274e-01  1.5740035645021230e-01  1.5945991923674999e-01  1.6154643112916875e-01 
 1.6366024475294472e-01  1.6580171734761087e-01  1.6797121082713293e-01  1.7016909184107251e-01 
 1.7239573183655207e-01  1.7465150712103056e-01  1.7693679892590003e-01  1.7925199347091464e-01 
 1.8159748202946291e-01  1.8397366099469373e-01  1.8638093194650776e-01  1.8881970171942541e-01 
 1.9129038247134278e-01  1.9379339175318747e-01  1.9632915257948547e-01  1.9889809349985174e-01 
 2.0150064867141618e-01  2.0413725793219750e-01  2.0680836687543547e-01  2.0951442692489924e-01 
 2.1225589541117798e-01  2.1503323564897076e-01  2.1784691701538811e-01  2.2069741502927778e-01 
 2.2358521143158858e-01  2.2651079426678583e-01  2.2947465796533167e-01  2.3247730342724560e-01 
 2.3551923810675718e-01  2.3860097609806741e-01  2.4172303822223160e-01  2.4488595211517952e-01 
 2.4809025231688719e-01  2.5133648036171519e-01  2.5462518486992952e-01  2.5795692164041989e-01 
 2.6133225374462943e-01  2.6475175162171788e-01  2.6821599317496519e-01  2.7172556386943902e-01 
 2.7528105683094001e-01  2.7888307294624093e-01  2.8253222096463843e-01  2.8622911760083297e-01 
 2.8997438763915506e-01  2.9376866403915519e-01  2.9761258804257595e-01  3.0150680928172252e-01 
 3.0545198588925310e-01  3.0944878460940423e-01  3.1349788091067238e-01  3.1759995909996980e-01 
 3.2175571243827367e-01  3.2596584325778993e-01  3.3023106308064648e-01  3.3455209273914543e-01 
 3.3892966249758366e-01  3.4336451217566932e-01  3.4785739127355358e-01  3.5240905909849723e-01 
 3.5702028489319615e-01  3.6169184796578485e-01  3.6642453782154144e-01  3.7121915429631558e-01 
 3.7607650769170337e-01  3.8099741891198952e-01  3.8598271960288250e-01  3.9103325229206465e-01 
 3.9614987053158102e-01  4.0133343904209229e-01  4.0658483385901412e-01  4.1190494248057002e-01 
 4.1729466401777804e-01  4.2275490934640680e-01  4.2828660126091261e-01  4.3389067463039510e-01 
 4.3956807655659191e-01  4.4531976653394123e-01  4.5114671661173894e-01  4.5704991155841695e-01 
 4.6303034902797136e-01  4.6908903972856847e-01  4.7522700759335690e-01  4.8144528995351499e-01 
 4.8774493771356159e-01  4.9412701552896182e-01  5.0059260198605660e-01  5.0714278978434590e-01 
 5.1377868592115750e-01  5.2050141187873389e-01  5.2731210381376037e-01  5.3421191274938529e-01 
 5.4120200476974090e-01  5.4828356121701571e-01  5.5545777889110415e-01  5.6272587025186838e-01 
 5.7008906362404721e-01  5.7754860340484560e-01  5.8510575027424094e-01  5.9276178140804092e-01 
 6.0051799069372935e-01  6.0837568894913585e-01  6.1633620414396773e-01  6.2440088162423968e-01 
 6.3257108433964082e-01  6.4084819307387553e-01  6.4923360667802055e-01  6.5772874230693401e-01 
 6.6633503565875418e-01  6.7505394121754281e-01  6.8388693249909049e-01  6.9283550229994795e-01 
 7.0190116294970939e-01  7.1108544656660200e-01  7.2038990531641667e-01  7.2981611167482729e-01 
 7.3936565869314408e-01  7.4904016026754172e-01  7.5884125141181258e-01  7.6877058853368763e-01 
 7.7882984971477331e-01  7.8902073499415115e-01  7.9934496665568866e-01  8.0980428951910932e-01 
 8.2040047123487125e-01  8.3113530258290591e-01  8.4201059777525789e-01  8.5302819476270098e-01 
 8.6418995554534805e-01  8.7549776648733824e-01  8.8695353863563420e-01  8.9855920804299472e-01 
 9.1031673609517227e-01  9.2222810984239212e-01  9.3429534233516720e-01  9.4652047296451025e-01 
 9.5890556780659442e-01  9.7145271997192628e-01  9.8416404995908469e-01  9.9704170601309172e-01 
 1.0100878644884708e+00  1.0233047302170550e+00  1.0366945368806106e+00  1.0502595473883338e+00 
 1.0640020542592832e+00  1.0779243800098306e+00  1.0920288775461635e+00  1.1063179305619362e+00 
 1.1207939539411176e+00  1.1354593941661131e+00  1.1503167297312260e+00  1.1653684715615282e+00 
 1.1806171634372142e+00  1.1960653824235041e+00  1.2117157393061750e+00  1.2275708790327893e+00 
 1.2436334811596976e+00  1.2599062603048898e+00  1.2763919666067722e+00  1.2930933861889475e+00 
 1.3100133416310764e+00  1.3271546924459017e+00  1.3445203355625046e+00  1.3621132058159060e+00 
 1.3799362764430514e+00  1.3979925595852973e+00  1.4162851067974709e+00  1.4348170095635890e+00 
 1.4535913998193262e+00  1.4726114504813215e+00  1.4918803759834054e+00  1.5114014328198504e+00 
 1.5311779200957236e+00 
  </PP_RAB>
</PP_MESH>


<PP_LOCAL>
1.4447542710106245e+02 1.4447542708245965e+02 1.4447542706367128e+02 1.4447542704389423e+02 
1.4447542702431269e+02 1.4447542700391207e+02 1.4447542698260239e+02 1.4447542696175685e+02 
1.4447542693908230e+02 1.4447542691639907e+02 1.4447542689328066e+02 1.4447542686940628e+02 
1.4447542684488315e+02 1.4447542681976685e+02 1.4447542679415309e+02 1.4447542676753906e+02 
1.4447542674003608e+02 1.4447542671232659e+02 1.4447542668376366e+02 1.4447542665431700e+02 
1.4447542662412084e+02 1.4447542659318566e+02 1.4447542656127831e+02 1.4447542652865982e+02 
1.4447542649536663e+02 1.4447542646095977e+02 1.4447542642559691e+02 1.4447542638951006e+02 
1.4447542635232944e+02 1.4447542631397175e+02 1.4447542627509847e+02 1.4447542623473015e+02 
1.4447542619360513e+02 1.4447542615117661e+02 1.4447542610789520e+02 1.4447542606315730e+02 
1.4447542601721588e+02 1.4447542597063654e+02 1.4447542592228169e+02 1.4447542587282544e+02 
1.4447542582199213e+02 1.4447542576983111e+02 1.4447542571652704e+02 1.4447542566159109e+02 
1.4447542560528470e+02 1.4447542554729733e+02 1.4447542548801005e+02 1.4447542542729352e+02 
1.4447542536469933e+02 1.4447542530061375e+02 1.4447542523477486e+02 1.4447542516715222e+02 
1.4447542509756283e+02 1.4447542502661611e+02 1.4447542495362310e+02 1.4447542487852334e+02 
1.4447542480170281e+02 1.4447542472263441e+02 1.4447542464151590e+02 1.4447542455851604e+02 
1.4447542447311099e+02 1.4447542438519076e+02 1.4447542429532484e+02 1.4447542420305459e+02 
1.4447542410822396e+02 1.4447542401100219e+02 1.4447542391138191e+02 1.4447542380872832e+02 
1.4447542370381223e+02 1.4447542359571673e+02 1.4447542348511161e+02 1.4447542337124878e+02 
1.4447542325483070e+02 1.4447542313493864e+02 1.4447542301208054e+02 1.4447542288592948e+02 
1.4447542275659654e+02 1.4447542262360710e+02 1.4447542248737156e+02 1.4447542234733248e+02 
1.4447542220372870e+02 1.4447542205623537e+02 1.4447542190496452e+02 1.4447542174976189e+02 
1.4447542159034688e+02 1.4447542142672361e+02 1.4447542125885266e+02 1.4447542108655833e+02 
1.4447542090966826e+02 1.4447542072818734e+02 1.4447542054185101e+02 1.4447542035064012e+02 
1.4447542015441738e+02 1.4447541995306992e+02 1.4447541974640131e+02 1.4447541953426136e+02 
1.4447541931638031e+02 1.4447541909290615e+02 1.4447541886371027e+02 1.4447541862828240e+02 
1.4447541838660294e+02 1.4447541813860190e+02 1.4447541788414600e+02 1.4447541762287713e+02 
1.4447541735480920e+02 1.4447541707966835e+02 1.4447541679727547e+02 1.4447541650744296e+02 
1.4447541620989526e+02 1.4447541590453181e+02 1.4447541559127629e+02 1.4447541526971617e+02 
1.4447541493956942e+02 1.4447541460078986e+02 1.4447541425301125e+02 1.4447541389626659e+02 
1.4447541352989117e+02 1.4447541315408790e+02 1.4447541276823478e+02 1.4447541237218999e+02 
1.4447541196583182e+02 1.4447541154872098e+02 1.4447541112065107e+02 1.4447541068122189e+02 
1.4447541023025707e+02 1.4447540976737241e+02 1.4447540929234069e+02 1.4447540880478542e+02 
1.4447540830438311e+02 1.4447540779080148e+02 1.4447540726363883e+02 1.4447540672266194e+02 
1.4447540616739380e+02 1.4447540559759736e+02 1.4447540501265473e+02 1.4447540441240230e+02 
1.4447540379621324e+02 1.4447540316386542e+02 1.4447540251488473e+02 1.4447540184878591e+02 
1.4447540116510243e+02 1.4447540046343764e+02 1.4447539974330905e+02 1.4447539900415677e+02 
1.4447539824561224e+02 1.4447539746699496e+02 1.4447539666791843e+02 1.4447539584778772e+02 
1.4447539500605211e+02 1.4447539414210101e+02 1.4447539325537758e+02 1.4447539234535867e+02 
1.4447539141130440e+02 1.4447539045265529e+02 1.4447538946875096e+02 1.4447538845892620e+02 
1.4447538742256862e+02 1.4447538635883558e+02 1.4447538526710284e+02 1.4447538414654090e+02 
1.4447538299648767e+02 1.4447538181619794e+02 1.4447538060471729e+02 1.4447537936140165e+02 
1.4447537808529270e+02 1.4447537677555354e+02 1.4447537543132762e+02 1.4447537405164519e+02 
1.4447537263567051e+02 1.4447537118235306e+02 1.4447536969076413e+02 1.4447536815981468e+02 
1.4447536658857055e+02 1.4447536497593305e+02 1.4447536332084437e+02 1.4447536162210417e+02 
1.4447535987862847e+02 1.4447535808914120e+02 1.4447535625255489e+02 1.4447535436764161e+02 
1.4447535243296485e+02 1.4447535044738831e+02 1.4447534840945022e+02 1.4447534631783250e+02 
1.4447534417109870e+02 1.4447534196780910e+02 1.4447533970645034e+02 1.4447533738550825e+02 
1.4447533500339483e+02 1.4447533255855129e+02 1.4447533004930764e+02 1.4447532747390096e+02 
1.4447532483065220e+02 1.4447532211773159e+02 1.4447531933337746e+02 1.4447531647559666e+02 
1.4447531354254099e+02 1.4447531053220683e+02 1.4447530744252353e+02 1.4447530427146231e+02 
1.4447530101681753e+02 1.4447529767642615e+02 1.4447529424802551e+02 1.4447529072925892e+02 
1.4447528711776701e+02 1.4447528341114162e+02 1.4447527960680782e+02 1.4447527570226057e+02 
1.4447527169479105e+02 1.4447526758172347e+02 1.4447526336026968e+02 1.4447525902758832e+02 
1.4447525458071249e+02 1.4447525001668640e+02 1.4447524533235330e+02 1.4447524052459693e+02 
1.4447523559012237e+02 1.4447523052561954e+02 1.4447522532766052e+02 1.4447521999272885e+02 
1.4447521451717358e+02 1.4447520889735387e+02 1.4447520312942794e+02 1.4447519720949114e+02 
1.4447519113353459e+02 1.4447518489745258e+02 1.4447517849703033e+02 1.4447517192794746e+02 
1.4447516518568344e+02 1.4447515826579320e+02 1.4447515116347992e+02 1.4447514387404411e+02 
1.4447513639245955e+02 1.4447512871368448e+02 1.4447512083256450e+02 1.4447511274372124e+02 
1.4447510444166352e+02 1.4447509592080559e+02 1.4447508717540595e+02 1.4447507819948777e+02 
1.4447506898696622e+02 1.4447505953165862e+02 1.4447504982712388e+02 1.4447503986682221e+02 
1.4447502964396284e+02 1.4447501915167041e+02 1.4447500838284279e+02 1.4447499733014146e+02 
1.4447498598610647e+02 1.4447497434307624e+02 1.4447496239315953e+02 1.4447495012821523e+02 
1.4447493753999260e+02 1.4447492461996620e+02 1.4447491135935027e+02 1.4447489774921283e+02 
1.4447488378028385e+02 1.4447486944312627e+02 1.4447485472802421e+02 1.4447483962504302e+02 
1.4447482412391602e+02 1.4447480821414356e+02 1.4447479188497320e+02 1.4447477512533035e+02 
1.4447475792384816e+02 1.4447474026889850e+02 1.4447472214853227e+02 1.4447470355043987e+02 
1.4447468446203339e+02 1.4447466487038329e+02 1.4447464476221700e+02 1.4447462412390638e+02 
1.4447460294148053e+02 1.4447458120058985e+02 1.4447455888648594e+02 1.4447453598404999e+02 
1.4447451247776991e+02 1.4447448835173216e+02 1.4447446358956532e+02 1.4447443817447405e+02 
1.4447441208927373e+02 1.4447438531628134e+02 1.4447435783732294e+02 1.4447432963379259e+02 
1.4447430068656715e+02 1.4447427097604864e+02 1.4447424048206440e+02 1.4447420918397654e+02 
1.4447417706054179e+02 1.4447414409000439e+02 1.4447411025000775e+02 1.4447407551758707e+02 
1.4447403986922677e+02 1.4447400328073761e+02 1.4447396572733999e+02 1.4447392718352978e+02 
1.4447388762320287e+02 1.4447384701951594e+02 1.4447380534495326e+02 1.4447376257123048e+02 
1.4447371866935464e+02 1.4447367360954630e+02 1.4447362736124040e+02 1.4447357989308665e+02 
1.4447353117286355e+02 1.4447348116754131e+02 1.4447342984319286e+02 1.4447337716499368e+02 
1.4447332309721921e+02 1.4447326760317799e+02 1.4447321064521668e+02 1.4447315218470459e+02 
1.4447309218196460e+02 1.4447303059627197e+02 1.4447296738585311e+02 1.4447290250779454e+02 
1.4447283591807928e+02 1.4447276757149737e+02 1.4447269742168763e+02 1.4447262542100816e+02 
1.4447255152058591e+02 1.4447247567026469e+02 1.4447239781856462e+02 1.4447231791259631e+02 
1.4447223589813839e+02 1.4447215171949563e+02 1.4447206531949567e+02 1.4447197663949225e+02 
1.4447188561924412e+02 1.4447179219694144e+02 1.4447169630913075e+02 1.4447159789068928e+02 
1.4447149687476795e+02 1.4447139319273691e+02 1.4447128677416106e+02 1.4447117754675213e+02 
1.4447106543629096e+02 1.4447095036660312e+02 1.4447083225949376e+02 1.4447071103470634e+02 
1.4447058660985945e+02 1.4447045890037700e+02 1.4447032781946669e+02 1.4447019327801516e+02 
1.4447005518457860e+02 1.4446991344526830e+02 1.4446976796371456e+02 1.4446961864100206e+02 
1.4446946537559012e+02 1.4446930806326574e+02 1.4446914659702165e+02 1.4446898086706605e+02 
1.4446881076064639e+02 1.4446863616206525e+02 1.4446845695253151e+02 1.4446827301013099e+02 
1.4446808420970763e+02 1.4446789042278354e+02 1.4446769151749044e+02 1.4446748735845301e+02 
1.4446727780671799e+02 1.4446706271965007e+02 1.4446684195082264e+02 1.4446661534993595e+02 
1.4446638276270889e+02 1.4446614403076086e+02 1.4446589899152343e+02 1.4446564747810700e+02 
1.4446538931920358e+02 1.4446512433896282e+02 1.4446485235686569e+02 1.4446457318760486e+02 
1.4446428664096598e+02 1.4446399252168484e+02 1.4446369062931305e+02 1.4446338075807893e+02 
1.4446306269676893e+02 1.4446273622854633e+02 1.4446240113083462e+02 1.4446205717513234e+02 
1.4446170412688755e+02 1.4446134174531957e+02 1.4446096978324712e+02 1.4446058798693684e+02 
1.4446019609590491e+02 1.4445979384275907e+02 1.4445938095300221e+02 1.4445895714484794e+02 
1.4445852212902088e+02 1.4445807560856380e+02 1.4445761727862978e+02 1.4445714682626308e+02 
1.4445666393020053e+02 1.4445616826063690e+02 1.4445565947899820e+02 1.4445513723770992e+02 
1.4445460117995697e+02 1.4445405093943978e+02 1.4445348614011326e+02 1.4445290639593364e+02 
1.4445231131058407e+02 1.4445170047720666e+02 1.4445107347812367e+02 1.4445042988453895e+02 
1.4444976925624263e+02 1.4444909114131403e+02 1.4444839507579854e+02 1.4444768058339304e+02 
1.4444694717510879e+02 1.4444619434894429e+02 1.4444542158951785e+02 1.4444462836773246e+02 
1.4444381414038196e+02 1.4444297834979722e+02 1.4444212042345143e+02 1.4444123977355494e+02 
1.4444033579665523e+02 1.4443940787320591e+02 1.4443845536715546e+02 1.4443747762548327e+02 
1.4443647397775726e+02 1.4443544373566380e+02 1.4443438619252487e+02 1.4443330062281510e+02 
1.4443218628164337e+02 1.4443104240424373e+02 1.4442986820543805e+02 1.4442866287907827e+02 
1.4442742559750647e+02 1.4442615551095614e+02 1.4442485174696392e+02 1.4442351340976592e+02 
1.4442213957966570e+02 1.4442072931238758e+02 1.4441928163842923e+02 1.4441779556236978e+02 
1.4441627006217365e+02 1.4441470408848744e+02 1.4441309656388987e+02 1.4441144638214652e+02 
1.4440975240742509e+02 1.4440801347350734e+02 1.4440622838296332e+02 1.4440439590631939e+02 
1.4440251478118549e+02 1.4440058371137644e+02 1.4439860136598992e+02 1.4439656637848466e+02 
1.4439447734570450e+02 1.4439233282690697e+02 1.4439013134272992e+02 1.4438787137416909e+02 
1.4438555136149580e+02 1.4438316970315600e+02 1.4438072475464986e+02 1.4437821482736391e+02 
1.4437563818738730e+02 1.4437299305427257e+02 1.4437027759979645e+02 1.4436748994665609e+02 
1.4436462816714393e+02 1.4436169028178503e+02 1.4435867425793856e+02 1.4435557800835349e+02 
1.4435239938969457e+02 1.4434913620102236e+02 1.4434578618223657e+02 1.4434234701246365e+02 
1.4433881630841933e+02 1.4433519162271719e+02 1.4433147044212160e+02 1.4432765018577331e+02 
1.4432372820334612e+02 1.4431970177316890e+02 1.4431556810028513e+02 1.4431132431446443e+02 
1.4430696746816162e+02 1.4430249453441397e+02 1.4429790240468506e+02 1.4429318788664867e+02 
1.4428834770191025e+02 1.4428337848366883e+02 1.4427827677431355e+02 1.4427303902295336e+02 
1.4426766158287694e+02 1.4426214070895250e+02 1.4425647255494067e+02 1.4425065317074748e+02 
1.4424467849959717e+02 1.4423854437512219e+02 1.4423224651838387e+02 1.4422578053479964e+02 
1.4421914191099498e+02 1.4421232601156572e+02 1.4420532807574830e+02 1.4419814321400290e+02 
1.4419076640450101e+02 1.4418319248951678e+02 1.4417541617171702e+02 1.4416743201035391e+02 
1.4415923441734842e+02 1.4415081765326664e+02 1.4414217582318855e+02 1.4413330287246112e+02 
1.4412419258233524e+02 1.4411483856547980e+02 1.4410523426137735e+02 1.4409537293159073e+02 
1.4408524765489668e+02 1.4407485132229394e+02 1.4406417663186446e+02 1.4405321608349587e+02 
1.4404196197346880e+02 1.4403040638887845e+02 1.4401854120192004e+02 1.4400635806400015e+02 
1.4399384839970463e+02 1.4398100340058551e+02 1.4396781401878621e+02 1.4395427096048772e+02 
1.4394036467917917e+02 1.4392608536873658e+02 1.4391142295632062e+02 1.4389636709507383e+02 
1.4388090715661983e+02 1.4386503222335622e+02 1.4384873108053930e+02 1.4383199220814632e+02 
1.4381480377252325e+02 1.4379715361779739e+02 1.4377902925706033e+02 1.4376041786330597e+02 
1.4374130626012555e+02 1.4372168091214607e+02 1.4370152791520960e+02 1.4368083298628486e+02 
1.4365958145310665e+02 1.4363775824352822e+02 1.4361534787459223e+02 1.4359233444129876e+02 
1.4356870160507239e+02 1.4354443258191807e+02 1.4351951013025348e+02 1.4349391653841408e+02 
1.4346763361182630e+02 1.4344064265982368e+02 1.4341292448212218e+02 1.4338445935492348e+02 
1.4335522701664487e+02 1.4332520665327496e+02 1.4329437688332990e+02 1.4326271574241110e+02 
1.4323020066735228e+02 1.4319680847994505e+02 1.4316251537023018e+02 1.4312729687934984e+02 
1.4309112788194190e+02 1.4305398256807601e+02 1.4301583442470917e+02 1.4297665621665610e+02 
1.4293641996706253e+02 1.4289509693736812e+02 1.4285265760674602e+02 1.4280907165100965e+02 
1.4276430792097426e+02 1.4271833442025832e+02 1.4267111828251367e+02 1.4262262574807360e+02 
1.4257282214000230e+02 1.4252167183953654e+02 1.4246913826090221e+02 1.4241518382549697e+02 
1.4235976993542249e+02 1.4230285694635305e+02 1.4224440413973022e+02 1.4218436969426622e+02 
1.4212271065674284e+02 1.4205938291209597e+02 1.4199434115276733e+02 1.4192753884731260e+02 
1.4185892820825256e+02 1.4178846015915298e+02 1.4171608430091965e+02 1.4164174887729519e+02 
1.4156540073954724e+02 1.4148698531033057e+02 1.4140644654671686e+02 1.4132372690237204e+02 
1.4123876728887726e+02 1.4115150703617556e+02 1.4106188385213861e+02 1.4096983378123755e+02 
1.4087529116231212e+02 1.4077818858542761e+02 1.4067845684780943e+02 1.4057602490884952e+02 
1.4047081984417602e+02 1.4036276679878159e+02 1.4025178893920298e+02 1.4013780740475016e+02 
1.4002074125778242e+02 1.3990050743302706e+02 1.3977702068594377e+02 1.3965019354013549e+02 
1.3951993623380832e+02 1.3938615666528582e+02 1.3924876033758665e+02 1.3910765030207091e+02 
1.3896272710117140e+02 1.3881388871022023e+02 1.3866103047838948e+02 1.3850404506876419e+02 
1.3834282239757124e+02 1.3817724957258986e+02 1.3800721083077229e+02 1.3783258747510899e+02 
1.3765325781077408e+02 1.3746909708059346e+02 1.3727997739988152e+02 1.3708576769069535e+02 
1.3688633361556504e+02 1.3668153751075937e+02 1.3647123831915405e+02 1.3625529152277801e+02 
1.3603354907511280e+02 1.3580585933323846e+02 1.3557206698991334e+02 1.3533201300569331e+02 
1.3508553454120113e+02 1.3483246488966049e+02 1.3457263340982811e+02 1.3430586545945619e+02 
1.3403198232943603e+02 1.3375080117878124e+02 1.3346213497061856e+02 1.3316579240936912e+02 
1.3286157787931430e+02 1.3254929138475347e+02 1.3222872849197378e+02 1.3189968027326941e+02 
1.3156193325325930e+02 1.3121526935777052e+02 1.3085946586557137e+02 1.3049429536325331e+02 
1.3011952570358227e+02 1.2973491996765438e+02 1.2934023643121748e+02 1.2893522853553131e+02 
1.2851964486317056e+02 1.2809322911918815e+02 1.2765572011808698e+02 1.2720685177706410e+02 
1.2674635311602448e+02 1.2627394826488046e+02 1.2578935647868231e+02 1.2529229216115179e+02 
1.2478246489721921e+02 1.2425957949519157e+02 1.2372333603921072e+02 1.2317342995268923e+02 
1.2260955207344276e+02 1.2203138874126938e+02 1.2143862189875716e+02 1.2083092920613487e+02 
1.2020798417101240e+02 1.1956945629389034e+02 1.1891501123035147e+02 1.1824431097087913e+02 
1.1755701403928146e+02 1.1685277571073138e+02 1.1613124825046650e+02 1.1539208117421998e+02 
1.1463492153148994e+02 1.1385941421277852e+02 1.1306520228196160e+02 1.1225192733497774e+02 
1.1141922988604624e+02 1.1056674978264532e+02 1.0969412665050473e+02 1.0880100036987629e+02 
1.0788701158436271e+02 1.0695180224358982e+02 1.0599501618101199e+02 1.0501629972813893e+02 
1.0401530236646144e+02 1.0299167741834451e+02 1.0194508277812859e+02 1.0087518168465810e+02 
9.9781643536412730e+01 9.8664144750374362e+01 9.7522369665705313e+01 9.6356011493243372e+01 
9.5164773311744938e+01 9.3948369111711514e+01 9.2706524887528602e+01 9.1438979778532556e+01 
9.0145487259476269e+01 8.8825816380718706e+01 8.7479753058290825e+01 8.6107101413801487e+01 
8.4707685163939445e+01 8.3281349059097408e+01 8.1827960370395317e+01 8.0347410424101469e+01 
7.8839616182159119e+01 7.7304521867199128e+01 7.5742100630074987e+01 7.4152356257581133e+01 
7.2535324917617970e+01 7.0891076938638207e+01 6.9219718619755952e+01 6.7521394067418626e+01 
6.5796287054029719e+01 6.4044622893381373e+01 6.2266670327185693e+01 6.0462743416411257e+01 
5.8633203430518108e+01 5.6778460727049833e+01 5.4898976613387887e+01 5.2995265181799581e+01 
5.1067895108225947e+01 4.9117491404554556e+01 4.7144737113419069e+01 4.5150374933856320e+01 
4.3135208765450678e+01 4.1100105157891917e+01 3.9045994652200044e+01 3.6973872999205412e+01 
3.4884802240249563e+01 3.2779911634486254e+01 3.0660398416618847e+01 2.8527528368444329e+01 
2.6382636187159331e+01 2.4227125633066354e+01 2.2062469439092961e+01 1.9890208964417145e+01 
1.7711953574502132e+01 1.5529379729981377e+01 1.3344229767134511e+01 1.1158310353149867e+01 
8.9734906000130490e+00 6.7916998216931868e+00 4.6149249203447766e+00 2.4452073885064243e+00 
2.8463991577835945e-01 -1.8646374097933507e+00 -4.0004413134010246e+00 -6.1205499637352760e+00 
-8.2227080248082807e+00 -1.0304632129513767e+01 -1.2364016772041030e+01 -1.4398540612916737e+01 
-1.6405873186858731e+01 -1.8383681999786472e+01 -2.0329639997268554e+01 -2.2241433382413049e+01 
-2.4116769756758885e+01 -2.5953386553129167e+01 -2.7749059724709049e+01 -2.9501612649848898e+01 
-3.1208925207326232e+01 -3.2868942972081804e+01 -3.4479686476838502e+01 -3.6039260480589988e+01 
-3.7545863180781375e+01 -3.8997795302170744e+01 -4.0393468991955032e+01 -4.1731416447825822e+01 
-4.3010298203309759e+01 -4.4228910993097948e+01 -4.5386195120187246e+01 -4.6481241246610146e+01 
-4.7513296530403572e+01 -4.8481770033320892e+01 -4.9386237326690434e+01 -5.0226444226806969e+01 
-5.1002309596348660e+01 -5.1713927154550305e+01 -5.2361566246232194e+01 -5.2945671528261791e+01 
-5.3466861541558252e+01 -5.3925926147277650e+01 -5.4323822817232220e+01 -5.4661671780792240e+01 
-5.4940750043339207e+01 -5.5162484304620165e+01 -5.5328442818901124e+01 -5.5440326252422025e+01 
-5.5499957607084461e+01 -5.5509271292315994e+01 -5.5470301439398362e+01 -5.5385169563965299e+01 
-5.5256071692617923e+01 -5.5085265078424790e+01 -5.4875054637244048e+01 -5.4627779242118450e+01 
-5.4345798016274415e+01 -5.4031476766363632e+01 -5.3687174696420335e+01 -5.3315231539519701e+01 
-5.2917955238311258e+01 -5.2497610297524162e+01 -5.2056406921305388e+01 -5.1596491036030905e+01 
-5.1119935285237077e+01 -5.0628731067833286e+01 -5.0124781674086883e+01 -4.9609896556373542e+01 
-4.9085786753736876e+01 -4.8554061471299036e+01 -4.8016225797909868e+01 -4.7473679528512633e+01 
-4.6927717041912899e+01 -4.6379528170314238e+01 -4.5830199984426486e+01 -4.5280719407416967e+01 
-4.4731976562647596e+01 -4.4184768754148720e+01 -4.3639804975177583e+01 -4.3097710838978536e+01 
-4.2559033826918025e+01 -4.2024248752365246e+01 -4.1493763343812589e+01 -4.0967923857535460e+01 
-4.0447020638276918e+01 -3.9931293555696541e+01 -3.9420937254312832e+01 -3.8916106165065713e+01 
-3.8416919237110086e+01 -3.7923464358732858e+01 -3.7435802446096908e+01 -3.6953971187639205e+01 
-3.6477988440205067e+01 -3.6007855280259903e+01 -3.5543558719699256e+01 -3.5085074100843400e+01 
-3.4632367189159190e+01 -3.4185395985144446e+01 -3.3744112278709764e+01 -3.3308462970403497e+01 
-3.2878391184052802e+01 -3.2453837194970333e+01 -3.2034739196921933e+01 -3.1621033929693709e+01 
-3.1212657187451136e+01 -3.0809544226255522e+01 -3.0411630087185394e+01 -3.0018849849580427e+01 
-2.9631138827044630e+01 -2.9248432717062752e+01 -2.8870667713431430e+01 -2.8497780589207387e+01 
-2.8129708756539856e+01 -2.7766390308585098e+01 -2.7407764047695053e+01 -2.7053769503218621e+01 
-2.6704346941541214e+01 -2.6359437370403167e+01 -2.6018982539061039e+01 -2.5682924935476088e+01 
-2.5351207781415003e+01 -2.5023775026114787e+01 -2.4700571338985810e+01 -2.4381542101692631e+01 
-2.4066633399852101e+01 -2.3755792014515315e+01 -2.3448965413547079e+01 -2.3146101742979436e+01 
-2.2847149818389365e+01 -2.2552059116333155e+01 -2.2260779765857741e+01 -2.1973262540101317e+01 
-2.1689458847990259e+01 -2.1409320726036469e+01 -2.1132800830236249e+01 -2.0859852428071886e+01 
-2.0590429390615135e+01 -2.0324486184732070e+01 -2.0061977865388222e+01 -1.9802860068052965e+01 
-1.9547089001201890e+01 -1.9294621438915957e+01 -1.9045414713576260e+01 -1.8799426708653087e+01 
-1.8556615851588127e+01 -1.8316941106768624e+01 -1.8080361968592257e+01 -1.7846838454621594e+01 
-1.7616331098826965e+01 -1.7388800944916607e+01 -1.7164209539752939e+01 -1.6942518926854003e+01 
-1.6723691639978533e+01 -1.6507690696794228e+01 -1.6294479592627582e+01 -1.6084022294294527e+01 
-1.5876283234010733e+01 -1.5671227303380583e+01 -1.5468819847463736e+01 -1.5269026658918403e+01 
-1.5071813972220182e+01 -1.4877148457955643e+01 -1.4684997217189556e+01 -1.4495327775904883e+01 
-1.4308108079514621e+01 -1.4123306487444479e+01 -1.3940891767785553e+01 -1.3760833092016052e+01 
-1.3583100029791192e+01 -1.3407662543800480e+01 -1.3234490984691208e+01 -1.3063556086057718e+01 
-1.2894828959495296e+01 -1.2728281089717969e+01 -1.2563884329739349e+01 -1.2401610896115711e+01 
-1.2241433364250552e+01 -1.2083324663759747e+01 -1.1927258073896599e+01 -1.1773207219035966e+01 
-1.1621146064216722e+01 -1.1471048910741784e+01 -1.1322890391834967e+01 -1.1176645468353945e+01 
-1.1032289424558572e+01 -1.0889797863933863e+01 -1.0749146705066915e+01 -1.0610312177577153e+01 
-1.0473270818098968e+01 -1.0337999466316443e+01 -1.0204475261049161e+01 -1.0072675636388635e+01 
-9.9425783178845997e+00 -9.8141613187805881e+00 -9.6874029362981027e+00 -9.5622817479688074e+00 
-9.4387766080140736e+00 -9.3168666437712986e+00 -9.1965312521663627e+00 -9.0777500962316768e+00 
-8.9605031016691772e+00 -8.8447704534577252e+00 -8.7305325925043160e+00 -8.6177702123385540e+00 
-8.5064642558497869e+00 -8.3965959120664806e+00 -8.2881466129770267e+00 -8.1810980303917553e+00 
-8.0754320728454250e+00 -7.9711308825397165e+00 -7.8681768323252168e+00 -7.7665525227224039e+00 
-7.6662407789810780e+00 -7.5672246481777936e+00 -7.4694873963507780e+00 -7.3730125056718476e+00 
-7.2777836716548601e+00 -7.1837848004002112e+00 -7.0910000058749327e+00 -6.9994136072279121e+00 
-6.9090101261397958e+00 -6.8197742842071092e+00 -6.7316910003601640e+00 -6.6447453883143677e+00 
-6.5589227540543327e+00 -6.4742085933506042e+00 -6.3905885893083951e+00 -6.3080486099479973e+00 
-6.2265747058164473e+00 -6.1461531076300302e+00 -6.0667702239472412e+00 -5.9884126388717993e+00 
-5.9110671097853276e+00 -5.8347205651093237e+00 -5.7593601020960197e+00 -5.6849729846478052e+00 
-5.6115466411647823e+00 -5.5390686624201395e+00 -5.4675267994629655e+00 -5.3969089615481431e+00 
-5.3272032140929788e+00 -5.2583977766602645e+00 -5.1904810209673009e+00 -5.1234414689207277e+00 
-5.0572677906766881e+00 -4.9919488027260606e+00 -4.9274734660044146e+00 -4.8638308840263855e+00 
-4.8010103010441458e+00 -4.7390011002296530e+00 -4.6777928018803783e+00 -4.6173750616482216e+00 
-4.5577376687912814e+00 -4.4988705444482244e+00 -4.4407637399349271e+00 -4.3834074350631251e+00 
-4.3267919364807828e+00 -4.2709076760338887e+00 -4.2157452091494108e+00 -4.1612952132391676e+00 
-4.1075484861242479e+00 -4.0544959444798447e+00 -4.0021286223001518e+00 -3.9504376693830809e+00 
-3.8994143498345601e+00 -3.8490500405921435e+00 -3.7993362299676998e+00 -3.7502645162089077e+00 
-3.7018266060793472e+00 -3.6540143134569201e+00 -3.6068195579503741e+00 -3.5602343635337013e+00 
-3.5142508571981681e+00 -3.4688612676217581e+00 -3.4240579238558015e+00 -3.3798332540285658e+00 
-3.3361797840655854e+00 -3.2930901364265486e+00 -3.2505570288584407e+00 -3.2085732731648497e+00 
-3.1671317739911400e+00 -3.1262255276253139e+00 -3.0858476208143748e+00 -3.0459912295959697e+00 
-3.0066496181451203e+00 -2.9678161376358543e+00 -2.9294842251175388e+00 -2.8916474024057233e+00 
-2.8542992749873153e+00 -2.8174335309398884e+00 -2.7810439398649542e+00 -2.7451243518350110e+00 
-2.7096686963541901e+00 -2.6746709813323215e+00 -2.6401252920722782e+00 -2.6060257902703499e+00 
-2.5723667130295698e+00 -2.5391423718857729e+00 -2.5063471518462297e+00 -2.4739755104406975e+00 
-2.4420219767847309e+00 -2.4104811506550887e+00 -2.3793477015770863e+00 -2.3486163679237277e+00 
-2.3182819560264827e+00 -2.2883393392975413e+00 -2.2587834573634100e+00 -2.2296093152096965e+00 
-2.2008119823369392e+00 -2.1723865919273426e+00 -2.1443283400222715e+00 -2.1166324847103692e+00 
-2.0892943453261772e+00 -2.0623093016590679e+00 -2.0356727931724343e+00 -2.0093803182329455e+00 
-1.9834274333497572e+00 -1.9578097524235545e+00 -1.9325229460052880e+00 -1.9075627405644875e+00 
-1.8829249177670266e+00 -1.8586053137622123e+00 -1.8345998184790833e+00 -1.8109043749318028e+00 
-1.7875149785340134e+00 -1.7644276764220548e+00 -1.7416385667869199e+00 -1.7191437982148403e+00 
-1.6969395690363875e+00 -1.6750221266839793e+00 -1.6533877670576984e+00 -1.6320328338992731e+00 
-1.6109537181741729e+00 -1.5901468574616702e+00 -1.5696087353527810e+00 -1.5493358808559876e+00 
-1.5293248678106282e+00 -1.5095723143078696e+00 -1.4900748821191570e+00 -1.4708292761320456e+00 
-1.4518322437933160e+00 -1.4330805745592887e+00 -1.4145710993532326e+00 -1.3963006900297827e+00 
-1.3782662588462791e+00 -1.3604647579409272e+00 -1.3428931788177052e+00 -1.3255485518379166e+00 
-1.3084279457183250e+00 -1.2915284670357448e+00 -1.2748472597380562e+00 -1.2583815046615232e+00 
-1.2421284190543478e+00 -1.2260852561063784e+00 -1.2102493044848925e+00 -1.1946178878763749e+00 
-1.1791883645342143e+00 -1.1639581268322425e+00 -1.1489246008240386e+00 -1.1340852458079254e+00 
-1.1194375538975863e+00 -1.1049790495982257e+00 -1.0907072893882042e+00 -1.0766198613060780e+00 
-1.0627143845429723e+00 -1.0489885090402151e+00 -1.0354399150921820e+00 -1.0220663129542467e+00 
-1.0088654424558172e+00 -9.9583507261836024e-01 -9.8297300127835940e-01 -9.7027705471514547e-01 
-9.5774508728353180e-01 -9.4537498105119488e-01 -9.3316464544073963e-01 -9.2111201687638589e-01 
-9.0921505843521999e-01 -8.9747175950294944e-01 -8.8588013543410449e-01 -8.7443822721662834e-01 
-8.6314410114079931e-01 -8.5199584847242960e-01 -8.4099158513028427e-01 -8.3012945136766580e-01 
-8.1940761145811847e-01 -8.0882425338517672e-01 -7.9837758853613727e-01 -7.8806585139977614e-01 
-7.7788729926797462e-01 -7.6784021194119634e-01 -7.5792289143777014e-01 -7.4813366170692674e-01 
-7.3847086834554232e-01 -7.2893287831854037e-01 -7.1951807968290504e-01 -7.1022488131525885e-01 
-7.0105171264295874e-01 -6.9199702337866609e-01 -6.8305928325834453e-01 -6.7423698178264069e-01 
-6.6552862796160728e-01 -6.5693275006272089e-01 -6.4844789536215974e-01 -6.4007262989928326e-01 
-6.3180553823429486e-01 -6.2364522320902627e-01 -6.1559030571081585e-01 -6.0763942443943519e-01 
-5.9979123567702530e-01 -5.9204441306100597e-01 -5.8439764735991695e-01 -5.7684964625215485e-01 
-5.6939913410756726e-01 -5.6204485177186869e-01 -5.5478555635384086e-01 -5.4762002101528007e-01 
-5.4054703476365940e-01 -5.3356540224746818e-01 -5.2667394355419406e-01 -5.1987149401091448e-01 
-5.1315690398746827e-01 -5.0652903870215882e-01 -4.9998677802997832e-01 -4.9352901631330170e-01 
-4.8715466217502890e-01 -4.8086263833413884e-01 -4.7465188142362680e-01 -4.6852134181079286e-01 
-4.6246998341985096e-01 -4.5649678355683043e-01 -4.5060073273673745e-01 -4.4478083451295031e-01 
-4.3903610530881726e-01 -4.3336557425142980e-01 -4.2776828300754288e-01 -4.2224328562161412e-01 
-4.1678964835593518e-01 -4.1140644953282740e-01 -4.0609277937887855e-01 -4.0084773987118488e-01 
-3.9567044458558581e-01 -3.9056001854685568e-01 -3.8551559808083058e-01 -3.8053633066844544e-01 
-3.7562137480165669e-01 -3.7076989984122455e-01 -3.6598108587633388e-01 -3.6125412358602660e-01 
-3.5658821410242519e-01 
</PP_LOCAL>


<PP_NONLOCAL>
  <PP_BETA>
  1  1      Beta    L
  1189  
 -4.6867273332014350e-09  -4.8101801760981953e-09  -4.9368848839539207e-09  -5.0669271139750559e-09 
 -5.2003947796601783e-09  -5.3373781102326302e-09  -5.4779697116391465e-09  -5.6222646291548044e-09 
 -5.7703604116373299e-09  -5.9223571774738327e-09  -6.0783576822646180e-09  -6.2384673882899882e-09 
 -6.4027945358065478e-09  -6.5714502162219649e-09  -6.7445484471967637e-09  -6.9222062497247394e-09 
 -7.1045437272437037e-09  -7.2916841468296560e-09  -7.4837540225303621e-09  -7.6808832008933139e-09 
 -7.8832049487473575e-09  -8.0908560432957366e-09  -8.3039768645828910e-09  -8.5227114903965790e-09 
 -8.7472077936701862e-09  -8.9776175424501264e-09  -9.2140965024971094e-09  -9.4568045425893713e-09 
 -9.7059057426004227e-09  -9.9615685044230984e-09  -1.0223965665815441e-08  -1.0493274617246044e-08 
 -1.0769677421816317e-08  -1.1053360938342396e-08  -1.1344516947678527e-08  -1.1643342282368435e-08 
 -1.1950038959711353e-08  -1.2264814318333584e-08  -1.2587881158357424e-08  -1.2919457885261665e-08 
 -1.3259768657532494e-08  -1.3609043538202824e-08  -1.3967518650383760e-08  -1.4335436336892691e-08 
 -1.4713045324086539e-08  -1.5100600890009734e-08  -1.5498365036972222e-08  -1.5906606668672946e-08 
 -1.6325601771988848e-08  -1.6755633603552334e-08  -1.7196992881244045e-08  -1.7649977980728454e-08 
 -1.8114895137167745e-08  -1.8592058652248007e-08  -1.9081791106659227e-08  -1.9584423578172429e-08 
 -2.0100295865459910e-08  -2.0629756717812898e-08  -2.1173164070909085e-08  -2.1730885288790355e-08 
 -2.2303297412215446e-08  -2.2890787413552803e-08  -2.3493752458390000e-08  -2.4112600174031102e-08 
 -2.4747748925069547e-08  -2.5399628096217417e-08  -2.6068678382587051e-08  -2.6755352087615831e-08 
 -2.7460113428842043e-08  -2.8183438851732798e-08  -2.8925817351779296e-08  -2.9687750805076160e-08 
 -3.0469754307609182e-08  -3.1272356523478986e-08  -3.2096100042298837e-08  -3.2941541746004278e-08 
 -3.3809253185328168e-08  -3.4699820966189627e-08  -3.5613847146261505e-08  -3.6551949641985245e-08 
 -3.7514762646304971e-08  -3.8502937057404820e-08  -3.9517140918744147e-08  -4.0558059870675682e-08 
 -4.1626397613967189e-08  -4.2722876385530088e-08  -4.3848237446676567e-08  -4.5003241584242011e-08 
 -4.6188669624905242e-08  -4.7405322963056354e-08  -4.8654024102569537e-08  -4.9935617212847844e-08 
 -5.1250968699511886e-08  -5.2600967790124226e-08  -5.3986527135340020e-08  -5.5408583425891560e-08 
 -5.6868098025830318e-08  -5.8366057622441754e-08  -5.9903474893284350e-08  -6.1481389190797905e-08 
 -6.3100867244945118e-08  -6.4763003884360161e-08  -6.6468922776494061e-08  -6.8219777187257567e-08 
 -7.0016750760670967e-08  -7.1861058319050824e-08  -7.3753946684278454e-08  -7.5696695520695728e-08 
 -7.7690618200206926e-08  -7.9737062690166953e-08  -8.1837412464660298e-08  -8.3993087439776026e-08 
 -8.6205544933530084e-08  -8.8476280651063445e-08  -9.0806829695794131e-08  -9.3198767607207653e-08 
 -9.5653711425977900e-08  -9.8173320787146657e-08  -1.0075929904210236e-07  -1.0341339441010391e-07 
 -1.0613740116014747e-07  -1.0893316082395547e-07  -1.1180256344092141e-07  -1.1474754883584831e-07 
 -1.1777010793033919e-07  -1.2087228408873911e-07  -1.2405617449951871e-07  -1.2732393159305959e-07 
 -1.3067776449676877e-07  -1.3411994052853636e-07  -1.3765278672952506e-07  -1.4127869143733213e-07 
 -1.4500010590060450e-07  -1.4881954593616000e-07  -1.5273959362978033e-07  -1.5676289908179788e-07 
 -1.6089218219865324e-07  -1.6513023453166265e-07  -1.6947992116419833e-07  -1.7394418264859963e-07 
 -1.7852603699408845e-07  -1.8322858170705762e-07  -1.8805499588509605e-07  -1.9300854236617839e-07 
 -1.9809256993445792e-07  -2.0331051558417149e-07  -2.0866590684317095e-07  -2.1416236415766645e-07 
 -2.1980360333976579e-07  -2.2559343807951040e-07  -2.3153578252307000e-07  -2.3763465391883935e-07 
 -2.4389417533324796e-07  -2.5031857843809736e-07  -2.5691220637133485e-07  -2.6367951667315819e-07 
 -2.7062508429948707e-07  -2.7775360471478215e-07  -2.8506989706636646e-07  -2.9257890744232092e-07 
 -3.0028571221523653e-07  -3.0819552147401014e-07  -3.1631368254605866e-07  -3.2464568361229497e-07 
 -3.3319715741734081e-07  -3.4197388507745745e-07  -3.5098179998878878e-07  -3.6022699183854571e-07 
 -3.6971571072184064e-07  -3.7945437136699074e-07  -3.8944955747207890e-07  -3.9970802615578229e-07 
 -4.1023671252540653e-07  -4.2104273436526918e-07  -4.3213339694856576e-07  -4.4351619797598933e-07 
 -4.5519883264443765e-07  -4.6718919884922543e-07  -4.7949540252333758e-07  -4.9212576311732982e-07 
 -5.0508881922353627e-07  -5.1839333434848211e-07  -5.3204830283726998e-07  -5.4606295595411192e-07 
 -5.6044676812293825e-07  -5.7520946333244289e-07  -5.9036102170983028e-07  -6.0591168626769844e-07 
 -6.2187196982868006e-07  -6.3825266213244653e-07  -6.5506483712992206e-07  -6.7231986046966320e-07 
 -6.9002939718138594e-07  -7.0820541956191988e-07  -7.2686021526887322e-07  -7.4600639562747380e-07 
 -7.6565690415625151e-07  -7.8582502531726370e-07  -8.0652439349680981e-07  -8.2776900222270406e-07 
 -8.4957321362437362e-07  -8.7195176814208430e-07  -8.9491979449194553e-07  -9.1849281989339018e-07 
 -9.4268678056604999e-07  -9.6751803250316365e-07  -9.9300336252868152e-07  -1.0191599996456892e-06 
 -1.0460056266837492e-06  -1.0735583922529821e-06  -1.1018369230131144e-06  -1.1308603362656252e-06 
 -1.1606482528775874e-06  -1.1912208105459733e-06  -1.2225986774112994e-06  -1.2548030660298727e-06 
 -1.2878557477141160e-06  -1.3217790672505515e-06  -1.3565959580054924e-06  -1.3923299574286693e-06 
 -1.4290052229651291e-06  -1.4666465483863994e-06  -1.5052793805516497e-06  -1.5449298366104912e-06 
 -1.5856247216588590e-06  -1.6273915468599177e-06  -1.6702585480423052e-06  -1.7142547047882978e-06 
 -1.7594097600246847e-06  -1.8057542401297192e-06  -1.8533194755697213e-06  -1.9021376220791534e-06 
 -1.9522416823986894e-06  -2.0036655285858379e-06  -2.0564439249131269e-06  -2.1106125513696533e-06 
 -2.1662080277813795e-06  -2.2232679385670766e-06  -2.2818308581459804e-06  -2.3419363770150930e-06 
 -2.4036251285129782e-06  -2.4669388162887601e-06  -2.5319202424945802e-06  -2.5986133367206456e-06 
 -2.6670631856923834e-06  -2.7373160637498427e-06  -2.8094194641300255e-06  -2.8834221310729881e-06 
 -2.9593740927737210e-06  -3.0373266952020704e-06  -3.1173326368132418e-06  -3.1994460041727458e-06 
 -3.2837223085196907e-06  -3.3702185232930204e-06  -3.4589931226463324e-06  -3.5501061209769389e-06 
 -3.6436191134964256e-06  -3.7395953178696483e-06  -3.8380996169502702e-06  -3.9391986026425051e-06 
 -4.0429606209174510e-06  -4.1494558180157254e-06  -4.2587561878667885e-06  -4.3709356207572627e-06 
 -4.4860699532812072e-06  -4.6042370196059983e-06  -4.7255167040887110e-06  -4.8499909952780993e-06 
 -4.9777440413392365e-06  -5.1088622069377652e-06  -5.2434341316226674e-06  -5.3815507897466904e-06 
 -5.5233055519648692e-06  -5.6687942483532832e-06  -5.8181152331898861e-06  -5.9713694514419407e-06 
 -6.1286605070042219e-06  -6.2900947327350629e-06  -6.4557812623366051e-06  -6.6258321041284565e-06 
 -6.8003622167644408e-06  -6.9794895869432330e-06  -7.1633353091660741e-06  -7.3520236675947709e-06 
 -7.5456822200658914e-06  -7.7444418843169392e-06  -7.9484370264839093e-06  -8.1578055519294861e-06 
 -8.3726889984627049e-06  -8.5932326320137625e-06  -8.8195855448287526e-06  -9.0519007562502198e-06 
 -9.2903353161587327e-06  -9.5350504111363852e-06  -9.7862114734253656e-06  -1.0043988292754664e-05 
 -1.0308555131113030e-05  -1.0580090840544288e-05  -1.0858778984044989e-05  -1.1144807959646875e-05 
 -1.1438371127766700e-05  -1.1739666941910347e-05  -1.2048899082819568e-05  -1.2366276596151832e-05 
 -1.2692014033785620e-05  -1.3026331598848464e-05  -1.3369455294563564e-05  -1.3721617077017429e-05 
 -1.4083055011950589e-05  -1.4454013435678015e-05  -1.4834743120246992e-05  -1.5225501442946299e-05 
 -1.5626552560278267e-05  -1.6038167586513719e-05  -1.6460624776948979e-05  -1.6894209715990001e-05 
 -1.7339215510189441e-05  -1.7795942986368290e-05  -1.8264700894955298e-05  -1.8745806118682122e-05 
 -1.9239583886774074e-05  -1.9746367994783202e-05  -2.0266501030210429e-05  -2.0800334604070567e-05 
 -2.1348229588555957e-05  -2.1910556360958990e-05  -2.2487695054020327e-05  -2.3080035812869467e-05 
 -2.3687979058733570e-05  -2.4311935759590578e-05  -2.4952327707952538e-05  -2.5609587805964352e-05 
 -2.6284160358010397e-05  -2.6976501371030519e-05  -2.7687078862743624e-05  -2.8416373177991049e-05 
 -2.9164877313411531e-05  -2.9933097250666975e-05  -3.0721552298447196e-05  -3.1530775443480916e-05 
 -3.2361313710793668e-05  -3.3213728533453307e-05  -3.4088596132057410e-05  -3.4986507904212672e-05 
 -3.5908070824277028e-05  -3.6853907853629052e-05  -3.7824658361744132e-05  -3.8820978558364308e-05 
 -3.9843541937048539e-05  -4.0893039730410683e-05  -4.1970181377344167e-05  -4.3075695002559745e-05 
 -4.4210327908748872e-05  -4.5374847081717070e-05  -4.6570039708817184e-05  -4.7796713711044638e-05 
 -4.9055698289144122e-05  -5.0347844484102646e-05  -5.1674025752405796e-05  -5.3035138556447318e-05 
 -5.4432102970486667e-05  -5.5865863302568783e-05  -5.7337388732823061e-05  -5.8847673968571362e-05 
 -6.0397739916692225e-05  -6.1988634373683687e-05  -6.3621432733907850e-05  -6.5297238716473951e-05 
 -6.7017185111265399e-05  -6.8782434544604448e-05  -7.0594180265076055e-05  -7.2453646950031557e-05 
 -7.4362091533324083e-05  -7.6320804054823564e-05  -7.8331108532286896e-05  -8.0394363856170050e-05 
 -8.2511964707975447e-05  -8.4685342502759315e-05  -8.6915966356425711e-05  -8.9205344078456249e-05 
 -9.1555023190744220e-05  -9.3966591973210226e-05  -9.6441680536904126e-05  -9.8981961925307386e-05 
 -1.0158915324458117e-04  -1.0426501682350500e-04  -1.0701136140389213e-04  -1.0983004336227748e-04 
 -1.1272296796368486e-04  -1.1569209064833835e-04  -1.1873941835214611e-04  -1.2186701086186533e-04 
 -1.2507698220585799e-04  -1.2837150208134721e-04  -1.3175279731915626e-04  -1.3522315338690446e-04 
 -1.3878491593165637e-04  -1.4244049236308170e-04  -1.4619235347817347e-04  -1.5004303512861636e-04 
 -1.5399513993194023e-04  -1.5805133902758637e-04  -1.6221437387908824e-04  -1.6648705812355970e-04 
 -1.7087227946974769e-04  -1.7537300164591310e-04  -1.7999226639885200e-04  -1.8473319554541839e-04 
 -1.8959899307787901e-04  -1.9459294732457428e-04  -1.9971843316727889e-04  -2.0497891431679350e-04 
 -2.1037794564825673e-04  -2.1591917559777779e-04  -2.2160634862196537e-04  -2.2744330772201616e-04 
 -2.3343399703405003e-04  -2.3958246448741444e-04  -2.4589286453275327e-04  -2.5236946094165009e-04 
 -2.5901662967973537e-04  -2.6583886185513675e-04  -2.7284076674429918e-04  -2.8002707489713918e-04 
 -2.8740264132365209e-04  -2.9497244876405441e-04  -3.0274161104467946e-04  -3.1071537652183724e-04 
 -3.1889913161596475e-04  -3.2729840443836578e-04  -3.3591886851301969e-04  -3.4476634659589807e-04 
 -3.5384681459433339e-04  -3.6316640558906223e-04  -3.7273141396161049e-04  -3.8254829962973983e-04 
 -3.9262369239382428e-04  -4.0296439639698507e-04  -4.1357739470198945e-04  -4.2446985398790645e-04 
 -4.3564912936968058e-04  -4.4712276934379824e-04  -4.5889852086329462e-04  -4.7098433454552060e-04 
 -4.8338837001605313e-04  -4.9611900139234972e-04  -5.0918482291069009e-04  -5.2259465470022907e-04 
 -5.3635754870782495e-04  -5.5048279477774398e-04  -5.6497992689004807e-04  -5.7985872956191917e-04 
 -5.9512924441608049e-04  -6.1080177692062756e-04  -6.2688690330470144e-04  -6.4339547765459703e-04 
 -6.6033863919485124e-04  -6.7772781975920424e-04  -6.9557475145625358e-04  -7.1389147453483051e-04 
 -7.3269034545424792e-04  -7.5198404516467986e-04  -7.7178558760309681e-04  -7.9210832841024575e-04 
 -8.1296597387438751e-04  -8.3437259010761978e-04  -8.5634261246066276e-04  -8.7889085518230692e-04 
 -9.0203252132974151e-04  -9.2578321293614464e-04  -9.5015894144217096e-04  -9.7517613839796227e-04 
 -1.0008516664427192e-03  -1.0272028305687668e-03  -1.0542473896773823e-03  -1.0820035684338727e-03 
 -1.1104900694293707e-03  -1.1397260856572315e-03  -1.1697313133119326e-03  -1.2005259649186110e-03 
 -1.2321307828016914e-03  -1.2645670529010213e-03  -1.2978566189443673e-03  -1.3320218969852071e-03 
 -1.3670858903149308e-03  -1.4030722047589886e-03  -1.4400050643664265e-03  -1.4779093275027566e-03 
 -1.5168105033562293e-03  -1.5567347688677814e-03  -1.5977089860951324e-03  -1.6397607200220609e-03 
 -1.6829182568234792e-03  -1.7272106225981246e-03  -1.7726676025798659e-03  -1.8193197608398111e-03 
 -1.8671984604912387e-03  -1.9163358844094087e-03  -1.9667650564792103e-03  -2.0185198633834579e-03 
 -2.0716350769448273e-03  -2.1261463770350314e-03  -2.1820903750651194e-03  -2.2395046380706408e-03 
 -2.2984277134063622e-03  -2.3588991540648241e-03  -2.4209595446340409e-03  -2.4846505279094220e-03 
 -2.5500148321755236e-03  -2.6170962991734908e-03  -2.6859399127704899e-03  -2.7565918283476718e-03 
 -2.8290994029233217e-03  -2.9035112260287449e-03  -2.9798771513539647e-03  -3.0582483291814095e-03 
 -3.1386772396255779e-03  -3.2212177266973956e-03  -3.3059250332115593e-03  -3.3928558365567615e-03 
 -3.4820682853476163e-03  -3.5736220369784275e-03  -3.6675782960988489e-03  -3.7639998540318076e-03 
 -3.8629511291545268e-03  -3.9644982082635196e-03  -4.0687088889452428e-03  -4.1756527229735033e-03 
 -4.2854010607562953e-03  -4.3980270968533462e-03  -4.5136059165877740e-03  -4.6322145437736753e-03 
 -4.7539319895833973e-03  -4.8788393025768224e-03  -5.0070196199169569e-03  -5.1385582197941157e-03 
 -5.2735425750839180e-03  -5.4120624082614017e-03  -5.5542097475961630e-03  -5.7000789846521288e-03 
 -5.8497669331160655e-03  -6.0033728889785738e-03  -6.1609986920925040e-03  -6.3227487891307126e-03 
 -6.4887302979696809e-03  -6.6590530735198454e-03  -6.8338297750281385e-03  -7.0131759348742110e-03 
 -7.1972100288844711e-03  -7.3860535481843487e-03  -7.5798310726127903e-03  -7.7786703457178559e-03 
 -7.9827023513555709e-03  -8.1920613919107110e-03  -8.4068851681583182e-03  -8.6273148607841441e-03 
 -8.8534952135805381e-03  -9.0855746183318362e-03  -9.3237052014053592e-03  -9.5680429120577459e-03 
 -9.8187476124694632e-03  -1.0075983169514243e-02  -1.0339917548270856e-02  -1.0610722907281163e-02 
 -1.0888575695555056e-02  -1.1173656751322956e-02  -1.1466151402528621e-02  -1.1766249569056924e-02 
 -1.2074145866683199e-02  -1.2390039712730262e-02  -1.2714135433411369e-02  -1.3046642372835267e-02 
 -1.3387775003644036e-02  -1.3737753039246332e-02  -1.4096801547606135e-02  -1.4465151066537478e-02 
 -1.4843037720450177e-02  -1.5230703338483018e-02  -1.5628395573952705e-02  -1.6036368025037797e-02 
 -1.6454880356607211e-02  -1.6884198423090656e-02  -1.7324594392281099e-02  -1.7776346869940080e-02 
 -1.8239741025071244e-02  -1.8715068715706280e-02  -1.9202628615037014e-02  -1.9702726337705246e-02 
 -2.0215674566051299e-02  -2.0741793176095372e-02  -2.1281409363007934e-02  -2.1834857765806039e-02 
 -2.2402480590980798e-02  -2.2984627734743596e-02  -2.3581656903542886e-02  -2.4193933732480289e-02 
 -2.4821831901214935e-02  -2.5465733246917550e-02  -2.6126027873792212e-02  -2.6803114258647179e-02 
 -2.7497399351951540e-02  -2.8209298673767039e-02  -2.8939236403897235e-02  -2.9687645465541108e-02 
 -3.0454967601676736e-02  -3.1241653443349206e-02  -3.2048162568958247e-02  -3.2874963553580307e-02 
 -3.3722534007277212e-02  -3.4591360601263992e-02  -3.5481939080723224e-02  -3.6394774262951853e-02 
 -3.7330380019438301e-02  -3.8289279240346197e-02  -3.9272003779772406e-02  -4.0279094380028233e-02 
 -4.1311100573044941e-02  -4.2368580556883355e-02  -4.3452101045153152e-02  -4.4562237087005969e-02 
 -4.5699571855177479e-02  -4.6864696399372290e-02  -4.8058209362089967e-02  -4.9280716653777604e-02 
 -5.0532831083953601e-02  -5.1815171944732140e-02  -5.3128364542889356e-02  -5.4473039676354043e-02 
 -5.5849833050705476e-02  -5.7259384630944037e-02  -5.8702337923468718e-02  -6.0179339182832275e-02 
 -6.1691036537467783e-02  -6.3238079028177560e-02  -6.4821115552730818e-02  -6.6440793709474810e-02 
 -6.8097758532358527e-02  -6.9792651109263817e-02  -7.1526107074977627e-02  -7.3298754969556443e-02 
 -7.5111214452226863e-02  -7.6964094360281426e-02  -7.8857990601775799e-02  -8.0793483870053084e-02 
 -8.2771137167388945e-02  -8.4791493124194720e-02  -8.6855071099384187e-02  -8.8962364046577896e-02 
 -9.1113835129879875e-02  -9.3309914071950731e-02  -9.5550993216054037e-02  -9.7837423282649313e-02 
 -1.0016950879996316e-01  -1.0254750318676648e-01  -1.0497160346434302e-01  -1.0744194457334119e-01 
 -1.0995859326986687e-01  -1.1252154157379238e-01  -1.1513069974083427e-01  -1.1778588872851901e-01 
 -1.2048683212463426e-01  -1.2323314750531214e-01  -1.2602433718831621e-01  -1.2885977834563009e-01 
 -1.3173871243789836e-01  -1.3466023393179050e-01  -1.3762327825989210e-01  -1.4062660898136162e-01 
 -1.4366880410021726e-01  -1.4674824149695040e-01  -1.4986308342806087e-01  -1.5301126004719529e-01 
 -1.5619045190085801e-01  -1.5939807135121689e-01  -1.6263124287832945e-01  -1.6588678221434924e-01 
 -1.6916117426283345e-01  -1.7245054975736526e-01  -1.7575066061537697e-01  -1.7905685394534049e-01 
 -1.8236404466849268e-01  -1.8566668672024506e-01  -1.8895874280118685e-01  -1.9223365265363837e-01 
 -1.9548429984682775e-01  -1.9870297706248805e-01  -2.0188134988268480e-01  -2.0501041909377196e-01 
 -2.0808048153413153e-01  -2.1108108952950241e-01  -2.1400100897809340e-01  -2.1682817616884165e-01 
 -2.1954965344019800e-01  -2.2215158381404004e-01  -2.2461914477007777e-01  -2.2693650136058677e-01 
 -2.2908675890402735e-01  -2.3105191553905166e-01  -2.3281281496844458e-01  -2.3434909977521856e-01 
 -2.3563916575170835e-01  -2.3666011774628845e-01  -2.3738772760268775e-01  -2.3779639484287207e-01 
 -2.3785911082748407e-01  -2.3754742721698333e-01  -2.3683142965276374e-01  -2.3567971768010812e-01 
 -2.3405939204399115e-01  -2.3193605060407854e-01  -2.2927379423648211e-01  -2.2603524421593016e-01 
 -2.2218157270256531e-01  -2.1767254809110120e-01  -2.1246659711537505e-01  -2.0652088573608834e-01 
 -1.9979142097265892e-01  -1.9223317596726852e-01  -1.8380024068920747e-01  -1.7444600079525807e-01 
 -1.6412334725373751e-01  -1.5278491941112138e-01  -1.4038338422480523e-01  -1.2687175439829648e-01 
 -1.1220374812836008e-01  -9.6334193100210352e-02  -7.9219477238882965e-02  -6.0818048532882786e-02 
 -4.1090965981734513e-02  -2.0002503371598070e-02  2.4791928567275854e-03  2.6381390926405034e-02 
 5.1726006163643326e-02  7.8528779270448434e-02  1.0679840205304722e-01  1.3653559327726542e-01 
 1.6773212851617753e-01  2.0036982919922233e-01  2.3441951756643775e-01  2.6983994587587951e-01 
 3.0657670999945963e-01  3.4456115946449822e-01  3.8370931803799257e-01  4.2392083108823020e-01 
 4.6507795816658987e-01  5.0704463149598655e-01  5.4966560329075809e-01  5.9276570701514553e-01 
 6.3614925975609027e-01  6.7959963477429353e-01  7.2287903492931849e-01  7.6572849896602546e-01 
 8.0786817350720763e-01  8.4899788391991293e-01  8.8879803690186221e-01  9.2693088655278499e-01 
 9.6304219373576117e-01  9.9676330557004666e-01  1.0277136778126754e+00  1.0555038575620650e+00 
 1.0797389370560793e+00  1.1000224812557429e+00  1.1159609223560973e+00  1.1271684033463285e+00 
 1.1332720403012795e+00  1.1339175593613391e+00  1.1287752495589436e+00  1.1175461571004399e+00 
 1.0999684308337949e+00  1.0758237129574828e+00  1.0449434541719567e+00  1.0072150191304752e+00 
 9.6258743692507798e-01  9.1107664315645875e-01  8.5277005553708840e-01  7.8783032453926161e-01 
 7.1649810478618325e-01  6.3909370202525528e-01  5.5601746481943681e-01  4.6774880959587573e-01 
 3.7484379230156267e-01  2.7793116938035156e-01  1.7770692467245150e-01  7.4927276550474875e-02 
 -2.9599779643275922e-02  -1.3502429597056065e-01  -2.4046542147523209e-01  -3.4502349213204681e-01 
 -4.4779293525810432e-01  -5.4787572551121022e-01  -6.4439509899666680e-01  -7.3650921022390647e-01 
 -8.2342440608252343e-01  -9.0440779348616307e-01  -9.7879879356440458e-01  -1.0460194043552236e+00 
 -1.1055829332336784e+00  -1.1571010059874169e+00  -1.2002887075226991e+00  -1.2349677574572662e+00 
 -1.2610676728820305e+00  -1.2786248775379125e+00  -1.2877798606564805e+00  -1.2887724003996650e+00 
 -1.2819350018322042e+00  -1.2676847169715426e+00  -1.2465135571076957e+00  -1.2189777463011719e+00 
 -1.1856860952131945e+00  -1.1472877950811782e+00  -1.1044599415157728e+00  -1.0578950964289155e+00 
 -1.0082891841519168e+00  -9.5632999563832277e-01  -9.0268654400157922e-01  -8.4799947725031688e-01 
 -7.9287271186182529e-01  -7.3786640574027884e-01  -6.8349134306602244e-01  -6.3020475836401957e-01 
 -5.7840758442805307e-01  -5.2844306992011369e-01  -4.8059667863762512e-01  -4.3509715441640678e-01 
 -3.9211861392228831e-01  -3.5178351438070493e-01  -3.1416633451899639e-01  -2.7929780431579976e-01 
 -2.4716952201648512e-01  -2.1773880456743119e-01  -1.9093362931320518e-01  -1.6665753959193133e-01 
 -1.4479440377815764e-01  -1.2521293596544783e-01  -1.0777090424557484e-01  -9.2318972353141432e-02 
 -7.8704136980293216e-02  -6.6772739697100139e-02  -5.6373046786608129e-02  -4.7357402763847166e-02 
 -3.9583973698397036e-02  -3.2918104683304465e-02  -2.7233321959534321e-02  -2.2412014451229697e-02 
 -1.8345831982726709e-02  -1.4935838453364660e-02  -1.2092457978129341e-02  -9.7352506994981304e-03 
 -7.7925528708189026e-03  -6.2010131176230034e-03  -4.9050536939126161e-03  -3.8562822332210657e-03 
 -3.0128760902368304e-03  -2.3389579943169305e-03  -1.8039784824650487e-03  -1.3821175163637881e-03 
 -1.0517148654986903e-03  -7.9473629046089870e-04  -5.9628030581594237e-04  -4.4412834872786241e-04 
 -3.2833952523222661e-04  -2.4088974121981083e-04  -1.7535393372455910e-04  -1.2662927944182562e-04 
 -9.0696647499219688e-05  -6.4417156110187579e-05  -4.5360460332333320e-05  -3.1661313010385908e-05 
 -2.1900975896324516e-05  -1.5010186889636052e-05  -1.0190588507022759e-05  -6.8517702301438194e-06 
 -4.5613544543645937e-06  -3.0058462269811088e-06  -1.9602578097100328e-06  -1.2647999304761999e-06 
 -8.0719495686279008e-07  -5.0940798451451068e-07  -3.1780695382666389e-07  -1.9595116130166314e-07 
 -1.1936920163351490e-07  -7.1823506484485458e-08  -4.2671432946281046e-08  -2.5024596681238769e-08 
 -1.4481566015777229e-08  -8.2668144129347019e-09  -4.6535773398129448e-09  -2.5823181356231055e-09 
 -1.4120519071381337e-09  -7.6058820868948653e-10  -4.0340600700614056e-10  -2.1060088155021016e-10 
 -1.0817596134344041e-10  -5.4648206924521539e-11  -2.7140195206781781e-11  -1.3245179685811296e-11 
 -6.3491624967272201e-12  -2.9880695589996620e-12  -1.3800378254083302e-12  -6.2518294361636474e-13 
 -2.7761921529188823e-13  -1.2081279441018425e-13  -5.1497546823881591e-14  -2.1484538178022819e-14 
 -8.7780400834196167e-15  -3.5096420777981898e-15  -1.3537611428781585e-15  -5.2752208501969022e-16 
 -2.0106500525189048e-16  -7.9354411354355419e-17  -1.7589963658101319e-17  -1.5572119459051604e-17 
 0.0000000000000000e+00  0.0000000000000000e+00  0.0000000000000000e+00  0.0000000000000000e+00 
 0.0000000000000000e+00  0.0000000000000000e+00  0.0000000000000000e+00  0.0000000000000000e+00 
 0.0000000000000000e+00  0.0000000000000000e+00  0.0000000000000000e+00  0.0000000000000000e+00 
 0.0000000000000000e+00  0.0000000000000000e+00  0.0000000000000000e+00  0.0000000000000000e+00 
 0.0000000000000000e+00  0.0000000000000000e+00  0.0000000000000000e+00  0.0000000000000000e+00 
 0.0000000000000000e+00  0.0000000000000000e+00  0.0000000000000000e+00  0.0000000000000000e+00 
 0.0000000000000000e+00  0.0000000000000000e+00  0.0000000000000000e+00  0.0000000000000000e+00 
 0.0000000000000000e+00  0.0000000000000000e+00  0.0000000000000000e+00  0.0000000000000000e+00 
 0.0000000000000000e+00  0.0000000000000000e+00  0.0000000000000000e+00  0.0000000000000000e+00 
 0.0000000000000000e+00  0.0000000000000000e+00  0.0000000000000000e+00  0.0000000000000000e+00 
 0.0000000000000000e+00  0.0000000000000000e+00  0.0000000000000000e+00  0.0000000000000000e+00 
 0.0000000000000000e+00  0.0000000000000000e+00  0.0000000000000000e+00  0.0000000000000000e+00 
 0.0000000000000000e+00  0.0000000000000000e+00  0.0000000000000000e+00  0.0000000000000000e+00 
 0.0000000000000000e+00  0.0000000000000000e+00  0.0000000000000000e+00  0.0000000000000000e+00 
 0.0000000000000000e+00  0.0000000000000000e+00  0.0000000000000000e+00  0.0000000000000000e+00 
 0.0000000000000000e+00  0.0000000000000000e+00  0.0000000000000000e+00  0.0000000000000000e+00 
 0.0000000000000000e+00  0.0000000000000000e+00  0.0000000000000000e+00  0.0000000000000000e+00 
 0.0000000000000000e+00  0.0000000000000000e+00  0.0000000000000000e+00  0.0000000000000000e+00 
 0.0000000000000000e+00  0.0000000000000000e+00  0.0000000000000000e+00  0.0000000000000000e+00 
 0.0000000000000000e+00  0.0000000000000000e+00  0.0000000000000000e+00  0.0000000000000000e+00 
 0.0000000000000000e+00  0.0000000000000000e+00  0.0000000000000000e+00  0.0000000000000000e+00 
 0.0000000000000000e+00  0.0000000000000000e+00  0.0000000000000000e+00  0.0000000000000000e+00 
 0.0000000000000000e+00  0.0000000000000000e+00  0.0000000000000000e+00  0.0000000000000000e+00 
 0.0000000000000000e+00  0.0000000000000000e+00  0.0000000000000000e+00  0.0000000000000000e+00 
 0.0000000000000000e+00  0.0000000000000000e+00  0.0000000000000000e+00  0.0000000000000000e+00 
 0.0000000000000000e+00  0.0000000000000000e+00  0.0000000000000000e+00  0.0000000000000000e+00 
 0.0000000000000000e+00  0.0000000000000000e+00  0.0000000000000000e+00  0.0000000000000000e+00 
 0.0000000000000000e+00  0.0000000000000000e+00  0.0000000000000000e+00  0.0000000000000000e+00 
 0.0000000000000000e+00  0.0000000000000000e+00  0.0000000000000000e+00  0.0000000000000000e+00 
 0.0000000000000000e+00  0.0000000000000000e+00  0.0000000000000000e+00  0.0000000000000000e+00 
 0.0000000000000000e+00  0.0000000000000000e+00  0.0000000000000000e+00  0.0000000000000000e+00 
 0.0000000000000000e+00  0.0000000000000000e+00  0.0000000000000000e+00  0.0000000000000000e+00 
 0.0000000000000000e+00  0.0000000000000000e+00  0.0000000000000000e+00  0.0000000000000000e+00 
 0.0000000000000000e+00  0.0000000000000000e+00  0.0000000000000000e+00  0.0000000000000000e+00 
 0.0000000000000000e+00  0.0000000000000000e+00  0.0000000000000000e+00  0.0000000000000000e+00 
 0.0000000000000000e+00  0.0000000000000000e+00  0.0000000000000000e+00  0.0000000000000000e+00 
 0.0000000000000000e+00  0.0000000000000000e+00  0.0000000000000000e+00  0.0000000000000000e+00 
 0.0000000000000000e+00  0.0000000000000000e+00  0.0000000000000000e+00  0.0000000000000000e+00 
 0.0000000000000000e+00  0.0000000000000000e+00  0.0000000000000000e+00  0.0000000000000000e+00 
 0.0000000000000000e+00  0.0000000000000000e+00  0.0000000000000000e+00  0.0000000000000000e+00 
 0.0000000000000000e+00  0.0000000000000000e+00  0.0000000000000000e+00  0.0000000000000000e+00 
 0.0000000000000000e+00  0.0000000000000000e+00  0.0000000000000000e+00  0.0000000000000000e+00 
 0.0000000000000000e+00  0.0000000000000000e+00  0.0000000000000000e+00  0.0000000000000000e+00 
 0.0000000000000000e+00  0.0000000000000000e+00  0.0000000000000000e+00  0.0000000000000000e+00 
 0.0000000000000000e+00  0.0000000000000000e+00  0.0000000000000000e+00  0.0000000000000000e+00 
 0.0000000000000000e+00  0.0000000000000000e+00  0.0000000000000000e+00  0.0000000000000000e+00 
 0.0000000000000000e+00  0.0000000000000000e+00  0.0000000000000000e+00  0.0000000000000000e+00 
 0.0000000000000000e+00  0.0000000000000000e+00  0.0000000000000000e+00  0.0000000000000000e+00 
 0.0000000000000000e+00  0.0000000000000000e+00  0.0000000000000000e+00  0.0000000000000000e+00 
 0.0000000000000000e+00  0.0000000000000000e+00  0.0000000000000000e+00  0.0000000000000000e+00 
 0.0000000000000000e+00  0.0000000000000000e+00  0.0000000000000000e+00  0.0000000000000000e+00 
 0.0000000000000000e+00  0.0000000000000000e+00  0.0000000000000000e+00  0.0000000000000000e+00 
 0.0000000000000000e+00  0.0000000000000000e+00  0.0000000000000000e+00  0.0000000000000000e+00 
 0.0000000000000000e+00  0.0000000000000000e+00  0.0000000000000000e+00  0.0000000000000000e+00 
 0.0000000000000000e+00  0.0000000000000000e+00  0.0000000000000000e+00  0.0000000000000000e+00 
 0.0000000000000000e+00  0.0000000000000000e+00  0.0000000000000000e+00  0.0000000000000000e+00 
 0.0000000000000000e+00  0.0000000000000000e+00  0.0000000000000000e+00  0.0000000000000000e+00 
 0.0000000000000000e+00  0.0000000000000000e+00  0.0000000000000000e+00  0.0000000000000000e+00 
 0.0000000000000000e+00  0.0000000000000000e+00  0.0000000000000000e+00  0.0000000000000000e+00 
 0.0000000000000000e+00  0.0000000000000000e+00  0.0000000000000000e+00  0.0000000000000000e+00 
 0.0000000000000000e+00  0.0000000000000000e+00  0.0000000000000000e+00  0.0000000000000000e+00 
 0.0000000000000000e+00  0.0000000000000000e+00  0.0000000000000000e+00  0.0000000000000000e+00 
 0.0000000000000000e+00  0.0000000000000000e+00  0.0000000000000000e+00  0.0000000000000000e+00 
 0.0000000000000000e+00  0.0000000000000000e+00  0.0000000000000000e+00  0.0000000000000000e+00 
 0.0000000000000000e+00  0.0000000000000000e+00  0.0000000000000000e+00  0.0000000000000000e+00 
 0.0000000000000000e+00  0.0000000000000000e+00  0.0000000000000000e+00  0.0000000000000000e+00 
 0.0000000000000000e+00  0.0000000000000000e+00  0.0000000000000000e+00  0.0000000000000000e+00 
 0.0000000000000000e+00  0.0000000000000000e+00  0.0000000000000000e+00  0.0000000000000000e+00 
 0.0000000000000000e+00  0.0000000000000000e+00  0.0000000000000000e+00  0.0000000000000000e+00 
 0.0000000000000000e+00 
  </PP_BETA>
  <PP_BETA>
  2  1      Beta    L
  1189  
 -3.5454317737582120e-09  -3.6388218089729494e-09  -3.7346718262698373e-09  -3.8330466239088337e-09 
 -3.9340127069975069e-09  -4.0376383324509257e-09  -4.1439935551360084e-09  -4.2531502752312065e-09 
 -4.3651822868337760e-09  -4.4801653278473910e-09  -4.5981771311838706e-09  -4.7192974773135622e-09 
 -4.8436082481999866e-09  -4.9711934826550639e-09  -5.1021394331527154e-09  -5.2365346241385842e-09 
 -5.3744699118761488e-09  -5.5160385458688849e-09  -5.6613362319005270e-09  -5.8104611967356378e-09 
 -5.9635142545249207e-09  -6.1205988749592074e-09  -6.2818212532189524e-09  -6.4472903817661448e-09 
 -6.6171181240275191e-09  -6.7914192900182352e-09  -6.9703117139580523e-09  -7.1539163339315655e-09 
 -7.3423572736468754e-09  -7.5357619263482277e-09  -7.7342610409383369e-09  -7.9379888103698383e-09 
 -8.1470829623646586e-09  -8.3616848525232354e-09  -8.5819395598863420e-09  -8.8079959850138983e-09 
 -9.0400069506473697e-09  -9.2781293050239214e-09  -9.5225240279115727e-09  -9.7733563394377071e-09 
 -1.0030795811784114e-08  -1.0295016483824244e-08  -1.0566196978779964e-08  -1.0844520624977900e-08 
 -1.1130175579785905e-08  -1.1423354956814932e-08  -1.1724256956470830e-08  -1.2033084999945687e-08 
 -1.2350047866737938e-08  -1.2675359835795293e-08  -1.3009240830375568e-08  -1.3351916566722723e-08 
 -1.3703618706660140e-08  -1.4064585014202295e-08  -1.4435059516292433e-08  -1.4815292667773953e-08 
 -1.5205541520707320e-08  -1.5606069898147034e-08  -1.6017148572495945e-08  -1.6439055448557534e-08 
 -1.6872075751410320e-08  -1.7316502219230257e-08  -1.7772635301193434e-08  -1.8240783360590523e-08 
 -1.8721262883292314e-08  -1.9214398691705660e-08  -1.9720524164366468e-08  -2.0239981461315281e-08 
 -2.0773121755410994e-08  -2.1320305469735968e-08  -2.1881902521257378e-08  -2.2458292570902958e-08 
 -2.3049865280227584e-08  -2.3657020574838395e-08  -2.4280168914759515e-08  -2.4919731571919076e-08 
 -2.5576140914943816e-08  -2.6249840701457983e-08  -2.6941286378078468e-08  -2.7650945388315213e-08 
 -2.8379297488579606e-08  -2.9126835072518299e-08  -2.9894063503889848e-08  -3.0681501458209017e-08 
 -3.1489681273391107e-08  -3.2319149309632673e-08  -3.3170466318771077e-08  -3.4044207823373722e-08 
 -3.4940964505812789e-08  -3.5861342607588859e-08  -3.6805964339172063e-08  -3.7775468300640921e-08 
 -3.8770509913397994e-08  -3.9791761863261546e-08  -4.0839914555223975e-08  -4.1915676580191846e-08 
 -4.3019775194020866e-08  -4.4152956809166602e-08  -4.5315987499287647e-08  -4.6509653517139432e-08 
 -4.7734761826111297e-08  -4.8992140645762108e-08  -5.0282640011728692e-08  -5.1607132350380535e-08 
 -5.2966513068613038e-08  -5.4361701159175028e-08  -5.5793639821941963e-08  -5.7263297101555028e-08 
 -5.8771666541852692e-08  -6.0319767857544668e-08  -6.1908647623576635e-08  -6.3539379982652619e-08 
 -6.5213067371395408e-08  -6.6930841265634255e-08  -6.8693862945323016e-08  -7.0503324279610516e-08 
 -7.2360448532584755e-08  -7.4266491190245300e-08  -7.6222740809258643e-08  -7.8230519888068368e-08 
 -8.0291185760951897e-08  -8.2406131515631309e-08  -8.4576786935045105e-08  -8.6804619463939662e-08 
 -8.9091135200911014e-08  -9.1437879916582941e-08  -9.3846440098606533e-08  -9.6318444024178581e-08 
 -9.8855562860819740e-08  -1.0145951179614130e-07  -1.0413205119737526e-07  -1.0687498780144401e-07 
 -1.0969017593638272e-07  -1.1257951877492776e-07  -1.1554496962113050e-07  -1.1858853323086261e-07 
 -1.2171226716709974e-07  -1.2491828319090712e-07  -1.2820874868906849e-07  -1.3158588813931324e-07 
 -1.3505198461414082e-07  -1.3860938132426322e-07  -1.4226048320269206e-07  -1.4600775853056102e-07 
 -1.4985374060577221e-07  -1.5380102945558767e-07  -1.5785229359434540e-07  -1.6201027182746554e-07 
 -1.6627777510297526e-07  -1.7065768841180688e-07  -1.7515297273815974e-07  -1.7976666706121839e-07 
 -1.8450189040960755e-07  -1.8936184396996650e-07  -1.9434981325105744e-07  -1.9946917030488189e-07 
 -2.0472337600630580e-07  -2.1011598239271811e-07  -2.1565063506534105e-07  -2.2133107565376864e-07 
 -2.2716114434543801e-07  -2.3314478248172285e-07  -2.3928603522241247e-07  -2.4558905428037280e-07 
 -2.5205810072823836e-07  -2.5869754787904291e-07  -2.6551188424271899e-07  -2.7250571656047611e-07 
 -2.7968377291910534e-07  -2.8705090594732691e-07  -2.9461209609630923e-07  -3.0237245500662908e-07 
 -3.1033722896388635e-07  -3.1851180244537298e-07  -3.2690170176014110e-07  -3.3551259878496197e-07 
 -3.4435031479869517e-07  -3.5342082441764608e-07  -3.6273025963459275e-07  -3.7228491396420379e-07 
 -3.8209124669764452e-07  -3.9215588726924604e-07  -4.0248563973820145e-07  -4.1308748738832786e-07 
 -4.2396859744894445e-07  -4.3513632594015652e-07  -4.4659822264571878e-07  -4.5836203621692494e-07 
 -4.7043571941088314e-07  -4.8282743446685539e-07  -4.9554555862411107e-07  -5.0859868978520589e-07 
 -5.2199565232838032e-07  -5.3574550307309419e-07  -5.4985753740266849e-07  -5.6434129554821605e-07 
 -5.7920656903809828e-07  -5.9446340731723757e-07  -6.1012212454080395e-07  -6.2619330654685389e-07 
 -6.4268781801261631e-07  -6.5961680979928294e-07  -6.7699172649025779e-07  -6.9482431412798022e-07 
 -7.1312662815450339e-07  -7.3191104156129576e-07  -7.5119025325361766e-07  -7.7097729663529549e-07 
 -7.9128554841958141e-07  -8.1212873767209616e-07  -8.3352095509198305e-07  -8.5547666253749042e-07 
 -8.7801070280249857e-07  -9.0113830965053103e-07  -9.2487511811307793e-07  -9.4923717505915669e-07 
 -9.7424095004332788e-07  -9.9990334643935855e-07  -1.0262417128672168e-06  -1.0532738549210519e-06 
 -1.0810180472060065e-06  -1.1094930456921852e-06  -1.1387181003939489e-06  -1.1687129683831869e-06 
 -1.1994979271454164e-06  -1.2310937882875695e-06  -1.2635219116069195e-06  -1.2968042195305939e-06 
 -1.3309632119353026e-06  -1.3660219813575493e-06  -1.4020042286043758e-06  -1.4389342787753320e-06 
 -1.4768370977064418e-06  -1.5157383088472669e-06  -1.5556642105825369e-06  -1.5966417940100544e-06 
 -1.6386987611866985e-06  -1.6818635438552283e-06  -1.7261653226641933e-06  -1.7716340468940788e-06 
 -1.8183004547030922e-06  -1.8661960939061562e-06  -1.9153533433012263e-06  -1.9658054345572633e-06 
 -2.0175864746787451e-06  -2.0707314690619046e-06  -2.1252763451581803e-06  -2.1812579767609674e-06 
 -2.2387142089320091e-06  -2.2976838835843643e-06  -2.3582068657391561e-06  -2.4203240704738796e-06 
 -2.4840774905805301e-06  -2.5495102249521528e-06  -2.6166665077170714e-06  -2.6855917381403797e-06 
 -2.7563325113131985e-06  -2.8289366496499385e-06  -2.9034532352153748e-06  -2.9799326429030596e-06 
 -3.0584265744874953e-06  -3.1389880935734200e-06  -3.2216716614652913e-06  -3.3065331739817027e-06 
 -3.3936299992392907e-06  -3.4830210164318106e-06  -3.5747666556306346e-06  -3.6689289386333501e-06 
 -3.7655715208883593e-06  -3.8647597345235380e-06  -3.9665606325081823e-06  -4.0710430339781852e-06 
 -4.1782775707546945e-06  -4.2883367350881804e-06  -4.4012949286597310e-06  -4.5172285128730917e-06 
 -4.6362158604708818e-06  -4.7583374085105779e-06  -4.8836757127353274e-06  -5.0123155033768740e-06 
 -5.1443437424280198e-06  -5.2798496824230873e-06  -5.4189249267667943e-06  -5.5616634916513491e-06 
 -5.7081618696045498e-06  -5.8585190947106716e-06  -6.0128368095492300e-06  -6.1712193338963269e-06 
 -6.3337737352348038e-06  -6.5006099011212336e-06  -6.6718406134582500e-06  -6.8475816247229788e-06 
 -7.0279517362076998e-06  -7.2130728783190346e-06  -7.4030701929907878e-06  -7.5980721182661810e-06 
 -7.7982104751076970e-06  -8.0036205564929913e-06  -8.2144412188567212e-06  -8.4308149759407373e-06 
 -8.6528880951151019e-06  -8.8808106962360787e-06  -9.1147368531069048e-06  -9.3548246976105599e-06 
 -9.6012365265840498e-06  -9.8541389115078992e-06  -1.0113702811083090e-05  -1.0380103686772473e-05 
 -1.0653521621385252e-05  -1.0934141440783254e-05  -1.1222152838791812e-05  -1.1517750505400558e-05 
 -1.1821134258338993e-05  -1.2132509178116996e-05  -1.2452085746620560e-05  -1.2780079989357793e-05 
 -1.3116713621448766e-05  -1.3462214197460883e-05  -1.3816815265188517e-05  -1.4180756523481533e-05 
 -1.4554283984229853e-05  -1.4937650138612730e-05  -1.5331114127725051e-05  -1.5734941917696616e-05 
 -1.6149406479421558e-05  -1.6574787973020096e-05  -1.7011373937156833e-05  -1.7459459483343643e-05 
 -1.7919347495357808e-05  -1.8391348833911349e-05  -1.8875782546707621e-05  -1.9372976084029815e-05 
 -1.9883265520003454e-05  -2.0406995779686441e-05  -2.0944520872135742e-05  -2.1496204129611742e-05 
 -2.2062418453079028e-05  -2.2643546564171021e-05  -2.3239981263787997e-05  -2.3852125697502979e-05 
 -2.4480393627955412e-05  -2.5125209714415007e-05  -2.5787009799706327e-05  -2.6466241204686958e-05 
 -2.7163363030477333e-05  -2.7878846468647643e-05  -2.8613175119570766e-05  -2.9366845319155104e-05 
 -3.0140366474179090e-05  -3.0934261406453659e-05  -3.1749066706043199e-05  -3.2585333093786935e-05 
 -3.3443625793360760e-05  -3.4324524913133825e-05  -3.5228625838076948e-05  -3.6156539631985653e-05 
 -3.7108893450290840e-05  -3.8086330963735212e-05  -3.9089512793197985e-05  -4.0119116955967155e-05 
 -4.1175839323752892e-05  -4.2260394092755213e-05  -4.3373514266102420e-05  -4.4515952148980065e-05 
 -4.5688479856791448e-05  -4.6891889836682896e-05  -4.8126995402794194e-05  -4.9394631285581625e-05 
 -5.0695654195594426e-05  -5.2030943402075991e-05  -5.3401401326779554e-05  -5.4807954153397628e-05 
 -5.6251552453013953e-05  -5.7733171825993440e-05  -5.9253813560743333e-05  -6.0814505309787886e-05 
 -6.2416301783601249e-05  -6.4060285462670910e-05  -6.5747567328261632e-05  -6.7479287612369422e-05 
 -6.9256616567366840e-05  -7.1080755255852640e-05  -7.2952936361229441e-05  -7.4874425019555779e-05 
 -7.6846519673220217e-05  -7.8870552947011226e-05  -8.0947892547164184e-05  -8.3079942183984364e-05 
 -8.5268142518660011e-05  -8.7513972134899002e-05  -8.9818948536035225e-05  -9.2184629168260999e-05 
 -9.4612612470684597e-05  -9.7104538952896388e-05  -9.9662092300767339e-05  -1.0228700051122701e-04 
 -1.0498103705675701e-04  -1.0774602208040057e-04  -1.1058382362206105e-04  -1.1349635887692962e-04 
 -1.1648559548687013e-04  -1.1955355286561828e-04  -1.2270230355869547e-04  -1.2593397463892602e-04 
 -1.2925074913849711e-04  -1.3265486751851995e-04  -1.3614862917705724e-04  -1.3973439399664250e-04 
 -1.4341458393229617e-04  -1.4719168464111490e-04  -1.5106824715451067e-04  -1.5504688959420518e-04 
 -1.5913029893312690e-04  -1.6332123280238001e-04  -1.6762252134547236e-04  -1.7203706912104886e-04 
 -1.7656785705536657e-04  -1.8121794444582616e-04  -1.8599047101687294e-04  -1.9088865902962333e-04 
 -1.9591581544662807e-04  -2.0107533415316504e-04  -2.0637069823657150e-04  -2.1180548232507918e-04 
 -2.1738335498771221e-04  -2.2310808119682242e-04  -2.2898352485488469e-04  -2.3501365138719449e-04 
 -2.4120253040220562e-04  -2.4755433842121307e-04  -2.5407336167920037e-04  -2.6076399899866462e-04 
 -2.6763076473832251e-04  -2.7467829181860199e-04  -2.8191133482591610e-04  -2.8933477319772387e-04 
 -2.9695361449048722e-04  -3.0477299773261173e-04  -3.1279819686460143e-04  -3.2103462426861151e-04 
 -3.2948783438974420e-04  -3.3816352745139863e-04  -3.4706755326709815e-04  -3.5620591515127351e-04 
 -3.6558477393150110e-04  -3.7521045206481636e-04  -3.8508943786074964e-04  -3.9522838981379758e-04 
 -4.0563414104810629e-04  -4.1631370387727637e-04  -4.2727427448212643e-04  -4.3852323770949056e-04 
 -4.5006817199508145e-04  -4.6191685441355606e-04  -4.7407726585902403e-04  -4.8655759635929288e-04 
 -4.9936625052718917e-04  -5.1251185315247239e-04  -5.2600325493783640e-04  -5.3984953838260978e-04 
 -5.5406002381791551e-04  -5.6864427559705341e-04  -5.8361210844496878e-04  -5.9897359397082873e-04 
 -6.1473906734773318e-04  -6.3091913416379213e-04  -6.4752467744871465e-04  -6.6456686488037381e-04 
 -6.8205715617576938e-04  -7.0000731067092811e-04  -7.1842939509444178e-04  -7.3733579153936074e-04 
 -7.5673920563839410e-04  -7.7665267494733833e-04  -7.9708957754183885e-04  -8.1806364083275899e-04 
 -8.3958895060536661e-04  -8.6167996028789842e-04  -8.8435150045499354e-04  -9.0761878857167227e-04 
 -9.3149743898369682e-04  -9.5600347316023850e-04  -9.8115333019484631e-04  -1.0069638775709649e-03 
 -1.0334524221982673e-03  -1.0606367217262361e-03  -1.0885349961415880e-03  -1.1171659396561899e-03 
 -1.1465487328923857e-03  -1.1767030553725796e-03  -1.2076490983202767e-03  -1.2394075777798343e-03 
 -1.2719997480621480e-03  -1.3054474155240487e-03  -1.3397729526887538e-03  -1.3749993127154729e-03 
 -1.4111500442258948e-03  -1.4482493064956637e-03  -1.4863218850191724e-03  -1.5253932074558666e-03 
 -1.5654893599666841e-03  -1.6066371039490889e-03  -1.6488638931797513e-03  -1.6921978913734018e-03 
 -1.7366679901671797e-03  -1.7823038275394858e-03  -1.8291358066726735e-03  -1.8771951152689965e-03 
 -1.9265137453292698e-03  -1.9771245134040526e-03  -2.0290610813267669e-03  -2.0823579774391907e-03 
 -2.1370506183185371e-03  -2.1931753310169290e-03  -2.2507693758227901e-03  -2.3098709695547615e-03 
 -2.3705193093982902e-03  -2.4327545972952060e-03  -2.4966180648967372e-03  -2.5621519990903590e-03 
 -2.6293997681109803e-03  -2.6984058482468344e-03  -2.7692158511506541e-03  -2.8418765517664543e-03 
 -2.9164359168823806e-03  -2.9929431343198956e-03  -3.0714486427696986e-03  -3.1520041622842545e-03 
 -3.2346627254373145e-03  -3.3194787091598427e-03  -3.4065078672625747e-03  -3.4958073636539304e-03 
 -3.5874358062633980e-03  -3.6814532816783563e-03  -3.7779213905037730e-03  -3.8769032834521898e-03 
 -3.9784636981726254e-03  -4.0826689968249822e-03  -4.1895872044073164e-03  -4.2992880478418937e-03 
 -4.4118429958258393e-03  -4.5273252994510130e-03  -4.6458100335978721e-03  -4.7673741391055548e-03 
 -4.8920964657217540e-03  -5.0200578158327101e-03  -5.1513409889743667e-03  -5.2860308271230156e-03 
 -5.4242142607638108e-03  -5.5659803557328094e-03  -5.7114203608278329e-03  -5.8606277561809236e-03 
 -6.0136983023835137e-03  -6.1707300903539875e-03  -6.3318235919343204e-03  -6.4970817112006245e-03 
 -6.6666098364707039e-03  -6.8405158929868643e-03  -7.0189103962518262e-03  -7.2019065059912395e-03 
 -7.3896200807120347e-03  -7.5821697328248552e-03  -7.7796768842914006e-03  -7.9822658227566689e-03 
 -8.1900637581191309e-03  -8.4032008794883671e-03  -8.6218104124736426e-03  -8.8460286767420813e-03 
 -9.0759951437781317e-03  -9.3118524947703087e-03  -9.5537466785441168e-03  -9.8018269694519350e-03 
 -1.0056246025123563e-02  -1.0317159943971532e-02  -1.0584728322337490e-02  -1.0859114311154425e-02 
 -1.1140484671989491e-02  -1.1429009832322094e-02  -1.1724863939897008e-02  -1.2028224915982781e-02 
 -1.2339274507347415e-02  -1.2658198336752559e-02  -1.2985185951748789e-02  -1.3320430871537343e-02 
 -1.3664130631646771e-02  -1.4016486826152098e-02  -1.4377705147142891e-02  -1.4747995421124168e-02 
 -1.5127571642010403e-02  -1.5516652000346402e-02  -1.5915458908360020e-02  -1.6324219020424371e-02 
 -1.6743163248472963e-02  -1.7172526771877319e-02  -1.7612549041263331e-02  -1.8063473775697562e-02 
 -1.8525548952638523e-02  -1.8999026790000168e-02  -1.9484163719628141e-02  -1.9981220351435649e-02 
 -2.0490461427395711e-02  -2.1012155764521909e-02  -2.1546576185912179e-02  -2.2093999438858404e-02 
 -2.2654706098956257e-02  -2.3228980459071149e-02  -2.3817110401931772e-02  -2.4419387255039178e-02 
 -2.5036105626480051e-02  -2.5667563220136989e-02  -2.6314060628673374e-02  -2.6975901102564655e-02 
 -2.7653390293314997e-02  -2.8346835968873274e-02  -2.9056547699116572e-02  -2.9782836509120839e-02 
 -3.0526014497775037e-02  -3.1286394419126048e-02  -3.2064289223651468e-02  -3.2860011556465549e-02 
 -3.3673873209250152e-02  -3.4506184522477161e-02  -3.5357253734248674e-02  -3.6227386271827748e-02 
 -3.7116883981646434e-02  -3.8026044293304806e-02  -3.8955159312735896e-02  -3.9904514839403431e-02 
 -4.0874389302021426e-02  -4.1865052606916059e-02  -4.2876764892742392e-02  -4.3909775184832509e-02 
 -4.4964319941989898e-02  -4.6040621488061068e-02  -4.7138886320078052e-02  -4.8259303284219734e-02 
 -4.9402041610234274e-02  -5.0567248794345807e-02  -5.1755048319980360e-02  -5.2965537204940474e-02 
 -5.4198783362897122e-02  -5.5454822766251813e-02  -5.6733656396574766e-02  -5.8035246967903922e-02 
 -5.9359515407233762e-02  -6.0706337075492438e-02  -6.2075537711231595e-02  -6.3466889078092559e-02 
 -6.4880104295923169e-02  -6.6314832834115475e-02  -6.7770655144406444e-02  -6.9247076908942148e-02 
 -7.0743522877925985e-02  -7.2259330269577746e-02  -7.3793741703490123e-02  -7.5345897636730205e-02 
 -7.6914828270208499e-02  -7.8499444890960057e-02  -8.0098530613974123e-02  -8.1710730485177352e-02 
 -8.3334540905009122e-02  -8.4968298329821570e-02  -8.6610167206046793e-02  -8.8258127089704194e-02 
 -8.9909958901407863e-02  -9.1563230264549933e-02  -9.3215279871820295e-02  -9.4863200822667804e-02 
 -9.6503822871749453e-02  -9.8133693525828944e-02  -9.9749057924077081e-02  -1.0134583743418277e-01 
 -1.0291960689432686e-01  -1.0446557042870594e-01  -1.0597853576218606e-01  -1.0745288695767671e-01 
 -1.0888255549813558e-01  -1.1026098963365766e-01  -1.1158112191315629e-01  -1.1283533481947948e-01 
 -1.1401542442681896e-01  -1.1511256199984056e-01  -1.1611725345529403e-01  -1.1701929660908182e-01 
 -1.1780773613489864e-01  -1.1847081616500678e-01  -1.1899593046922186e-01  -1.1936957015550605e-01 
 -1.1957726884428406e-01  -1.1960354527947957e-01  -1.1943184335219681e-01  -1.1904446952833096e-01 
 -1.1842252768956903e-01  -1.1754585141833637e-01  -1.1639293378178857e-01  -1.1494085469819888e-01 
 -1.1316520600144130e-01  -1.1104001435616558e-01  -1.0853766221812287e-01  -1.0562880708123698e-01 
 -1.0228229930626120e-01  -9.8465098885177418e-02  -9.4142191561833885e-02  -8.9276504802880796e-02 
 -8.3828824194511334e-02  -7.7757710930091900e-02  -7.1019421152285808e-02  -6.3567828020638470e-02 
 -5.5354347492628450e-02  -4.6327868932867923e-02  -3.6434691801649946e-02  -2.5618469820605640e-02 
 -1.3820164169514969e-02  -9.7800743421203669e-04  1.2972519799598545e-02  2.8098697628742814e-02 
 4.4470558522908460e-02  6.2160859558789520e-02  8.1245032533906761e-02  1.0180110909452766e-01 
 1.2390961781180825e-01  1.4765344994463528e-01  1.7311769044036224e-01  2.0038941055091156e-01 
 2.2955741828613685e-01  2.6071196279608827e-01  2.9394438867467532e-01  3.2934673611805160e-01 
 3.6701128285946127e-01  4.0703002384845172e-01  4.4949408475573527e-01  4.9449306557677403e-01 
 5.4211431088850415e-01  5.9244210369642414e-01  6.4555678030532382e-01  7.0153376426829273e-01 
 7.6044251822731124e-01  8.2234541336496669e-01  8.8729651725190661e-01  9.5534030210607002e-01 
 1.0265102768852268e+00  1.1008275482184064e+00  1.1782993169457325e+00  1.2589173189790599e+00 
 1.3426562213126070e+00  1.4294719862929544e+00  1.5193002196885492e+00  1.6120545206592052e+00 
 1.7076248543915271e+00  1.8058759709041461e+00  1.9066458962981194e+00  2.0097445254858877e+00 
 2.1149523481200019e+00  2.2220193419945886e+00  2.3306640705309563e+00  2.4405730229925875e+00 
 2.5514002377011940e+00  2.6627672496237791e+00  2.7742634041368768e+00  2.8854465783961620e+00 
 2.9958443503833707e+00  3.1049556531906024e+00  3.2122529482543345e+00  3.3171849458921723e+00 
 3.4191798944680460e+00  3.5176494506983844e+00  3.6119931329585455e+00  3.7016033469847138e+00 
 3.7858709592363549e+00  3.8641913776578134e+00  3.9359710830599304e+00  4.0006345373609733e+00 
 4.0576313781014601e+00  4.1064437926520556e+00  4.1465939510403826e+00  4.1776513639598454e+00 
 4.1992400228419067e+00  4.2110451723259157e+00  4.2128195624040998e+00  4.2043890282176859e+00 
 4.1856572501110909e+00  4.1566095552121505e+00  4.1173156345053190e+00  4.0679310660235730e+00 
 4.0086975552381405e+00  3.9399418277454248e+00  3.8620731366727563e+00  3.7755793775996747e+00 
 3.6810218369905559e+00  3.5790286359149879e+00  3.4702869687748605e+00  3.3555342759972433e+00 
 3.2355485285218037e+00  3.1111378376974037e+00  2.9831296332309614e+00  2.8523596700915577e+00 
 2.7196611295446913e+00  2.5858540685762987e+00  2.4517354474264628e+00  2.3180699323914484e+00 
 2.1855816378003090e+00  2.0549468705112228e+00  1.9267880873078724e+00  1.8016689973254838e+00 
 1.6800908943129329e+00  1.5624902218670647e+00  1.4492373534271668e+00  1.3406365471063184e+00 
 1.2369270112621975e+00  1.1382849928803902e+00  1.0448267788504153e+00  9.5661248151841860e-01 
 8.7365046573396321e-01  7.9590226581545842e-01  7.2328783782264616e-01  6.5569099519225971e-01 
 5.9296488373752543e-01  5.3493736452227847e-01  4.8141618928705449e-01  4.3219387190710323e-01 
 3.8705217974201317e-01  3.4576618966202854e-01  3.0810787405002993e-01  2.7384920134904789e-01 
 2.4276475306413561e-01  2.1463387402058709e-01  1.8924238478681801e-01  1.6638389432658146e-01 
 1.4586075715139848e-01  1.2748472264574451e-01  1.1107732510207785e-01  9.6470061687152983e-02 
 8.3504402485528623e-02  7.2031672378736852e-02  6.1912839269085349e-02  5.3018237471993808e-02 
 4.5227249356993800e-02  3.8427962836219465e-02  3.2516817327098720e-02  2.7398246505776189e-02 
 2.2984322800051200e-02  1.9194405529141131e-02  1.5954793206157256e-02  1.3198378964103048e-02 
 1.0864307690839448e-02  8.8976333911469519e-03  7.2489756250904251e-03  5.8741744446078473e-03 
 4.7339439455259154e-03  3.7935252700282609e-03  3.0223405530548897e-03  2.3936498469950707e-03 
 1.8842134458468809e-03  1.4739622448825724e-03  1.1456788162293758e-03  8.8469176681448501e-04 
 6.7858569792403139e-04  5.1692873297394515e-04  3.9101915583403171e-04  2.9365223665221940e-04 
 2.1890784677577521e-04  1.6195900362112224e-04  1.1890106185214949e-04  8.6600894132433327e-05 
 6.2565093223867897e-05  4.4825982689065156e-05  3.1844046482136230e-05  2.2425275842229415e-05 
 1.5651879325821246e-05  1.0824801402971792e-05  7.4165378618916852e-06  5.0328134881178402e-06 
 3.3817900403053273e-06  2.2495919940889499e-06  1.4810663602218981e-06  9.6482463206674117e-07 
 6.2174438529386610e-07  3.9623103730523266e-07  2.4965406713057696e-07  1.5547464540839288e-07 
 9.5672090354348921e-08  5.8154905784474416e-08  3.4908411492977595e-08  2.0686174615451727e-08 
 1.2097531957685481e-08  6.9796930896493559e-09  3.9714716438413635e-09  2.2278763505460472e-09 
 1.2316858128089177e-09  6.7083963589547270e-10  3.5981896427172878e-10  1.8998898034621281e-10 
 9.8714254931798320e-11  5.0449907571357930e-11  2.5350747479738796e-11  1.2519535341338951e-11 
 6.0735921584923837e-12  2.8933623774892905e-12  1.3527525074261126e-12  6.2041022943245388e-13 
 2.7900503576035739e-13  1.2296636410647429e-13  5.3092634441824948e-14  2.2480789452675681e-14 
 9.2894096523998802e-15  3.7298684122986684e-15  1.4714338815723949e-15  5.5354902582523594e-16 
 1.9964758151285355e-16  8.9886987315617450e-17  4.0414545294726022e-17  0.0000000000000000e+00 
 0.0000000000000000e+00  0.0000000000000000e+00  0.0000000000000000e+00  0.0000000000000000e+00 
 0.0000000000000000e+00  0.0000000000000000e+00  0.0000000000000000e+00  0.0000000000000000e+00 
 0.0000000000000000e+00  0.0000000000000000e+00  0.0000000000000000e+00  0.0000000000000000e+00 
 0.0000000000000000e+00  0.0000000000000000e+00  0.0000000000000000e+00  0.0000000000000000e+00 
 0.0000000000000000e+00  0.0000000000000000e+00  0.0000000000000000e+00  0.0000000000000000e+00 
 0.0000000000000000e+00  0.0000000000000000e+00  0.0000000000000000e+00  0.0000000000000000e+00 
 0.0000000000000000e+00  0.0000000000000000e+00  0.0000000000000000e+00  0.0000000000000000e+00 
 0.0000000000000000e+00  0.0000000000000000e+00  0.0000000000000000e+00  0.0000000000000000e+00 
 0.0000000000000000e+00  0.0000000000000000e+00  0.0000000000000000e+00  0.0000000000000000e+00 
 0.0000000000000000e+00  0.0000000000000000e+00  0.0000000000000000e+00  0.0000000000000000e+00 
 0.0000000000000000e+00  0.0000000000000000e+00  0.0000000000000000e+00  0.0000000000000000e+00 
 0.0000000000000000e+00  0.0000000000000000e+00  0.0000000000000000e+00  0.0000000000000000e+00 
 0.0000000000000000e+00  0.0000000000000000e+00  0.0000000000000000e+00  0.0000000000000000e+00 
 0.0000000000000000e+00  0.0000000000000000e+00  0.0000000000000000e+00  0.0000000000000000e+00 
 0.0000000000000000e+00  0.0000000000000000e+00  0.0000000000000000e+00  0.0000000000000000e+00 
 0.0000000000000000e+00  0.0000000000000000e+00  0.0000000000000000e+00  0.0000000000000000e+00 
 0.0000000000000000e+00  0.0000000000000000e+00  0.0000000000000000e+00  0.0000000000000000e+00 
 0.0000000000000000e+00  0.0000000000000000e+00  0.0000000000000000e+00  0.0000000000000000e+00 
 0.0000000000000000e+00  0.0000000000000000e+00  0.0000000000000000e+00  0.0000000000000000e+00 
 0.0000000000000000e+00  0.0000000000000000e+00  0.0000000000000000e+00  0.0000000000000000e+00 
 0.0000000000000000e+00  0.0000000000000000e+00  0.0000000000000000e+00  0.0000000000000000e+00 
 0.0000000000000000e+00  0.0000000000000000e+00  0.0000000000000000e+00  0.0000000000000000e+00 
 0.0000000000000000e+00  0.0000000000000000e+00  0.0000000000000000e+00  0.0000000000000000e+00 
 0.0000000000000000e+00  0.0000000000000000e+00  0.0000000000000000e+00  0.0000000000000000e+00 
 0.0000000000000000e+00  0.0000000000000000e+00  0.0000000000000000e+00  0.0000000000000000e+00 
 0.0000000000000000e+00  0.0000000000000000e+00  0.0000000000000000e+00  0.0000000000000000e+00 
 0.0000000000000000e+00  0.0000000000000000e+00  0.0000000000000000e+00  0.0000000000000000e+00 
 0.0000000000000000e+00  0.0000000000000000e+00  0.0000000000000000e+00  0.0000000000000000e+00 
 0.0000000000000000e+00  0.0000000000000000e+00  0.0000000000000000e+00  0.0000000000000000e+00 
 0.0000000000000000e+00  0.0000000000000000e+00  0.0000000000000000e+00  0.0000000000000000e+00 
 0.0000000000000000e+00  0.0000000000000000e+00  0.0000000000000000e+00  0.0000000000000000e+00 
 0.0000000000000000e+00  0.0000000000000000e+00  0.0000000000000000e+00  0.0000000000000000e+00 
 0.0000000000000000e+00  0.0000000000000000e+00  0.0000000000000000e+00  0.0000000000000000e+00 
 0.0000000000000000e+00  0.0000000000000000e+00  0.0000000000000000e+00  0.0000000000000000e+00 
 0.0000000000000000e+00  0.0000000000000000e+00  0.0000000000000000e+00  0.0000000000000000e+00 
 0.0000000000000000e+00  0.0000000000000000e+00  0.0000000000000000e+00  0.0000000000000000e+00 
 0.0000000000000000e+00  0.0000000000000000e+00  0.0000000000000000e+00  0.0000000000000000e+00 
 0.0000000000000000e+00  0.0000000000000000e+00  0.0000000000000000e+00  0.0000000000000000e+00 
 0.0000000000000000e+00  0.0000000000000000e+00  0.0000000000000000e+00  0.0000000000000000e+00 
 0.0000000000000000e+00  0.0000000000000000e+00  0.0000000000000000e+00  0.0000000000000000e+00 
 0.0000000000000000e+00  0.0000000000000000e+00  0.0000000000000000e+00  0.0000000000000000e+00 
 0.0000000000000000e+00  0.0000000000000000e+00  0.0000000000000000e+00  0.0000000000000000e+00 
 0.0000000000000000e+00  0.0000000000000000e+00  0.0000000000000000e+00  0.0000000000000000e+00 
 0.0000000000000000e+00  0.0000000000000000e+00  0.0000000000000000e+00  0.0000000000000000e+00 
 0.0000000000000000e+00  0.0000000000000000e+00  0.0000000000000000e+00  0.0000000000000000e+00 
 0.0000000000000000e+00  0.0000000000000000e+00  0.0000000000000000e+00  0.0000000000000000e+00 
 0.0000000000000000e+00  0.0000000000000000e+00  0.0000000000000000e+00  0.0000000000000000e+00 
 0.0000000000000000e+00  0.0000000000000000e+00  0.0000000000000000e+00  0.0000000000000000e+00 
 0.0000000000000000e+00  0.0000000000000000e+00  0.0000000000000000e+00  0.0000000000000000e+00 
 0.0000000000000000e+00  0.0000000000000000e+00  0.0000000000000000e+00  0.0000000000000000e+00 
 0.0000000000000000e+00  0.0000000000000000e+00  0.0000000000000000e+00  0.0000000000000000e+00 
 0.0000000000000000e+00  0.0000000000000000e+00  0.0000000000000000e+00  0.0000000000000000e+00 
 0.0000000000000000e+00  0.0000000000000000e+00  0.0000000000000000e+00  0.0000000000000000e+00 
 0.0000000000000000e+00  0.0000000000000000e+00  0.0000000000000000e+00  0.0000000000000000e+00 
 0.0000000000000000e+00  0.0000000000000000e+00  0.0000000000000000e+00  0.0000000000000000e+00 
 0.0000000000000000e+00  0.0000000000000000e+00  0.0000000000000000e+00  0.0000000000000000e+00 
 0.0000000000000000e+00  0.0000000000000000e+00  0.0000000000000000e+00  0.0000000000000000e+00 
 0.0000000000000000e+00  0.0000000000000000e+00  0.0000000000000000e+00  0.0000000000000000e+00 
 0.0000000000000000e+00  0.0000000000000000e+00  0.0000000000000000e+00  0.0000000000000000e+00 
 0.0000000000000000e+00  0.0000000000000000e+00  0.0000000000000000e+00  0.0000000000000000e+00 
 0.0000000000000000e+00  0.0000000000000000e+00  0.0000000000000000e+00  0.0000000000000000e+00 
 0.0000000000000000e+00  0.0000000000000000e+00  0.0000000000000000e+00  0.0000000000000000e+00 
 0.0000000000000000e+00  0.0000000000000000e+00  0.0000000000000000e+00  0.0000000000000000e+00 
 0.0000000000000000e+00  0.0000000000000000e+00  0.0000000000000000e+00  0.0000000000000000e+00 
 0.0000000000000000e+00  0.0000000000000000e+00  0.0000000000000000e+00  0.0000000000000000e+00 
 0.0000000000000000e+00  0.0000000000000000e+00  0.0000000000000000e+00  0.0000000000000000e+00 
 0.0000000000000000e+00  0.0000000000000000e+00  0.0000000000000000e+00  0.0000000000000000e+00 
 0.0000000000000000e+00  0.0000000000000000e+00  0.0000000000000000e+00  0.0000000000000000e+00 
 0.0000000000000000e+00  0.0000000000000000e+00  0.0000000000000000e+00  0.0000000000000000e+00 
 0.0000000000000000e+00 
  </PP_BETA>
  <PP_BETA>
  3  2      Beta    L
  1189  
 -5.4357765400577730e-12  -5.6519600010761645e-12  -5.8767411828576093e-12  -6.1104620209110578e-12 
 -6.3534780496857536e-12  -6.6061589434076545e-12  -6.8688890784251866e-12  -7.1420681179197183e-12 
 -7.4261116198702692e-12  -7.7214516691973140e-12  -8.0285375350471831e-12  -8.3478363542170011e-12 
 -8.6798338417598016e-12  -9.0250350298506704e-12  -9.3839650360380334e-12  -9.7571698620486450e-12 
 -1.0145217224361379e-11  -1.0548697417813382e-11  -1.0968224213552318e-11  -1.1404435792700445e-11 
 -1.1857995717151147e-11  -1.2329593938974391e-11  -1.2819947849966733e-11  -1.3329803372942467e-11 
 -1.3859936096425967e-11  -1.4411152454471192e-11  -1.4984290953403276e-11  -1.5580223447348166e-11 
 -1.6199856464490720e-11  -1.6844132586078710e-11  -1.7514031880270428e-11  -1.8210573393007189e-11 
 -1.8934816698178472e-11  -1.9687863509437927e-11  -2.0470859356122004e-11  -2.1284995325820751e-11 
 -2.2131509876251400e-11  -2.3011690719191140e-11  -2.3926876779334707e-11  -2.4878460231056656e-11 
 -2.5867888616176767e-11  -2.6896667045949813e-11  -2.7966360490629792e-11  -2.9078596160090857e-11 
 -3.0235065979126930e-11  -3.1437529161195121e-11  -3.2687814884518056e-11  -3.3987825074616204e-11 
 -3.5339537297502792e-11  -3.6745007767942276e-11  -3.8206374477349107e-11  -3.9725860446083986e-11 
 -4.1305777105095942e-11  -4.2948527812053632e-11  -4.4656611507315110e-11  -4.6432626515296859e-11 
 -4.8279274497025567e-11  -5.0199364559884299e-11  -5.2195817530805573e-11  -5.4271670399411111e-11 
 -5.6430080937857579e-11  -5.8674332504415509e-11  -6.1007839038089138e-11  -6.3434150251874285e-11 
 -6.5956957032554861e-11  -6.8580097055251705e-11  -7.1307560621264815e-11  -7.4143496728088618e-11 
 -7.7092219380836161e-11  -8.0158214154669644e-11  -8.3346145018223506e-11  -8.6660861428397253e-11 
 -9.0107405707312313e-11  -9.3691020712653071e-11  -9.7417157813061833e-11  -1.0129148518071840e-10 
 -1.0531989641371939e-10  -1.0950851950137413e-10  -1.1386372614605412e-10  -1.1839214145577704e-10 
 -1.2310065402226881e-10  -1.2799642639983573e-10  -1.3308690600098601e-10  -1.3837983642537399e-10 
 -1.4388326923930399e-10  -1.4960557622370882e-10  -1.5555546210923652e-10  -1.6174197781781693e-10 
 -1.6817453423085302e-10  -1.7486291650497787e-10  -1.8181729895715605e-10  -1.8904826054177413e-10 
 -1.9656680094325953e-10  -2.0438435730871293e-10  -2.1251282164600277e-10  -2.2096455891379132e-10 
 -2.2975242583100909e-10  -2.3888979043439073e-10  -2.4839055241382271e-10  -2.5826916425643714e-10 
 -2.6854065323161623e-10  -2.7922064425034981e-10  -2.9032538363372007e-10  -3.0187176382667006e-10 
 -3.1387734909464884e-10  -3.2636040224222595e-10  -3.3933991239431342e-10  -3.5283562388226501e-10 
 -3.6686806627878169e-10  -3.8145858562732607e-10  -3.9662937691353827e-10  -4.1240351782805823e-10 
 -4.2880500387210917e-10  -4.4585878485924567e-10  -4.6359080286879243e-10  -4.8202803170871015e-10 
 -5.0119851794791205e-10  -5.2113142358045651e-10  -5.4185707038651772e-10  -5.6340698605760049e-10 
 -5.8581395215618780e-10  -6.0911205398275441e-10  -6.3333673242601819e-10  -6.5852483787529578e-10 
 -6.8471468627697805e-10  -7.1194611742039527e-10  -7.4026055554173214e-10  -7.6970107233819356e-10 
 -8.0031245248826325e-10  -8.3214126177773554e-10  -8.6523591793514566e-10  -8.9964676428435451e-10 
 -9.3542614632633080e-10  -9.7262849136661950e-10  -1.0113103913096269e-09  -1.0515306887456689e-09 
 -1.0933505664617422e-09  -1.1368336405121660e-09  -1.1820460569906881e-09  -1.2290565926512522e-09 
 -1.2779367595304994e-09  -1.3287609137311388e-09  -1.3816063685316861e-09  -1.4365535119946173e-09 
 -1.4936859292518419e-09  -1.5530905296535202e-09  -1.6148576789736390e-09  -1.6790813368734543e-09 
 -1.7458591998319030e-09  -1.8152928497604139e-09  -1.8874879085281943e-09  -1.9625541986330304e-09 
 -2.0406059102620370e-09  -2.1217617749964593e-09  -2.2061452464248125e-09  -2.2938846879390224e-09 
 -2.3851135679993270e-09  -2.4799706631649143e-09  -2.5786002691991642e-09  -2.6811524205706169e-09 
 -2.7877831186835775e-09  -2.8986545691855174e-09  -3.0139354287122905e-09  -3.1338010614464691e-09 
 -3.2584338058791029e-09  -3.3880232521806758e-09  -3.5227665306032007e-09  -3.6628686113521413e-09 
 -3.8085426163843495e-09  -3.9600101436063177e-09  -4.1175016039658446e-09  -4.2812565719499997e-09 
 -4.4515241500224452e-09  -4.6285633475545665e-09  -4.8126434748267858e-09  -5.0040445526994334e-09 
 -5.2030577385763302e-09  -5.4099857693090513e-09  -5.6251434217156229e-09  -5.8488579914141806e-09 
 -6.0814697906999017e-09  -6.3233326662227240e-09  -6.5748145372531151e-09  -6.8362979553549016e-09 
 -7.1081806863163601e-09  -7.3908763152248317e-09  -7.6848148756053117e-09  -7.9904435035799912e-09 
 -8.3082271180438402e-09  -8.6386491278909647e-09  -8.9822121673673845e-09  -9.3394388606690370e-09 
 -9.7108726169478579e-09  -1.0097078456935483e-08  -1.0498643872441827e-08  -1.0916179720036048e-08 
 -1.1350321150269386e-08  -1.1801728573853243e-08  -1.2271088666262272e-08  -1.2759115412290704e-08 
 -1.3266551192150711e-08  -1.3794167910765001e-08  -1.4342768171971520e-08  -1.4913186499426275e-08 
 -1.5506290606061540e-08  -1.6122982714030559e-08  -1.6764200927146291e-08  -1.7430920657902316e-08 
 -1.8124156111246135e-08  -1.8844961827362286e-08  -1.9594434285811858e-08  -2.0373713573468512e-08 
 -2.1183985118788352e-08  -2.2026481495051555e-08  -2.2902484295318710e-08  -2.3813326081954111e-08 
 -2.4760392413681327e-08  -2.5745123953254551e-08  -2.6769018658951682e-08  -2.7833634063222826e-08 
 -2.8940589641960284e-08  -3.0091569277993746e-08  -3.1288323822558555e-08  -3.2532673758632575e-08 
 -3.3826511970193651e-08  -3.5171806621609531e-08  -3.6570604151540345e-08  -3.8025032385907762e-08 
 -3.9537303774665740e-08  -4.1109718757296879e-08  -4.2744669262152859e-08  -4.4444642344962701e-08 
 -4.6212223972042952e-08  -4.8050102953964037e-08  -4.9961075035657461e-08  -5.1948047149184063e-08 
 -5.4014041835632863e-08  -5.6162201842876336e-08  -5.8395794906176172e-08  -6.0718218718910583e-08 
 -6.3133006100984441e-08  -6.5643830372783906e-08  -6.8254510942849375e-08  -7.0969019117766440e-08 
 -7.3791484143111826e-08  -7.6726199484643138e-08  -7.9777629359286487e-08  -8.2950415525856154e-08 
 -8.6249384345835132e-08  -8.9679554124956712e-08  -9.3246142746753589e-08  -9.6954575609686325e-08 
 -1.0081049387992278e-07  -1.0481976307232229e-07  -1.0898848197267662e-07  -1.1332299191477698e-07 
 -1.1782988642642117e-07  -1.2251602125902941e-07  -1.2738852481612588e-07  -1.3245480899654755e-07 
 -1.3772258046887277e-07  -1.4319985239421867e-07  -1.4889495661523755e-07  -1.5481655632985139e-07 
 -1.6097365926900186e-07  -1.6737563139845871e-07  -1.7403221116552755e-07  -1.8095352431232451e-07 
 -1.8815009927815073e-07  -1.9563288321439072e-07  -2.0341325863629460e-07  -2.1150306073697120e-07 
 -2.1991459538992307e-07  -2.2866065786750778e-07  -2.3775455230379222e-07  -2.4721011193140355e-07 
 -2.5704172012315305e-07  -2.6726433227043747e-07  -2.7789349853169088e-07  -2.8894538748548461e-07 
 -3.0043681072424915e-07  -3.1238524842601959e-07  -3.2480887594309702e-07  -3.3772659144805911e-07 
 -3.5115804467916783e-07  -3.6512366682888388e-07  -3.7964470162094607e-07  -3.9474323762327579e-07 
 -4.1044224184584111e-07  -4.2676559467458001e-07  -4.4373812619450625e-07  -4.6138565395727083e-07 
 -4.7973502225088335e-07  -4.9881414293099154e-07  -5.1865203787573834e-07  -5.3927888312886465e-07 
 -5.6072605479820748e-07  -5.8302617677939022e-07  -6.0621317037727868e-07  -6.3032230590066479e-07 
 -6.5539025630863882e-07  -6.8145515299023001e-07  -7.0855664376213508e-07  -7.3673595317273877e-07 
 -7.6603594520411345e-07  -7.9650118846736524e-07  -8.2817802399044830e-07  -8.6111463570153242e-07 
 -8.9536112371510591e-07  -9.3096958053224738e-07  -9.6799417027093208e-07  -1.0064912110468594e-06 
 -1.0465192606300511e-06  -1.0881392055074791e-06  -1.1314143534871326e-06  -1.1764105299843372e-06 
 -1.2231961781367233e-06  -1.2718424629000736e-06  -1.3224233792833239e-06  -1.3750158648872657e-06 
 -1.4296999169180799e-06  -1.4865587138536029e-06  -1.5456787419472989e-06  -1.6071499267622865e-06 
 -1.6710657699353806e-06  -1.7375234913790992e-06  -1.8066241771378103e-06  -1.8784729331228217e-06 
 -1.9531790449601212e-06  -2.0308561441937864e-06  -2.1116223810977447e-06  -2.1956006043585705e-06 
 -2.2829185479025164e-06  -2.3737090251507349e-06  -2.4681101309980630e-06  -2.5662654518223322e-06 
 -2.6683242838435229e-06  -2.7744418601645979e-06  -2.8847795868392455e-06  -2.9995052883252708e-06 
 -3.1187934626967900e-06  -3.2428255470031358e-06  -3.3717901931778066e-06  -3.5058835549168412e-06 
 -3.6453095859626491e-06  -3.7902803502466463e-06  -3.9410163443620922e-06  -4.0977468328571882e-06 
 -4.2607101968580925e-06  -4.4301542965515817e-06  -4.6063368480782998e-06  -4.7895258154093462e-06 
 -4.9799998178016746e-06  -5.1780485534514945e-06  -5.3839732399894552e-06  -5.5980870724869198e-06 
 -5.8207156996692402e-06  -6.0521977190595965e-06  -6.2928851918056822e-06  -6.5431441779714169e-06 
 -6.8033552931068247e-06  -7.0739142869416352e-06  -7.3552326450816464e-06  -7.6477382146217726e-06 
 -7.9518758546260462e-06  -8.2681081124624396e-06  -8.5969159270197508e-06  -8.9387993598742572e-06 
 -9.2942783555165144e-06  -9.6638935317925275e-06  -1.0048207001759347e-05  -1.0447803228202741e-05 
 -1.0863289912114071e-05  -1.1295298916474864e-05  -1.1744487226751061e-05  -1.2211537949554687e-05 
 -1.2697161350987989e-05  -1.3202095936245610e-05  -1.3727109572112670e-05  -1.4273000654061266e-05 
 -1.4840599319715741e-05  -1.5430768710527009e-05  -1.6044406283569156e-05  -1.6682445175447267e-05 
 -1.7345855620384525e-05  -1.8035646424638267e-05  -1.8752866499479816e-05  -1.9498606455061891e-05 
 -2.0274000257588953e-05  -2.1080226952301893e-05  -2.1918512454887856e-05  -2.2790131414029354e-05 
 -2.3696409147914697e-05  -2.4638723657643419e-05  -2.5618507720576222e-05  -2.6637251066800995e-05 
 -2.7696502642010286e-05  -2.8797872960217651e-05  -2.9943036549875473e-05  -3.1133734497098168e-05 
 -3.2371777089841218e-05  -3.3659046567038844e-05  -3.4997499976861924e-05  -3.6389172148421569e-05 
 -3.7836178781416505e-05  -3.9340719658398615e-05  -4.0905081984517098e-05  -4.2531643859793779e-05 
 -4.4222877889180700e-05  -4.5981354935860419e-05  -4.7809748023463641e-05  -4.9710836393104071e-05 
 -5.1687509721363420e-05  -5.3742772505601271e-05  -5.5879748623216171e-05  -5.8101686071745102e-05 
 -6.0411961896963083e-05  -6.2814087316424109e-05  -6.5311713046180300e-05  -6.7908634838720805e-05 
 -7.0608799240488840e-05  -7.3416309577664383e-05  -7.6335432179244832e-05  -7.9370602846808532e-05 
 -8.2526433580719155e-05  -8.5807719572911239e-05  -8.9219446476797429e-05  -9.2766797965253200e-05 
 -9.6455163588066145e-05  -1.0029014694068467e-04  -1.0427757415656697e-04  -1.0842350273591539e-04 
 -1.1273423072408340e-04  -1.1721630625346607e-04  -1.2187653746322584e-04  -1.2672200281177123e-04 
 -1.3176006179749206e-04  -1.3699836610386087e-04  -1.4244487118564652e-04  -1.4810784831364115e-04 
 -1.5399589709598233e-04  -1.6011795849486642e-04  -1.6648332835818023e-04  -1.7310167148634683e-04 
 -1.7998303625547547e-04  -1.8713786981873042e-04  -1.9457703390869216e-04  -2.0231182126437505e-04 
 -2.1035397270748881e-04  -2.1871569489349685e-04  -2.2740967876401597e-04  -2.3644911872814389e-04 
 -2.4584773260137702e-04  -2.5561978233189204e-04  -2.6578009554513584e-04  -2.7634408793886743e-04 
 -2.8732778656204600e-04  -2.9874785401226301e-04  -3.1062161358776466e-04  -3.2296707543150882e-04 
 -3.3580296370615639e-04  -3.4914874484041409e-04  -3.6302465688869918e-04  -3.7745174004773533e-04 
 -3.9245186837537566e-04  -4.0804778275869925e-04  -4.2426312518024971e-04  -4.4112247433316678e-04 
 -4.5865138263794257e-04  -4.7687641471553258e-04  -4.9582518737370344e-04  -5.1552641116565305e-04 
 -5.3600993358224292e-04  -5.5730678394151233e-04  -5.7944922004161763e-04  -6.0247077664585323e-04 
 -6.2640631587106382e-04  -6.5129207955347702e-04  -6.7716574366881931e-04  -7.0406647488652446e-04 
 -7.3203498934087843e-04  -7.6111361370511895e-04  -7.9134634865776505e-04  -8.2277893483387234e-04 
 -8.5545892135741172e-04  -8.8943573705463374e-04  -9.2476076445205857e-04  -9.6148741666665140e-04 
 -9.9967121729983084e-04  -1.0393698834511324e-03  -1.0806434119717530e-03  -1.1235541690827076e-03 
 -1.1681669834870164e-03  -1.2145492431101981e-03  -1.2627709956083677e-03  -1.3129050527884681e-03 
 -1.3650270990905192e-03  -1.4192158042873786e-03  -1.4755529405632926e-03  -1.5341235041384782e-03 
 -1.5950158416131852e-03  -1.6583217812111025e-03  -1.7241367691085846e-03  -1.7925600110430613e-03 
 -1.8636946194010664e-03  -1.9376477659936782e-03  -2.0145308407347592e-03  -2.0944596164452168e-03 
 -2.1775544200146190e-03  -2.2639403101599159e-03  -2.3537472620296274e-03  -2.4471103589108955e-03 
 -2.5441699913059238e-03  -2.6450720636540239e-03  -2.7499682089852286e-03  -2.8590160118016719e-03 
 -2.9723792394934362e-03  -3.0902280826064035e-03  -3.2127394042908057e-03  -3.3400969992707563e-03 
 -3.4724918626868927e-03  -3.6101224691765009e-03  -3.7531950625681837e-03  -3.9019239565810946e-03 
 -4.0565318469321550e-03  -4.2172501352684905e-03  -4.3843192653564870e-03  -4.5579890719734829e-03 
 -4.7385191429631622e-03  -4.9261791949310081e-03  -5.1212494630722798e-03  -5.3240211056409708e-03 
 -5.5347966235851928e-03  -5.7538902958914123e-03  -5.9816286311976498e-03  -6.2183508362537304e-03 
 -6.4644093018252852e-03  -6.7201701066569672e-03  -6.9860135401298056e-03  -7.2623346442674819e-03 
 -7.5495437757664490e-03  -7.8480671887455455e-03  -8.1583476389319697e-03  -8.4808450100217446e-03 
 -8.8160369629750480e-03  -9.1644196090288742e-03  -9.5265082072323853e-03  -9.9028378873331803e-03 
 -1.0293964398866359e-02  -1.0700464887321836e-02  -1.1122938698289512e-02  -1.1562008210506227e-02 
 -1.2018319698752772e-02  -1.2492544227574459e-02  -1.2985378576823046e-02  -1.3497546200043564e-02 
 -1.4029798216754073e-02  -1.4582914439691921e-02  -1.5157704438125100e-02  -1.5755008638352094e-02 
 -1.6375699462538796e-02  -1.7020682507065184e-02  -1.7690897761579071e-02  -1.8387320869977845e-02 
 -1.9110964434562158e-02  -1.9862879364628792e-02  -2.0644156270790887e-02  -2.1455926906335413e-02 
 -2.2299365656947255e-02  -2.3175691080148317e-02  -2.4086167495817084e-02  -2.5032106629170370e-02 
 -2.6014869307602693e-02  -2.7035867212791449e-02  -2.8096564689485692e-02  -2.9198480612404369e-02 
 -3.0343190312674861e-02  -3.1532327565244864e-02  -3.2767586638699921e-02  -3.4050724408913852e-02 
 -3.5383562537951815e-02  -3.6767989719632604e-02  -3.8205963993140281e-02  -3.9699515126052395e-02 
 -4.1250747068125690e-02  -4.2861840477146133e-02  -4.4535055318110660e-02  -4.6272733536961465e-02 
 -4.8077301810039788e-02  -4.9951274370364486e-02  -5.1897255911768941e-02  -5.3917944571851568e-02 
 -5.6016134994603201e-02  -5.8194721473476291e-02  -6.0456701175546072e-02  -6.2805177447291347e-02 
 -6.5243363202382623e-02  -6.7774584391715090e-02  -7.0402283555755160e-02  -7.3130023459085647e-02 
 -7.5961490806835660e-02  -7.8900500042458993e-02  -8.1950997226087924e-02  -8.5117063992428396e-02 
 -8.8402921586880540e-02  -9.1812934978261776e-02  -9.5351617046179130e-02  -9.9023632840739353e-02 
 -1.0283380391189828e-01  -1.0678711270533658e-01  -1.1088870702129763e-01  -1.1514390453234437e-01 
 -1.1955819735547414e-01  -1.2413725667347383e-01  -1.2888693739980570e-01  -1.3381328288067607e-01 
 -1.3892252962726054e-01  -1.4422111207033075e-01  -1.4971566732875505e-01  -1.5541303998251721e-01 
 -1.6132028684001831e-01  -1.6744468168848919e-01  -1.7379372001534846e-01  -1.8037512368728112e-01 
 -1.8719684557269162e-01  -1.9426707409199942e-01  -2.0159423767898096e-01  -2.0918700913503299e-01 
 -2.1705430985682350e-01  -2.2520531391630425e-01  -2.3364945197049516e-01  -2.4239641497678838e-01 
 -2.5145615768777885e-01  -2.6083890189779546e-01  -2.7055513941136872e-01  -2.8061563470185386e-01 
 -2.9103142722629144e-01  -3.0181383336036632e-01  -3.1297444791498252e-01  -3.2452514519353226e-01 
 -3.3647807954638964e-01  -3.4884568537647864e-01  -3.6164067654700655e-01  -3.7487604513954181e-01 
 -3.8856505950761816e-01  -4.0272126156791122e-01  -4.1735846326779430e-01  -4.3249074216471423e-01 
 -4.4813243604935643e-01  -4.6429813654096797e-01  -4.8100268157951154e-01  -4.9826114673549932e-01 
 -5.1608883525444027e-01  -5.3450126674881315e-01  -5.5351416444635326e-01  -5.7314344089924352e-01 
 -5.9340518205450188e-01  -6.1431562958151076e-01  -6.3589116134820611e-01  -6.5814826993298303e-01 
 -6.8110353905487020e-01  -7.0477361780001391e-01  -7.2917519251799912e-01  -7.5432495625703133e-01 
 -7.8023957560257229e-01  -8.0693565477963292e-01  -8.3442969687466317e-01  -8.6273806202882597e-01 
 -8.9187692245047978e-01  -9.2186221409091129e-01  -9.5270958482387069e-01  -9.8443433896621135e-01 
 -1.0170513779740979e+00  -1.0505751371467817e+00  -1.0850195181679536e+00  -1.1203978173132461e+00 
 -1.1567226491516456e+00  -1.1940058655684276e+00  -1.2322584699379271e+00  -1.2714905262760001e+00 
 -1.3117110632045985e+00  -1.3529279725645564e+00  -1.3951479025176101e+00  -1.4383761449849901e+00 
 -1.4826165172777364e+00  -1.5278712377834849e+00  -1.5741407955858162e+00  -1.6214238139058246e+00 
 -1.6697169072712694e+00  -1.7190145323369870e+00  -1.7693088323012132e+00  -1.8205894748865339e+00 
 -1.8728434838814287e+00  -1.9260550642693370e+00  -1.9802054210069018e+00  -2.0352725715521576e+00 
 -2.0912311522870684e+00  -2.1480522190274849e+00  -2.2057030418677024e+00  -2.2641468946666525e+00 
 -2.3233428395490701e+00  -2.3832455068678278e+00  -2.4438048711539242e+00  -2.5049660236684499e+00 
 -2.5666689422671105e+00  -2.6288482593927149e+00  -2.6914330291252022e+00  -2.7543464943425864e+00 
 -2.8175058551802952e+00  -2.8808220401209241e+00  -2.9441994812020127e+00  -3.0075358949963586e+00 
 -3.0707220711975358e+00  -3.1336416708333283e+00  -3.1961710363309490e+00  -3.2581790158706312e+00 
 -3.3195268046876558e+00  -3.3800678062163083e+00  -3.4396475162122893e+00  -3.4981034332404417e+00 
 -3.5552649991717700e+00  -3.6109535735943332e+00  -3.6649824463050562e+00  -3.7171568923099021e+00 
 -3.7672742740150809e+00  -3.8151241955368191e+00  -3.8604887142875546e+00  -3.9031426152053905e+00 
 -3.9428537531753460e+00  -3.9793834693377086e+00  -4.0124870870820271e+00  -4.0419144935771065e+00 
 -4.0674108126766262e+00  -4.0887171749575835e+00  -4.1055715904833381e+00  -4.1177099296234250e+00 
 -4.1248670168970447e+00  -4.1267778423251515e+00  -4.1231788941660241e+00  -4.1138096161605144e+00 
 -4.0984139915165319e+00  -4.0767422548084760e+00  -4.0485527317498375e+00  -4.0136138054093848e+00 
 -3.9717060058800429e+00  -3.9226242186718574e+00  -3.8661800051856052e+00  -3.8022040265331203e+00 
 -3.7305485597045256e+00  -3.6510900926474408e+00  -3.5637319822181648e+00  -3.4684071561987402e+00 
 -3.3650808376483137e+00  -3.2537532667810236e+00  -3.1344623923434840e+00  -3.0072865011173526e+00 
 -2.8723467507164275e+00  -2.7298095673148817e+00  -2.5798888663809461e+00  -2.4228480509664019e+00 
 -2.2590017387113654e+00  -2.0887171655944599e+00  -1.9124152117572006e+00  -1.7305709926661028e+00 
 -1.5437139576972845e+00  -1.3524274382237749e+00  -1.1573475887634390e+00  -9.5916166802318459e-01 
 -7.5860561203259158e-01  -5.5646085922578492e-01  -3.5355039741997796e-01  -1.5073401514285359e-01 
 5.1097245488566284e-02  2.5102742045332699e-01  4.4812270802603843e-01  6.4143925432525739e-01 
 8.3003156955944002e-01  1.0129614850375261e+00  1.1893075424745063e+00  1.3581746898211893e+00 
 1.5187041422199989e+00  1.6700832531297674e+00  1.8115552295325010e+00  1.9424285167758495e+00 
 2.0620856733499222e+00  2.1699915540999815e+00  2.2657006224483087e+00  2.3488632186610641e+00 
 2.4192306227302258e+00  2.4766587678913119e+00  2.5211104850600305e+00  2.5526561902134306e+00 
 2.5714729659268021e+00  2.5778420336149184e+00  2.5721446615897534e+00  2.5548566014079936e+00 
 2.5265411860654661e+00  2.4878412541155726e+00  2.4394700816979884e+00  2.3822015122859983e+00 
 2.3168594777245519e+00  2.2443070321133973e+00  2.1654352036514064e+00  2.0811517114673284e+00 
 1.9923697751985026e+00  1.8999971889923639e+00  1.8049258325836366e+00  1.7080217897164909e+00 
 1.6101162340539881e+00  1.5119972262361907e+00  1.4144025435050156e+00  1.3180136364809210e+00 
 1.2234507778115939e+00  1.1312694361722790e+00  1.0419578780446781e+00  9.5593597018864540e-01 
 8.7355512883531994e-01  7.9509933818922363e-01  7.2078714138156519e-01  6.5077449188133862e-01 
 5.8515834264441058e-01  5.2398084387963995e-01  4.6723401799479475e-01  4.1486478169236984e-01 
 3.6678018985817917e-01  3.2285278330721423e-01  2.8292593207133909e-01  2.4681907717630178e-01 
 2.1433278622696314e-01  1.8525355110189312e-01  1.5935826921038185e-01  1.3641836270672753e-01 
 1.1620350247865753e-01  9.8484915385497113e-02  8.3038263940135748e-02  6.9646097287492326e-02 
 5.8099880859216663e-02  4.8201619449375448e-02  3.9765094661472128e-02  3.2616742743739643e-02 
 2.6596202799496267e-02  2.1556568280703160e-02  1.7364376606747230e-02  1.3899372757833805e-02 
 1.1054082846137014e-02  8.7332330416273266e-03  6.8530479071123862e-03  5.3404602667135167e-03 
 4.1322622902817624e-03  3.1742246270254257e-03  2.4202072701571824e-03  1.8312824925909167e-03 
 1.3748867684845424e-03  1.0240151922085640e-03  7.5646862066207311e-04  5.5416068086981359e-04 
 4.0248897557816263e-04  2.8977232831266269e-04  2.0675379261115900e-04  1.4616739793462934e-04 
 1.0236524171475285e-04  7.1000535695842345e-05  4.8761551919943033e-05  3.3151052261230379e-05 
 2.2305681129742632e-05  1.4849907533057943e-05  9.7793718351670513e-06  6.3688793535925809e-06 
 4.1007450980096116e-06  2.6096957584920082e-06  1.6410458615975448e-06  1.0193616146885290e-06 
 6.2529079547486703e-07  3.7865863416628495e-07  2.2630174539978207e-07  1.3343213821307016e-07 
 7.7592518212577911e-08  4.4485287142279816e-08  2.5136000091940696e-08  1.3992684463686368e-08 
 7.6712911694037768e-09  4.1402937226966832e-09  2.1989610549471989e-09  1.1488173147837054e-09 
 5.9013426151039733e-10  2.9794069329599181e-10  1.4777327322962409e-10  7.1970872461501329e-11 
 3.4403159764409695e-11  1.6134195159615571e-11  7.4185948790563332e-12  3.3429322393326217e-12 
 1.4757441624228346e-12  6.3812497367594915e-13  2.6981959634770914e-13  1.1166816900894056e-13 
 4.5056352688037855e-14  1.7767375332696838e-14  6.7213467693900299e-15  2.6467291364041543e-15 
 9.9982072708211948e-16  0.0000000000000000e+00  0.0000000000000000e+00  0.0000000000000000e+00 
 0.0000000000000000e+00  0.0000000000000000e+00  0.0000000000000000e+00  0.0000000000000000e+00 
 0.0000000000000000e+00  0.0000000000000000e+00  0.0000000000000000e+00  0.0000000000000000e+00 
 0.0000000000000000e+00  0.0000000000000000e+00  0.0000000000000000e+00  0.0000000000000000e+00 
 0.0000000000000000e+00  0.0000000000000000e+00  0.0000000000000000e+00  0.0000000000000000e+00 
 0.0000000000000000e+00  0.0000000000000000e+00  0.0000000000000000e+00  0.0000000000000000e+00 
 0.0000000000000000e+00  0.0000000000000000e+00  0.0000000000000000e+00  0.0000000000000000e+00 
 0.0000000000000000e+00  0.0000000000000000e+00  0.0000000000000000e+00  0.0000000000000000e+00 
 0.0000000000000000e+00  0.0000000000000000e+00  0.0000000000000000e+00  0.0000000000000000e+00 
 0.0000000000000000e+00  0.0000000000000000e+00  0.0000000000000000e+00  0.0000000000000000e+00 
 0.0000000000000000e+00  0.0000000000000000e+00  0.0000000000000000e+00  0.0000000000000000e+00 
 0.0000000000000000e+00  0.0000000000000000e+00  0.0000000000000000e+00  0.0000000000000000e+00 
 0.0000000000000000e+00  0.0000000000000000e+00  0.0000000000000000e+00  0.0000000000000000e+00 
 0.0000000000000000e+00  0.0000000000000000e+00  0.0000000000000000e+00  0.0000000000000000e+00 
 0.0000000000000000e+00  0.0000000000000000e+00  0.0000000000000000e+00  0.0000000000000000e+00 
 0.0000000000000000e+00  0.0000000000000000e+00  0.0000000000000000e+00  0.0000000000000000e+00 
 0.0000000000000000e+00  0.0000000000000000e+00  0.0000000000000000e+00  0.0000000000000000e+00 
 0.0000000000000000e+00  0.0000000000000000e+00  0.0000000000000000e+00  0.0000000000000000e+00 
 0.0000000000000000e+00  0.0000000000000000e+00  0.0000000000000000e+00  0.0000000000000000e+00 
 0.0000000000000000e+00  0.0000000000000000e+00  0.0000000000000000e+00  0.0000000000000000e+00 
 0.0000000000000000e+00  0.0000000000000000e+00  0.0000000000000000e+00  0.0000000000000000e+00 
 0.0000000000000000e+00  0.0000000000000000e+00  0.0000000000000000e+00  0.0000000000000000e+00 
 0.0000000000000000e+00  0.0000000000000000e+00  0.0000000000000000e+00  0.0000000000000000e+00 
 0.0000000000000000e+00  0.0000000000000000e+00  0.0000000000000000e+00  0.0000000000000000e+00 
 0.0000000000000000e+00  0.0000000000000000e+00  0.0000000000000000e+00  0.0000000000000000e+00 
 0.0000000000000000e+00  0.0000000000000000e+00  0.0000000000000000e+00  0.0000000000000000e+00 
 0.0000000000000000e+00  0.0000000000000000e+00  0.0000000000000000e+00  0.0000000000000000e+00 
 0.0000000000000000e+00  0.0000000000000000e+00  0.0000000000000000e+00  0.0000000000000000e+00 
 0.0000000000000000e+00  0.0000000000000000e+00  0.0000000000000000e+00  0.0000000000000000e+00 
 0.0000000000000000e+00  0.0000000000000000e+00  0.0000000000000000e+00  0.0000000000000000e+00 
 0.0000000000000000e+00  0.0000000000000000e+00  0.0000000000000000e+00  0.0000000000000000e+00 
 0.0000000000000000e+00  0.0000000000000000e+00  0.0000000000000000e+00  0.0000000000000000e+00 
 0.0000000000000000e+00  0.0000000000000000e+00  0.0000000000000000e+00  0.0000000000000000e+00 
 0.0000000000000000e+00  0.0000000000000000e+00  0.0000000000000000e+00  0.0000000000000000e+00 
 0.0000000000000000e+00  0.0000000000000000e+00  0.0000000000000000e+00  0.0000000000000000e+00 
 0.0000000000000000e+00  0.0000000000000000e+00  0.0000000000000000e+00  0.0000000000000000e+00 
 0.0000000000000000e+00  0.0000000000000000e+00  0.0000000000000000e+00  0.0000000000000000e+00 
 0.0000000000000000e+00  0.0000000000000000e+00  0.0000000000000000e+00  0.0000000000000000e+00 
 0.0000000000000000e+00  0.0000000000000000e+00  0.0000000000000000e+00  0.0000000000000000e+00 
 0.0000000000000000e+00  0.0000000000000000e+00  0.0000000000000000e+00  0.0000000000000000e+00 
 0.0000000000000000e+00  0.0000000000000000e+00  0.0000000000000000e+00  0.0000000000000000e+00 
 0.0000000000000000e+00  0.0000000000000000e+00  0.0000000000000000e+00  0.0000000000000000e+00 
 0.0000000000000000e+00  0.0000000000000000e+00  0.0000000000000000e+00  0.0000000000000000e+00 
 0.0000000000000000e+00  0.0000000000000000e+00  0.0000000000000000e+00  0.0000000000000000e+00 
 0.0000000000000000e+00  0.0000000000000000e+00  0.0000000000000000e+00  0.0000000000000000e+00 
 0.0000000000000000e+00  0.0000000000000000e+00  0.0000000000000000e+00  0.0000000000000000e+00 
 0.0000000000000000e+00  0.0000000000000000e+00  0.0000000000000000e+00  0.0000000000000000e+00 
 0.0000000000000000e+00  0.0000000000000000e+00  0.0000000000000000e+00  0.0000000000000000e+00 
 0.0000000000000000e+00  0.0000000000000000e+00  0.0000000000000000e+00  0.0000000000000000e+00 
 0.0000000000000000e+00  0.0000000000000000e+00  0.0000000000000000e+00  0.0000000000000000e+00 
 0.0000000000000000e+00  0.0000000000000000e+00  0.0000000000000000e+00  0.0000000000000000e+00 
 0.0000000000000000e+00  0.0000000000000000e+00  0.0000000000000000e+00  0.0000000000000000e+00 
 0.0000000000000000e+00  0.0000000000000000e+00  0.0000000000000000e+00  0.0000000000000000e+00 
 0.0000000000000000e+00  0.0000000000000000e+00  0.0000000000000000e+00  0.0000000000000000e+00 
 0.0000000000000000e+00  0.0000000000000000e+00  0.0000000000000000e+00  0.0000000000000000e+00 
 0.0000000000000000e+00  0.0000000000000000e+00  0.0000000000000000e+00  0.0000000000000000e+00 
 0.0000000000000000e+00  0.0000000000000000e+00  0.0000000000000000e+00  0.0000000000000000e+00 
 0.0000000000000000e+00  0.0000000000000000e+00  0.0000000000000000e+00  0.0000000000000000e+00 
 0.0000000000000000e+00  0.0000000000000000e+00  0.0000000000000000e+00  0.0000000000000000e+00 
 0.0000000000000000e+00  0.0000000000000000e+00  0.0000000000000000e+00  0.0000000000000000e+00 
 0.0000000000000000e+00  0.0000000000000000e+00  0.0000000000000000e+00  0.0000000000000000e+00 
 0.0000000000000000e+00  0.0000000000000000e+00  0.0000000000000000e+00  0.0000000000000000e+00 
 0.0000000000000000e+00  0.0000000000000000e+00  0.0000000000000000e+00  0.0000000000000000e+00 
 0.0000000000000000e+00  0.0000000000000000e+00  0.0000000000000000e+00  0.0000000000000000e+00 
 0.0000000000000000e+00  0.0000000000000000e+00  0.0000000000000000e+00  0.0000000000000000e+00 
 0.0000000000000000e+00  0.0000000000000000e+00  0.0000000000000000e+00  0.0000000000000000e+00 
 0.0000000000000000e+00  0.0000000000000000e+00  0.0000000000000000e+00  0.0000000000000000e+00 
 0.0000000000000000e+00  0.0000000000000000e+00  0.0000000000000000e+00  0.0000000000000000e+00 
 0.0000000000000000e+00  0.0000000000000000e+00  0.0000000000000000e+00  0.0000000000000000e+00 
 0.0000000000000000e+00  0.0000000000000000e+00  0.0000000000000000e+00  0.0000000000000000e+00 
 0.0000000000000000e+00  0.0000000000000000e+00  0.0000000000000000e+00  0.0000000000000000e+00 
 0.0000000000000000e+00  0.0000000000000000e+00  0.0000000000000000e+00  0.0000000000000000e+00 
 0.0000000000000000e+00 
  </PP_BETA>
  <PP_BETA>
  4  2      Beta    L
  1189  
 -4.0538766046322794e-12  -4.2151012370789812e-12  -4.3827378511030202e-12  -4.5570414543096721e-12 
 -4.7382771960797918e-12  -4.9267207709131275e-12  -5.1226588378127894e-12  -5.3263894563488212e-12 
 -5.5382225400642345e-12  -5.7584803279132547e-12  -5.9874978744488417e-12  -6.2256235595052337e-12 
 -6.4732196181508237e-12  -6.7306626917174505e-12  -6.9983444007444787e-12  -7.2766719407090971e-12 
 -7.5660687014490782e-12  -7.8669749112202764e-12  -8.1798483063687066e-12  -8.5051648276356055e-12 
 -8.8434193441550819e-12  -9.1951264062453887e-12  -9.5608210281390634e-12  -9.9410595018426767e-12 
 -1.0336420243364142e-11  -1.0747504672594875e-11  -1.1174938128185314e-11  -1.1619370818805476e-11 
 -1.2081478812237589e-11  -1.2561965063805425e-11  -1.3061560485704740e-11  -1.3581025058861533e-11 
 -1.4121148989009379e-11  -1.4682753908744606e-11  -1.5266694127387666e-11  -1.5873857930552207e-11 
 -1.6505168931398480e-11  -1.7161587475626940e-11  -1.7844112102348940e-11  -1.8553781063057017e-11 
 -1.9291673901005350e-11  -2.0058913093402917e-11  -2.0856665758917555e-11  -2.1686145433088070e-11 
 -2.2548613914345516e-11  -2.3445383183451523e-11  -2.4377817399273617e-11  -2.5347334973933576e-11 
 -2.6355410730485251e-11  -2.7403578146404326e-11  -2.8493431686302910e-11  -2.9626629227416919e-11 
 -3.0804894581556607e-11  -3.2030020117356091e-11  -3.3303869486811062e-11  -3.4628380460251975e-11 
 -3.6005567874065895e-11  -3.7437526695650205e-11  -3.8926435210261161e-11  -4.0474558334605012e-11 
 -4.2084251062212044e-11  -4.3757962045834794e-11  -4.5498237322320129e-11  -4.7307724185620900e-11 
 -4.9189175213839458e-11  -5.1145452456428307e-11  -5.3179531787918063e-11  -5.5294507434794475e-11 
 -5.7493596682412711e-11  -5.9780144769106348e-11  -6.2157629974938712e-11  -6.4629668912835323e-11 
 -6.7200022030147758e-11  -6.9872599329016783e-11  -7.2651466314237471e-11  -7.5540850177673463e-11 
 -7.8545146228628074e-11  -8.1668924579954836e-11  -8.4916937100077143e-11  -8.8294124641493534e-11 
 -9.1805624556763300e-11  -9.5456778513406980e-11  -9.9253140619609160e-11  -1.0320048587308305e-10 
 -1.0730481894595219e-10  -1.1157238331900942e-10  -1.1600967077925033e-10  -1.2062343129512738e-10 
 -1.2542068328454853e-10  -1.3040872429123779e-10  -1.3559514208569971e-10  -1.4098782620767540e-10 
 -1.4659497996764559e-10  -1.5242513292564092e-10  -1.5848715386633817e-10  -1.6479026429018378e-10 
 -1.7134405244106422e-10  -1.7815848789186450e-10  -1.8524393671009945e-10  -1.9261117722669011e-10 
 -2.0027141643187148e-10  -2.0823630702317201e-10  -2.1651796513140051e-10  -2.2512898875160201e-10 
 -2.3408247690702157e-10  -2.4339204957522854e-10  -2.5307186840670910e-10  -2.6313665826745071e-10 
 -2.7360172963827916e-10  -2.8448300190503351e-10  -2.9579702757499571e-10  -3.0756101745642304e-10 
 -3.1979286683947880e-10  -3.3251118271839105e-10  -3.4573531209624905e-10  -3.5948537141549423e-10 
 -3.7378227715887231e-10  -3.8864777766740029e-10  -4.0410448622374997e-10  -4.2017591545136722e-10 
 -4.3688651308166333e-10  -4.5426169914368062e-10  -4.7232790463280877e-10  -4.9111261171736997e-10 
 -5.1064439554424011e-10  -5.3095296770709526e-10  -5.5206922144340967e-10  -5.7402527862895744e-10 
 -5.9685453864130489e-10  -6.2059172916662492e-10  -6.4527295902711921e-10  -6.7093577310940836e-10 
 -6.9761920947744955e-10  -7.2536385875685590e-10  -7.5421192588095430e-10  -7.8420729429250929e-10 
 -8.1539559269877973e-10  -8.4782426448144528e-10  -8.8154263986699619e-10  -9.1660201096736858e-10 
 -9.5305570980497680e-10  -9.9095918944082732e-10  -1.0303701083291360e-09  -1.0713484180267572e-09 
 -1.1139564543908520e-09  -1.1582590324035241e-09  -1.2043235447676650e-09  -1.2522200644239986e-09 
 -1.3020214511452606e-09  -1.3538034623696720e-09  -1.4076448684423046e-09  -1.4636275724396333e-09 
 -1.5218367347595552e-09  -1.5823609026663946e-09  -1.6452921449879789e-09  -1.7107261921696376e-09 
 -1.7787625818982173e-09  -1.8495048105176099e-09  -1.9230604904661296e-09  -1.9995415139752239e-09 
 -2.0790642232785426e-09  -2.1617495875902772e-09  -2.2477233871219878e-09  -2.3371164044178393e-09 
 -2.4300646232993034e-09  -2.5267094357219470e-09  -2.6271978568589964e-09  -2.7316827487388253e-09 
 -2.8403230527765758e-09  -2.9532840315536527e-09  -3.0707375202128267e-09  -3.1928621878514225e-09 
 -3.3198438093101738e-09  -3.4518755477712004e-09  -3.5891582485949910e-09  -3.7319007448433483e-09 
 -3.8803201749530912e-09  -4.0346423130436733e-09  -4.1951019123612695e-09  -4.3619430623816998e-09 
 -4.5354195601154026e-09  -4.7157952961793387e-09  -4.9033446562230005e-09  -5.0983529383192862e-09 
 -5.3011167869550621e-09  -5.5119446442816240e-09  -5.7311572193114907e-09  -5.9590879757752247e-09 
 -6.1960836393804252e-09  -6.4425047252445079e-09  -6.6987260863035447e-09  -6.9651374835314501e-09 
 -7.2421441788368331e-09  -7.5301675515394757e-09  -7.8296457393641415e-09  -8.1410343049267813e-09 
 -8.4648069287270212e-09  -8.8014561297009608e-09  -9.1514940144304874e-09  -9.5154530561486825e-09 
 -9.8938869047263275e-09  -1.0287371228871641e-08  -1.0696504591824333e-08  -1.1121909361876059e-08 
 -1.1564232659102268e-08  -1.2024147339745664e-08  -1.2502353019748504e-08  -1.2999577138990872e-08 
 -1.3516576067853611e-08  -1.4054136257789275e-08  -1.4613075437651198e-08  -1.5194243857600539e-08 
 -1.5798525582483361e-08  -1.6426839836645290e-08  -1.7080142402229193e-08  -1.7759427073083099e-08 
 -1.8465727166489759e-08  -1.9200117095017583e-08  -1.9963714000883602e-08  -2.0757679455314990e-08 
 -2.1583221225493706e-08  -2.2441595111772095e-08  -2.3334106857954319e-08  -2.4262114137548902e-08 
 -2.5227028619014219e-08  -2.6230318113138091e-08  -2.7273508805817937e-08  -2.8358187579637886e-08 
 -2.9486004427774182e-08  -3.0658674963900715e-08  -3.1877983031912298e-08  -3.3145783419435705e-08 
 -3.4464004679255802e-08  -3.5834652062948171e-08  -3.7259810571181286e-08  -3.8741648125327211e-08 
 -4.0282418865205553e-08  -4.1884466577976944e-08  -4.3550228263401322e-08  -4.5282237840884369e-08 
 -4.7083130003950589e-08  -4.8955644228006258e-08  -5.0902628937487883e-08  -5.2927045838735405e-08 
 -5.5031974425179819e-08  -5.7220616661698740e-08  -5.9496301855264578e-08  -6.1862491719294194e-08 
 -6.4322785639402753e-08  -6.6880926148571708e-08  -6.9540804620058522e-08  -7.2306467186707832e-08 
 -7.5182120895666565e-08  -7.8172140107865846e-08  -8.1281073152002615e-08  -8.4513649243141346e-08 
 -8.7874785676461448e-08  -9.1369595307089284e-08  -9.5003394327393951e-08  -9.8781710353575015e-08 
 -1.0271029083384236e-07  -1.0679511179097732e-07  -1.1104238691257181e-07  -1.1545857700277226e-07 
 -1.2005039980990382e-07  -1.2482484024492348e-07  -1.2978916100624263e-07  -1.3495091362708081e-07 
 -1.4031794996215214e-07  -1.4589843413115568e-07  -1.5170085493723483e-07  -1.5773403877929517e-07 
 -1.6400716307781681e-07  -1.7052977023458378e-07  -1.7731178214756002e-07  -1.8436351530298989e-07 
 -1.9169569646767374e-07  -1.9931947900528845e-07  -2.0724645984156458e-07  -2.1548869710412382e-07 
 -2.2405872846380388e-07  -2.3296959020536327e-07  -2.4223483705657110e-07  -2.5186856280583603e-07 
 -2.6188542173973080e-07  -2.7230065093301034e-07  -2.8313009342502540e-07  -2.9439022231777372e-07 
 -3.0609816583223542e-07  -3.1827173336109707e-07  -3.3092944255748342e-07  -3.4409054750091838e-07 
 -3.5777506798354667e-07  -3.7200381996091423e-07  -3.8679844721355959e-07  -4.0218145426764102e-07 
 -4.1817624062467973e-07  -4.3480713635246883e-07  -4.5209943909126929e-07  -4.7007945253157396e-07 
 -4.8877452642194534e-07  -5.0821309816777429e-07  -5.2842473608420475e-07  -5.4944018436901240e-07 
 -5.7129140986380759e-07  -5.9401165067468468e-07  -6.1763546672623941e-07  -6.4219879232582820e-07 
 -6.6773899081800307e-07  -6.9429491141222090e-07  -7.2190694827024060e-07  -7.5061710194304831e-07 
 -7.8046904325073533e-07  -8.1150817970244591e-07  -8.4378172455739602e-07  -8.7733876863196352e-07 
 -9.1223035496202966e-07  -9.4850955643409342e-07  -9.8623155650319145e-07  -1.0254537331203383e-06 
 -1.0662357459971043e-06  -1.1086396273399939e-06  -1.1527298761925775e-06  -1.1985735565288108e-06 
 -1.2462403992466636e-06  -1.2958029082171328e-06  -1.3473364705498550e-06  -1.4009194712429524e-06 
 -1.4566334123914074e-06  -1.5145630371351900e-06  -1.5747964585355622e-06  -1.6374252935754722e-06 
 -1.7025448024877439e-06  -1.7702540336228534e-06  -1.8406559740765163e-06  -1.9138577063060352e-06 
 -1.9899705709735091e-06  -2.0691103362633743e-06  -2.1513973739317142e-06  -2.2369568423548656e-06 
 -2.3259188768555904e-06  -2.4184187875960724e-06  -2.5145972653385368e-06  -2.6146005953861975e-06 
 -2.7185808800297281e-06  -2.8266962698372776e-06  -2.9391112041396117e-06  -3.0559966610757698e-06 
 -3.1775304175793292e-06  -3.3038973197002904e-06  -3.4352895636734068e-06  -3.5719069881600829e-06 
 -3.7139573781078808e-06  -3.8616567806893545e-06  -4.0152298338002964e-06  -4.1749101076164638e-06 
 -4.3409404597277662e-06  -4.5135734043894344e-06  -4.6930714964511365e-06  -4.8797077305473382e-06 
 -5.0737659561552139e-06  -5.2755413091506452e-06  -5.4853406605177848e-06  -5.7034830828936629e-06 
 -5.9303003356564597e-06  -6.1661373692940420e-06  -6.4113528498187231e-06  -6.6663197040244754e-06 
 -6.9314256864144749e-06  -7.2070739686596756e-06  -7.4936837524832834e-06  -7.7916909069013338e-06 
 -8.1015486307867097e-06  -8.4237281417620025e-06  -8.7587193924666242e-06  -9.1070318152851368e-06 
 -9.4691950966664429e-06  -9.8457599822086849e-06  -1.0237299113731009e-05  -1.0644407899601718e-05 
 -1.1067705419642780e-05  -1.1507835365982842e-05  -1.1965467021285254e-05  -1.2441296275834138e-05 
 -1.2936046685020392e-05  -1.3450470568830392e-05  -1.3985350155003849e-05  -1.4541498767593091e-05 
 -1.5119762062725026e-05  -1.5721019313437880e-05  -1.6346184745539480e-05  -1.6996208926510557e-05 
 -1.7672080209557139e-05  -1.8374826234999161e-05  -1.9105515491269033e-05  -1.9865258937884525e-05 
 -2.0655211692852888e-05  -2.1476574787061550e-05  -2.2330596988311201e-05  -2.3218576697752829e-05 
 -2.4141863921599093e-05  -2.5101862321094222e-05  -2.6100031343844997e-05  -2.7137888439737216e-05 
 -2.8217011364790993e-05  -2.9339040576439664e-05  -3.0505681723855390e-05  -3.1718708237088107e-05 
 -3.2979964018932122e-05  -3.4291366243591004e-05  -3.5654908266370596e-05  -3.7072662648798341e-05 
 -3.8546784303740192e-05  -4.0079513765267221e-05  -4.1673180588210861e-05  -4.3330206882540660e-05 
 -4.5053110987902500e-05  -4.6844511293863890e-05  -4.8707130211632986e-05  -5.0643798303245099e-05 
 -5.2657458574446219e-05  -5.4751170937749014e-05  -5.6928116852392747e-05  -5.9191604148201725e-05 
 -6.1545072040614977e-05  -6.3992096344444189e-05  -6.6536394894215162e-05  -6.9181833179258185e-05 
 -7.1932430202032338e-05  -7.4792364568504127e-05  -7.7765980819746329e-05  -8.0857796014284871e-05 
 -8.4072506571094524e-05  -8.7414995383534779e-05  -9.0890339214920197e-05  -9.4503816386840115e-05 
 -9.8260914771779821e-05  -1.0216734010204589e-04  -1.0622902460747334e-04  -1.1045213599487765e-04 
 -1.1484308678272528e-04  -1.1940854400502343e-04  -1.2415543929897836e-04  -1.2909097939154101e-04 
 -1.3422265700055043e-04  -1.3955826216680088e-04  -1.4510589403399511e-04  -1.5087397309421183e-04 
 -1.5687125391719992e-04  -1.6310683838253328e-04  -1.6959018943439553e-04  -1.7633114537954039e-04 
 -1.8333993474977414e-04  -1.9062719175113330e-04  -1.9820397232280109e-04  -2.0608177082969832e-04 
 -2.1427253741361599e-04  -2.2278869602872529e-04  -2.3164316318830300e-04  -2.4084936745055166e-04 
 -2.5042126967247561e-04  -2.6037338406190093e-04  -2.7072080005888412e-04  -2.8147920507897247e-04 
 -2.9266490815203083e-04  -3.0429486449165435e-04  -3.1638670103153636e-04  -3.2895874296656627e-04 
 -3.4203004133789383e-04  -3.5562040170269488e-04  -3.6975041393095810e-04  -3.8444148317322410e-04 
 -3.9971586204491140e-04  -4.1559668407459901e-04  -4.3210799846547126e-04  -4.4927480622099518e-04 
 -4.6712309768787131e-04  -4.8567989157132099e-04  -5.0497327547986963e-04  -5.2503244805897950e-04 
 -5.4588776277513169e-04  -5.6757077341431609e-04  -5.9011428136130370e-04  -6.1355238472860809e-04 
 -6.3792052940665007e-04  -6.6325556210934460e-04  -6.8959578549213812e-04  -7.1698101542243004e-04 
 -7.4545264048533520e-04  -7.7505368381084263e-04  -8.0582886731169249e-04  -8.3782467842461459e-04 
 -8.7108943945106410e-04  -9.0567337959716920e-04  -9.4162870981633420e-04  -9.7900970056180245e-04 
 -1.0178727625604614e-03  -1.0582765307233036e-03  -1.1002819513122478e-03  -1.1439523724874313e-03 
 -1.1893536383636681e-03  -1.2365541867095156e-03  -1.2856251504272675e-03  -1.3366404629572910e-03 
 -1.3896769677553317e-03  -1.4448145319968580e-03  -1.5021361646681028e-03  -1.5617281392092553e-03 
 -1.6236801208812251e-03  -1.6880852990336140e-03  -1.7550405244578745e-03  -1.8246464520162737e-03 
 -1.8970076887440321e-03  -1.9722329476291201e-03  -2.0504352072813477e-03  -2.1317318777099694e-03 
 -2.2162449724366629e-03  -2.3041012871787780e-03  -2.3954325853458936e-03  -2.4903757906012554e-03 
 -2.5890731867483268e-03  -2.6916726252117005e-03  -2.7983277403908872e-03  -2.9091981731749796e-03 
 -3.0244498029160325e-03  -3.1442549881690587e-03  -3.2687928165169365e-03  -3.3982493638091515e-03 
 -3.5328179631543247e-03  -3.6726994840175723e-03  -3.8181026217855621e-03  -3.9692441981736600e-03 
 -4.1263494728620304e-03  -4.2896524667597842e-03  -4.4593962973092111e-03  -4.6358335262550844e-03 
 -4.8192265203175063e-03  -5.0098478252204488e-03  -5.2079805535420239e-03  -5.4139187868670257e-03 
 -5.6279679927366631e-03  -5.8504454569054155e-03  -6.0816807314301178e-03  -6.3220160991316540e-03 
 -6.5718070549856114e-03  -6.8314228050139428e-03  -7.1012467832661033e-03  -7.3816771874943687e-03 
 -7.6731275341447962e-03  -7.9760272333021139e-03  -8.2908221842437017e-03  -8.6179753922751585e-03 
 -8.9579676075369190e-03  -9.3112979864891088e-03  -9.6784847767987393e-03  -1.0060066026371205e-02 
 -1.0456600317285158e-02  -1.0868667525407105e-02  -1.1296869606479520e-02  -1.1741831409492968e-02 
 -1.2204201518169828e-02  -1.2684653121403325e-02  -1.3183884913512071e-02  -1.3702622025185787e-02 
 -1.4241616986012888e-02  -1.4801650719495713e-02  -1.5383533571472124e-02  -1.5988106372876173e-02 
 -1.6616241537781795e-02  -1.7268844197685124e-02  -1.7946853372990526e-02  -1.8651243182674165e-02 
 -1.9383024093105706e-02  -2.0143244207014702e-02  -2.0932990593591192e-02  -2.1753390660712166e-02 
 -2.2605613570284514e-02  -2.3490871697692563e-02  -2.4410422136332224e-02  -2.5365568248205246e-02 
 -2.6357661261535856e-02  -2.7388101916356048e-02  -2.8458342158987977e-02  -2.9569886886327657e-02 
 -3.0724295740808132e-02  -3.1923184956887188e-02  -3.3168229259867940e-02  -3.4461163817817407e-02 
 -3.5803786247299678e-02  -3.7197958673585156e-02  -3.8645609845934015e-02  -4.0148737308484221e-02 
 -4.1709409627194632e-02  -4.3329768673208861e-02  -4.5012031962909517e-02  -4.6758495054827064e-02 
 -4.8571534003450989e-02  -5.0453607869864928e-02  -5.2407261288987220e-02  -5.4435127093045543e-02 
 -5.6539928990750769e-02  -5.8724484301451489e-02  -6.0991706743357327e-02  -6.3344609274705421e-02 
 -6.5786306986514206e-02  -6.8320020045320590e-02  -7.0949076684027709e-02  -7.3676916238700790e-02 
 -7.6507092228837614e-02  -7.9443275478304598e-02  -8.2489257273768837e-02  -8.5648952557071389e-02 
 -8.8926403147572622e-02  -9.2325780990056380e-02  -9.5851391423307078e-02  -9.9507676463966452e-02 
 -1.0329921809973547e-01  -1.0723074158541183e-01  -1.1130711873463739e-01  -1.1553337119957684e-01 
 -1.1991467373005360e-01  -1.2445635740292803e-01  -1.2916391281172152e-01  -1.3404299320565499e-01 
 -1.3909941756638841e-01  -1.4433917360981752e-01  -1.4976842069929033e-01  -1.5539349265556684e-01 
 -1.6122090044773915e-01  -1.6725733474816570e-01  -1.7350966833324952e-01  -1.7998495831059275e-01 
 -1.8669044815170377e-01  -1.9363356950800364e-01  -2.0082194378637133e-01  -2.0826338345889905e-01 
 -2.1596589307986766e-01  -2.2393766998122863e-01  -2.3218710461606235e-01  -2.4072278051759033e-01 
 -2.4955347383934712e-01  -2.5868815244004234e-01  -2.6813597447451187e-01  -2.7790628644990295e-01 
 -2.8800862070392758e-01  -2.9845269225959353e-01  -3.0924839500832879e-01  -3.2040579717081058e-01 
 -3.3193513598214613e-01  -3.4384681154526620e-01  -3.5615137979355116e-01  -3.6885954450076525e-01 
 -3.8198214827335369e-01  -3.9553016245706540e-01  -4.0951467588668439e-01  -4.2394688240441902e-01 
 -4.3883806706918760e-01  -4.5419959097568047e-01  -4.7004287459867228e-01  -4.8637937957459870e-01 
 -5.0322058882893794e-01  -5.2057798495443697e-01  -5.3846302674172053e-01  -5.5688712376031824e-01 
 -5.7586160888468985e-01  -5.9539770865638497e-01  -6.1550651137013446e-01  -6.3619893276837691e-01 
 -6.5748567922557766e-01  -6.7937720830067083e-01  -7.0188368653311417e-01  -7.2501494435538461e-01 
 -7.4878042799237143e-01  -7.7318914821598572e-01  -7.9824962582153502e-01  -8.2396983369099985e-01 
 -8.5035713530739843e-01  -8.7741821958393507e-01  -9.0515903187175029e-01  -9.3358470101079960e-01 
 -9.6269946228985781e-01  -9.9250657618389049e-01  -1.0230082427402076e+00  -1.0542055114889766e+00 
 -1.0860981867589621e+00  -1.1186847282859316e+00  -1.1519621470090704e+00  -1.1859258959602661e+00 
 -1.2205697561622815e+00  -1.2558857174649574e+00  -1.2918638542637138e+00  -1.3284921960621174e+00 
 -1.3657565928602842e+00  -1.4036405753736869e+00  -1.4421252101127857e+00  -1.4811889493831352e+00 
 -1.5208074762985344e+00  -1.5609535449366694e+00  -1.6015968158080871e+00  -1.6427036868553695e+00 
 -1.6842371202507822e+00  -1.7261564653175465e+00  -1.7684172779630902e+00  -1.8109711370821986e+00 
 -1.8537654584649668e+00  -1.8967433068288289e+00  -1.9398432066866809e+00  -1.9829989528645044e+00 
 -2.0261394215926471e+00  -2.0691883832154403e+00  -2.1120643176946903e+00  -2.1546802342243416e+00 
 -2.1969434964264654e+00  -2.2387556547633789e+00  -2.2800122879770219e+00  -2.3206028555551494e+00 
 -2.3604105634243506e+00  -2.3993122452819757e+00  -2.4371782622027718e+00  -2.4738724233901368e+00 
 -2.5092519311859749e+00  -2.5431673537053174e+00  -2.5754626287207496e+00  -2.6059751026847877e+00 
 -2.6345356090430170e+00  -2.6609685902534728e+00  -2.6850922681847038e+00  -2.7067188678110234e+00 
 -2.7256548993535628e+00  -2.7417015042232653e+00  -2.7546548702997229e+00  -2.7643067222203128e+00 
 -2.7704448924475842e+00  -2.7728539789205051e+00  -2.7713160950660463e+00  -2.7656117178404784e+00 
 -2.7555206392728619e+00  -2.7408230266841809e+00  -2.7213005963417065e+00  -2.6967379047664317e+00 
 -2.6669237612289418e+00  -2.6316527641330287e+00  -2.5907269629844092e+00  -2.5439576464615672e+00 
 -2.4911672557362299e+00  -2.4321914206209829e+00  -2.3668811143408139e+00  -2.2951049207252656e+00 
 -2.2167514053879147e+00  -2.1317315799947378e+00  -2.0399814460118795e+00  -1.9414646013644012e+00 
 -1.8361748902244162e+00  -1.7241390726812140e+00  -1.6054194873317809e+00  -1.4801166758816058e+00 
 -1.3483719346866663e+00  -1.2103697538392097e+00  -1.0663400999630268e+00  -9.1656049442763565e-01 
 -7.6135783433445081e-01  -6.0110989953272997e-01  -4.3624648529008864e-01  -2.6725009731921073e-01 
 -9.4656143939086376e-02  8.0947440449737576e-02  2.5892120532782925e-01  4.3857588913155882e-01 
 6.1917487572693808e-01  7.9993745063587696e-01  9.8004289476437478e-01  1.1586354401115477e+00 
 1.3348300961544750e+00  1.5077193375981679e+00  1.6763806243630119e+00  1.8398847035441570e+00 
 1.9973046211544574e+00  2.1477253492986352e+00  2.2902539125611088e+00  2.4240298763488761e+00 
 2.5482360402349320e+00  2.6621091615229262e+00  2.7649505188375971e+00  2.8561361131009759e+00 
 2.9351262943708636e+00  3.0014745983394255e+00  3.0548355765354729e+00  3.0949714102873851e+00 
 3.1217571112656812e+00  3.1351841320191860e+00  3.1353622393517488e+00  3.1225195422296359e+00 
 3.0970006137586958e+00  3.0592627016920479e+00  3.0098700801753888e+00  2.9494866517826788e+00 
 2.8788669577563222e+00  2.7988457914264129e+00  2.7103266334557956e+00  2.6142691412373646e+00 
 2.5116759350427360e+00  2.4035788532046416e+00  2.2910250561976668e+00  2.1750630829222897e+00 
 2.0567291671804728e+00  1.9370340610281973e+00  1.8169506111987539e+00  1.6974023268056906e+00 
 1.5792531568493289e+00  1.4632986667799666e+00  1.3502587658500635e+00  1.2407720932345219e+00 
 1.1353921233365052e+00  1.0345850018252218e+00  9.3872907611573997e-01  8.4811603925331092e-01 
 7.6295356620008992e-01  6.8336928765367766e-01  6.0941591967958419e-01  5.4107734816358188e-01 
 4.7827545557908940e-01  4.2087747368258460e-01  3.6870364906292369e-01  3.2153501829306796e-01 
 2.7912110486994296e-01  2.4118737013855182e-01  2.0744227384094743e-01  1.7758382563554323e-01 
 1.5130553574268124e-01  1.2830169970123878e-01  1.0827197809183746e-01  9.0925256162671553e-02 
 7.5982789916626575e-02  6.3180663894146685e-02  5.2271601306816518e-02  4.3026179205738015e-02 
 3.5233510026795582e-02  2.8701456299267174e-02  2.3256447803813845e-02  1.8742970369508873e-02 
 1.5022793214501697e-02  1.1973997692412098e-02  9.4898649451896650e-03  7.4776736997409646e-03 
 5.8574526666322554e-03  4.5607250429056225e-03  3.5292757723441575e-03  2.7139657035931872e-03 
 2.0736107788489524e-03  1.5739390013427162e-03  1.1866332345103431e-03  8.8846390627203618e-04 
 6.6051241931533086e-04  4.8748346667735641e-04  3.5710246788510890e-04  2.5959290639662443e-04 
 1.8722739169099159e-04  1.3394571366218046e-04  9.5032930391846716e-05  6.6850562640498711e-05 
 4.6614202651382015e-05  3.2211219839540981e-05  2.2052720964748095e-05  1.4954455751874688e-05 
 1.0041919795768275e-05  6.6754702115424538e-06  4.3918167915943440e-06  2.8587689556311177e-06 
 1.8405965961460115e-06  1.1717961451112472e-06  7.3743798738243513e-07  4.5860829466304813e-07 
 2.8174814087885404e-07  1.7093835259475903e-07  1.0238362626696110e-07  6.0517902095097039e-08 
 3.5289537287249315e-08  2.0293620884687907e-08  1.1504393290812915e-08  6.4267838775014434e-09 
 3.5365615425104393e-09  1.9162544902358046e-09  1.0219566518456248e-09  5.3621480716448822e-10 
 2.7668622543483534e-10  1.4034096695249716e-10  6.9942899743745314e-11  3.4234088909853362e-11 
 1.6448114248393571e-11  7.7538274231361545e-12  3.5841494506578896e-12  1.6242781004733571e-12 
 7.2091020830882722e-13  3.1390223342070750e-13  1.3315651828129489e-13  5.5634409712743603e-14 
 2.2625832679540924e-14  8.4523691612291564e-15  3.0807271578176135e-15  1.1669762411940758e-15 
 5.5217712943667803e-16  0.0000000000000000e+00  0.0000000000000000e+00  0.0000000000000000e+00 
 0.0000000000000000e+00  0.0000000000000000e+00  0.0000000000000000e+00  0.0000000000000000e+00 
 0.0000000000000000e+00  0.0000000000000000e+00  0.0000000000000000e+00  0.0000000000000000e+00 
 0.0000000000000000e+00  0.0000000000000000e+00  0.0000000000000000e+00  0.0000000000000000e+00 
 0.0000000000000000e+00  0.0000000000000000e+00  0.0000000000000000e+00  0.0000000000000000e+00 
 0.0000000000000000e+00  0.0000000000000000e+00  0.0000000000000000e+00  0.0000000000000000e+00 
 0.0000000000000000e+00  0.0000000000000000e+00  0.0000000000000000e+00  0.0000000000000000e+00 
 0.0000000000000000e+00  0.0000000000000000e+00  0.0000000000000000e+00  0.0000000000000000e+00 
 0.0000000000000000e+00  0.0000000000000000e+00  0.0000000000000000e+00  0.0000000000000000e+00 
 0.0000000000000000e+00  0.0000000000000000e+00  0.0000000000000000e+00  0.0000000000000000e+00 
 0.0000000000000000e+00  0.0000000000000000e+00  0.0000000000000000e+00  0.0000000000000000e+00 
 0.0000000000000000e+00  0.0000000000000000e+00  0.0000000000000000e+00  0.0000000000000000e+00 
 0.0000000000000000e+00  0.0000000000000000e+00  0.0000000000000000e+00  0.0000000000000000e+00 
 0.0000000000000000e+00  0.0000000000000000e+00  0.0000000000000000e+00  0.0000000000000000e+00 
 0.0000000000000000e+00  0.0000000000000000e+00  0.0000000000000000e+00  0.0000000000000000e+00 
 0.0000000000000000e+00  0.0000000000000000e+00  0.0000000000000000e+00  0.0000000000000000e+00 
 0.0000000000000000e+00  0.0000000000000000e+00  0.0000000000000000e+00  0.0000000000000000e+00 
 0.0000000000000000e+00  0.0000000000000000e+00  0.0000000000000000e+00  0.0000000000000000e+00 
 0.0000000000000000e+00  0.0000000000000000e+00  0.0000000000000000e+00  0.0000000000000000e+00 
 0.0000000000000000e+00  0.0000000000000000e+00  0.0000000000000000e+00  0.0000000000000000e+00 
 0.0000000000000000e+00  0.0000000000000000e+00  0.0000000000000000e+00  0.0000000000000000e+00 
 0.0000000000000000e+00  0.0000000000000000e+00  0.0000000000000000e+00  0.0000000000000000e+00 
 0.0000000000000000e+00  0.0000000000000000e+00  0.0000000000000000e+00  0.0000000000000000e+00 
 0.0000000000000000e+00  0.0000000000000000e+00  0.0000000000000000e+00  0.0000000000000000e+00 
 0.0000000000000000e+00  0.0000000000000000e+00  0.0000000000000000e+00  0.0000000000000000e+00 
 0.0000000000000000e+00  0.0000000000000000e+00  0.0000000000000000e+00  0.0000000000000000e+00 
 0.0000000000000000e+00  0.0000000000000000e+00  0.0000000000000000e+00  0.0000000000000000e+00 
 0.0000000000000000e+00  0.0000000000000000e+00  0.0000000000000000e+00  0.0000000000000000e+00 
 0.0000000000000000e+00  0.0000000000000000e+00  0.0000000000000000e+00  0.0000000000000000e+00 
 0.0000000000000000e+00  0.0000000000000000e+00  0.0000000000000000e+00  0.0000000000000000e+00 
 0.0000000000000000e+00  0.0000000000000000e+00  0.0000000000000000e+00  0.0000000000000000e+00 
 0.0000000000000000e+00  0.0000000000000000e+00  0.0000000000000000e+00  0.0000000000000000e+00 
 0.0000000000000000e+00  0.0000000000000000e+00  0.0000000000000000e+00  0.0000000000000000e+00 
 0.0000000000000000e+00  0.0000000000000000e+00  0.0000000000000000e+00  0.0000000000000000e+00 
 0.0000000000000000e+00  0.0000000000000000e+00  0.0000000000000000e+00  0.0000000000000000e+00 
 0.0000000000000000e+00  0.0000000000000000e+00  0.0000000000000000e+00  0.0000000000000000e+00 
 0.0000000000000000e+00  0.0000000000000000e+00  0.0000000000000000e+00  0.0000000000000000e+00 
 0.0000000000000000e+00  0.0000000000000000e+00  0.0000000000000000e+00  0.0000000000000000e+00 
 0.0000000000000000e+00  0.0000000000000000e+00  0.0000000000000000e+00  0.0000000000000000e+00 
 0.0000000000000000e+00  0.0000000000000000e+00  0.0000000000000000e+00  0.0000000000000000e+00 
 0.0000000000000000e+00  0.0000000000000000e+00  0.0000000000000000e+00  0.0000000000000000e+00 
 0.0000000000000000e+00  0.0000000000000000e+00  0.0000000000000000e+00  0.0000000000000000e+00 
 0.0000000000000000e+00  0.0000000000000000e+00  0.0000000000000000e+00  0.0000000000000000e+00 
 0.0000000000000000e+00  0.0000000000000000e+00  0.0000000000000000e+00  0.0000000000000000e+00 
 0.0000000000000000e+00  0.0000000000000000e+00  0.0000000000000000e+00  0.0000000000000000e+00 
 0.0000000000000000e+00  0.0000000000000000e+00  0.0000000000000000e+00  0.0000000000000000e+00 
 0.0000000000000000e+00  0.0000000000000000e+00  0.0000000000000000e+00  0.0000000000000000e+00 
 0.0000000000000000e+00  0.0000000000000000e+00  0.0000000000000000e+00  0.0000000000000000e+00 
 0.0000000000000000e+00  0.0000000000000000e+00  0.0000000000000000e+00  0.0000000000000000e+00 
 0.0000000000000000e+00  0.0000000000000000e+00  0.0000000000000000e+00  0.0000000000000000e+00 
 0.0000000000000000e+00  0.0000000000000000e+00  0.0000000000000000e+00  0.0000000000000000e+00 
 0.0000000000000000e+00  0.0000000000000000e+00  0.0000000000000000e+00  0.0000000000000000e+00 
 0.0000000000000000e+00  0.0000000000000000e+00  0.0000000000000000e+00  0.0000000000000000e+00 
 0.0000000000000000e+00  0.0000000000000000e+00  0.0000000000000000e+00  0.0000000000000000e+00 
 0.0000000000000000e+00  0.0000000000000000e+00  0.0000000000000000e+00  0.0000000000000000e+00 
 0.0000000000000000e+00  0.0000000000000000e+00  0.0000000000000000e+00  0.0000000000000000e+00 
 0.0000000000000000e+00  0.0000000000000000e+00  0.0000000000000000e+00  0.0000000000000000e+00 
 0.0000000000000000e+00  0.0000000000000000e+00  0.0000000000000000e+00  0.0000000000000000e+00 
 0.0000000000000000e+00  0.0000000000000000e+00  0.0000000000000000e+00  0.0000000000000000e+00 
 0.0000000000000000e+00  0.0000000000000000e+00  0.0000000000000000e+00  0.0000000000000000e+00 
 0.0000000000000000e+00  0.0000000000000000e+00  0.0000000000000000e+00  0.0000000000000000e+00 
 0.0000000000000000e+00  0.0000000000000000e+00  0.0000000000000000e+00  0.0000000000000000e+00 
 0.0000000000000000e+00  0.0000000000000000e+00  0.0000000000000000e+00  0.0000000000000000e+00 
 0.0000000000000000e+00  0.0000000000000000e+00  0.0000000000000000e+00  0.0000000000000000e+00 
 0.0000000000000000e+00  0.0000000000000000e+00  0.0000000000000000e+00  0.0000000000000000e+00 
 0.0000000000000000e+00  0.0000000000000000e+00  0.0000000000000000e+00  0.0000000000000000e+00 
 0.0000000000000000e+00  0.0000000000000000e+00  0.0000000000000000e+00  0.0000000000000000e+00 
 0.0000000000000000e+00  0.0000000000000000e+00  0.0000000000000000e+00  0.0000000000000000e+00 
 0.0000000000000000e+00  0.0000000000000000e+00  0.0000000000000000e+00  0.0000000000000000e+00 
 0.0000000000000000e+00  0.0000000000000000e+00  0.0000000000000000e+00  0.0000000000000000e+00 
 0.0000000000000000e+00  0.0000000000000000e+00  0.0000000000000000e+00  0.0000000000000000e+00 
 0.0000000000000000e+00  0.0000000000000000e+00  0.0000000000000000e+00  0.0000000000000000e+00 
 0.0000000000000000e+00 
  </PP_BETA>
  <PP_DIJ>
 4   Number of nonzero Dij
 1 1 -2.6297675317551970e+00 
 2 2 8.9616791099804183e-01 
 3 3 2.0580383238371032e+00 
 4 4 1.7601946659363057e+00 
  </PP_DIJ>
</PP_NONLOCAL>
<PP_PSWFC>
S    0   2.00          Wavefunction
 2.1149932235319305e-06  2.1426676302842972e-06  2.1707041530162833e-06  2.1991075299689633e-06 
 2.2278825613827259e-06  2.2570341103085322e-06  2.2865671034297858e-06  2.3164865318949548e-06 
 2.3467974521610949e-06  2.3775049868484036e-06  2.4086143256059601e-06  2.4401307259887946e-06 
 2.4720595143464266e-06  2.5044060867230404e-06  2.5371759097694310e-06  2.5703745216668849e-06 
 2.6040075330631536e-06  2.6380806280206687e-06  2.6725995649771700e-06  2.7075701777188983e-06 
 2.7429983763665258e-06  2.7788901483739875e-06  2.8152515595403779e-06  2.8520887550350965e-06 
 2.8894079604363997e-06  2.9272154827835446e-06  2.9655177116427051e-06  3.0043211201868247e-06 
 3.0436322662896128e-06  3.0834577936338452e-06  3.1238044328341691e-06  3.1646790025746054e-06 
 3.2060884107609322e-06  3.2480396556881406e-06  3.2905398272231790e-06  3.3335961080031671e-06 
 3.3772157746492866e-06  3.4214061989965586e-06  3.4661748493397179e-06  3.5115292916953770e-06 
 3.5574771910807178e-06  3.6040263128089113e-06  3.6511845238014835e-06  3.6989597939178625e-06 
 3.7473601973023156e-06  3.7963939137485125e-06  3.8460692300819495e-06  3.8963945415604555e-06 
 3.9473783532930288e-06  3.9990292816772401e-06  4.0513560558554391e-06  4.1043675191900222e-06 
 4.1580726307579989e-06  4.2124804668651230e-06  4.2676002225798243e-06  4.3234412132872224e-06 
 4.3800128762634756e-06  4.4373247722707205e-06  4.4953865871728929e-06  4.5542081335726884e-06 
 4.6137993524699406e-06  4.6741703149417005e-06  4.7353312238443085e-06  4.7972924155377210e-06 
 4.8600643616324211e-06  4.9236576707591727e-06  4.9880830903619440e-06  5.0533515085142816e-06 
 5.1194739557594569e-06  5.1864616069746995e-06  5.2543257832598128e-06  5.3230779538505082e-06 
 5.3927297380567785e-06  5.4632929072266309e-06  5.5347793867355248e-06  5.6072012580018342e-06 
 5.6805707605286825e-06  5.7549002939725046e-06  5.8302024202386782e-06  5.9064898656045605e-06 
 5.9837755228703299e-06  6.0620724535379454e-06  6.1413938900186625e-06  6.2217532378693759e-06 
 6.3031640780582847e-06  6.3856401692601702e-06  6.4691954501817132e-06  6.5538440419172620e-06 
 6.6396002503353935e-06  6.7264785684967408e-06  6.8144936791034263e-06  6.9036604569805755e-06 
 6.9939939715902792e-06  7.0855094895784864e-06  7.1782224773551849e-06  7.2721486037083800e-06 
 7.3673037424522656e-06  7.4637039751100422e-06  7.5613655936318605e-06  7.6603051031483270e-06 
 7.7605392247600245e-06  7.8620848983635708e-06  7.9649592855146220e-06  8.0691797723283748e-06 
 8.1747639724180034e-06  8.2817297298715668e-06  8.3900951222678482e-06  8.4998784637317086e-06 
 8.6110983080293546e-06  8.7237734517041840e-06  8.8379229372536222e-06  8.9535660563475442e-06 
 9.0707223530888312e-06  9.1894116273165654e-06  9.3096539379524963e-06  9.4314696063912542e-06 
 9.5548792199349693e-06  9.6799036352728166e-06  9.8065639820061150e-06  9.9348816662195346e-06 
 1.0064878374099073e-05  1.0196576075597358e-05  1.0329997028146921e-05  1.0465163780422081e-05 
 1.0602099176150044e-05  1.0740826357971900e-05  1.0881368771354117e-05  1.1023750168551279e-05 
 1.1167994612620630e-05  1.1314126481489204e-05  1.1462170472074168e-05  1.1612151604457073e-05 
 1.1764095226112785e-05  1.1918027016193704e-05  1.2073972989870109e-05  1.2231959502727272e-05 
 1.2392013255220156e-05  1.2554161297186383e-05  1.2718431032418304e-05  1.2884850223294872e-05 
 1.3053446995474198e-05  1.3224249842647446e-05  1.3397287631355036e-05  1.3572589605865828e-05 
 1.3750185393120191e-05  1.3930105007737772e-05  1.4112378857090820e-05  1.4297037746443885e-05 
 1.4484112884160855e-05  1.4673635886980078e-05  1.4865638785358602e-05  1.5060154028886311e-05 
 1.5257214491770987e-05  1.5456853478395111e-05  1.5659104728945494e-05  1.5864002425116497e-05 
 1.6071581195887985e-05  1.6281876123378909e-05  1.6494922748777468e-05  1.6710757078348974e-05 
 1.6929415589522312e-05  1.7150935237056110e-05  1.7375353459285636e-05  1.7602708184451442e-05 
 1.7833037837110917e-05  1.8066381344633730e-05  1.8302778143782356e-05  1.8542268187378717e-05 
 1.8784891951058157e-05  1.9030690440111811e-05  1.9279705196418533e-05  1.9531978305467686e-05 
 1.9787552403473779e-05  2.0046470684584334e-05  2.0308776908182081e-05  2.0574515406282814e-05 
 2.0843731091030109e-05  2.1116469462288165e-05  2.1392776615334082e-05  2.1672699248650879e-05 
 2.1956284671822571e-05  2.2243580813532635e-05  2.2534636229667211e-05  2.2829500111524439e-05 
 2.3128222294131337e-05  2.3430853264669547e-05  2.3737444171011491e-05  2.4048046830368353e-05 
 2.4362713738051193e-05  2.4681498076347022e-05  2.5004453723510992e-05  2.5331635262876440e-05 
 2.5663097992084246e-05  2.5998897932433118e-05  2.6339091838352363e-05  2.6683737206998709e-05 
 2.7032892287978989e-05  2.7386616093200011e-05  2.7744968406847687e-05  2.8108009795496793e-05 
 2.8475801618353207e-05  2.8848406037630360e-05  2.9225886029061723e-05  2.9608305392550954e-05 
 2.9995728762961723e-05  3.0388221621048828e-05  3.0785850304532654e-05  3.1188682019318808e-05 
 3.1596784850864706e-05  3.2010227775695230e-05  3.2429080673069337e-05  3.2853414336799542e-05 
 3.3283300487226457e-05  3.3718811783350228e-05  3.4160021835121044e-05  3.4607005215890825e-05 
 3.5059837475028180e-05  3.5518595150698751e-05  3.5983355782813174e-05  3.6454197926144868e-05 
 3.6931201163619883e-05  3.7414446119780940e-05  3.7904014474428270e-05  3.8399988976439258e-05 
 3.8902453457769355e-05  3.9411492847636840e-05  3.9927193186893538e-05  4.0449641642584176e-05 
 4.0978926522696726e-05  4.1515137291106480e-05  4.2058364582716064e-05  4.2608700218794286e-05 
 4.3166237222516343e-05  4.3731069834707927e-05  4.4303293529796192e-05  4.4883005031970009e-05 
 4.5470302331552558e-05  4.6065284701588714e-05  4.6668052714650639e-05  4.7278708259863759e-05 
 4.7897354560156665e-05  4.8524096189737468e-05  4.9159039091799826e-05  4.9802290596461752e-05 
 5.0453959438939964e-05  5.1114155777963383e-05  5.1782991214428367e-05  5.2460578810299565e-05 
 5.3147033107758998e-05  5.3842470148607116e-05  5.4547007493919017e-05  5.5260764243959169e-05 
 5.5983861058358264e-05  5.6716420176555418e-05  5.7458565438509611e-05  5.8210422305683492e-05 
 5.8972117882303728e-05  5.9743780936901206e-05  6.0525541924134820e-05  6.1317533006902919e-05 
 6.2119888078746060e-05  6.2932742786544945e-05  6.3756234553517699e-05  6.4590502602520248e-05 
 6.5435687979654053e-05  6.6291933578185332e-05  6.7159384162779752e-05  6.8038186394057146e-05 
 6.8928488853470292e-05  6.9830442068512222e-05  7.0744198538256418e-05  7.1669912759234576e-05 
 7.2607741251656116e-05  7.3557842585974138e-05  7.4520377409802749e-05  7.5495508475189899e-05 
 7.6483400666250889e-05  7.7484221027167047e-05  7.8498138790554427e-05  7.9525325406207563e-05 
 8.0565954570222846e-05  8.1620202254506703e-05  8.2688246736673267e-05  8.3770268630337043e-05 
 8.4866450915805071e-05  8.5976978971174110e-05  8.7102040603837980e-05  8.8241826082410252e-05 
 8.9396528169068061e-05  9.0566342152322303e-05  9.1751465880220398e-05  9.2952099793995022e-05 
 9.4168446962217777e-05  9.5400713115394265e-05  9.6649106680993035e-05  9.7913838818937754e-05 
 9.9195123457572454e-05  1.0049317733010618e-04  1.0180822001154365e-04  1.0314047395610825e-04 
 1.0449016453516511e-04  1.0585752007565058e-04  1.0724277189901518e-04  1.0864615436068767e-04 
 1.1006790489006692e-04  1.1150826403104951e-04  1.1296747548310050e-04  1.1444578614287490e-04 
 1.1594344614639737e-04  1.1746070891180882e-04  1.1899783118268741e-04  1.2055507307195189e-04 
 1.2213269810635669e-04  1.2373097327158570e-04  1.2535016905795471e-04  1.2699055950673039e-04 
 1.2865242225707524e-04  1.3033603859362720e-04  1.3204169349472357e-04  1.3376967568127796e-04 
 1.3552027766632052e-04  1.3729379580521117e-04  1.3909053034653462e-04  1.4091078548368906e-04 
 1.4275486940717717e-04  1.4462309435761073e-04  1.4651577667943938e-04  1.4843323687541434e-04 
 1.5037579966179781e-04  1.5234379402432989e-04  1.5433755327496417e-04  1.5635741510938353e-04 
 1.5840372166530859e-04  1.6047681958160991e-04  1.6257706005823783e-04  1.6470479891698105e-04 
 1.6686039666306780e-04  1.6904421854762252e-04  1.7125663463099053e-04  1.7349801984694623e-04 
 1.7576875406779614e-04  1.7806922217039332e-04  1.8039981410307570e-04  1.8276092495354420e-04 
 1.8515295501769519e-04  1.8757630986942201e-04  1.9003140043140210e-04  1.9251864304688370e-04 
 1.9503845955249073e-04  1.9759127735205937e-04  2.0017752949152517e-04  2.0279765473487597e-04 
 2.0545209764118841e-04  2.0814130864276549e-04  2.1086574412439163e-04  2.1362586650372500e-04 
 2.1642214431284265e-04  2.1925505228095931e-04  2.2212507141833551e-04  2.2503268910139626e-04 
 2.2797839915907723e-04  2.3096270196041764e-04  2.3398610450341809e-04  2.3704912050518455e-04 
 2.4015227049337581e-04  2.4329608189897444e-04  2.4648108915040071e-04  2.4970783376898750e-04 
 2.5297686446583705e-04  2.5628873724007733e-04  2.5964401547853925e-04  2.6304327005687202e-04 
 2.6648707944211747e-04  2.6997602979676266e-04  2.7351071508428880e-04  2.7709173717623854e-04 
 2.8071970596081934e-04  2.8439523945306383e-04  2.8811896390656819e-04  2.9189151392682792e-04 
 2.9571353258619381e-04  2.9958567154047020e-04  3.0350859114717697e-04  3.0748296058550093e-04 
 3.1150945797796134e-04  3.1558877051381513e-04  3.1972159457423032e-04  3.2390863585925704e-04 
 3.2815060951662850e-04  3.3244824027242273e-04  3.3680226256362257e-04  3.4121342067260969e-04 
 3.4568246886363313e-04  3.5021017152129564e-04  3.5479730329110080e-04  3.5944464922211102e-04 
 3.6415300491176016e-04  3.6892317665287219e-04  3.7375598158294245e-04  3.7865224783573619e-04 
 3.8361281469526153e-04  3.8863853275217675e-04  3.9373026406269214e-04  3.9888888231002595e-04 
 4.0411527296848227e-04  4.0941033347021414e-04  4.1477497337473842e-04  4.2021011454126982e-04 
 4.2571669130394261e-04  4.3129565064998831e-04  4.3694795240093869e-04  4.4267456939692923e-04 
 4.4847648768417267e-04  4.5435470670568640e-04  4.6031023949533390e-04  4.6634411287526154e-04 
 4.7245736765681273e-04  4.7865105884499661e-04  4.8492625584659532e-04  4.9128404268199079e-04 
 4.9772551820080016e-04  5.0425179630140551e-04  5.1086400615447112e-04  5.1756329243053982e-04 
 5.2435081553180618e-04  5.3122775182816678e-04  5.3819529389764894e-04  5.4525465077132366e-04 
 5.5240704818281493e-04  5.5965372882251679e-04  5.6699595259663562e-04  5.7443499689117787e-04 
 5.8197215684101049e-04  5.8960874560412178e-04  5.9734609464121697e-04  6.0518555400078681e-04 
 6.1312849260979421e-04  6.2117629857012086e-04  6.2933037946093608e-04  6.3759216264713760e-04 
 6.4596309559403296e-04  6.5444464618842689e-04  6.6303830306629365e-04  6.7174557594720991e-04 
 6.8056799597574055e-04  6.8950711606996485e-04  6.9856451127734548e-04  7.0774177913814822e-04 
 7.1704054005662220e-04  7.2646243768016271e-04  7.3600913928668519e-04  7.4568233618044503e-04 
 7.5548374409654766e-04  7.6541510361440089e-04  7.7547818058037088e-04  7.8567476653990727e-04 
 7.9600667917942736e-04  8.0647576277823247e-04  8.1708388867076948e-04  8.2783295571953847e-04 
 8.3872489079896801e-04  8.4976164929059350e-04  8.6094521558987473e-04  8.7227760362501594e-04 
 8.8376085738814663e-04  8.9539705147925731e-04  9.0718829166327108e-04  9.1913671544066925e-04 
 9.3124449263209464e-04  9.4351382597736787e-04  9.5594695174937587e-04  9.6854614038330593e-04 
 9.8131369712171142e-04  9.9425196267592143e-04  1.0073633139043212e-03  1.0206501645080494e-03 
 1.0341149657446768e-03  1.0477602071604633e-03  1.0615884173417983e-03  1.0756021646864621e-03 
 1.0898040581953637e-03  1.1041967482854451e-03  1.1187829276244564e-03  1.1335653319883446e-03 
 1.1485467411420155e-03  1.1637299797442736e-03  1.1791179182777569e-03  1.1947134740047296e-03 
 1.2105196119496292e-03  1.2265393459092841e-03  1.2427757394917749e-03  1.2592319071849307e-03 
 1.2759110154555123e-03  1.2928162838801481e-03  1.3099509863091555e-03  1.3273184520644125e-03 
 1.3449220671724934e-03  1.3627652756343261e-03  1.3808515807326874e-03  1.3991845463788945e-03 
 1.4177677985001099e-03  1.4366050264687385e-03  1.4556999845754407e-03  1.4750564935473581e-03 
 1.4946784421132110e-03  1.5145697886169828e-03  1.5347345626819892e-03  1.5551768669271957e-03 
 1.5759008787377133e-03  1.5969108520914981e-03  1.6182111194443475e-03  1.6398060936753749e-03 
 1.6617002700952314e-03  1.6838982285194398e-03  1.7064046354092965e-03  1.7292242460828990e-03 
 1.7523619069989588e-03  1.7758225581161766e-03  1.7996112353310489e-03  1.8237330729971278e-03 
 1.8481933065288380e-03  1.8729972750931147e-03  1.8981504243922496e-03  1.9236583095414638e-03 
 1.9495265980448886e-03  1.9757610728737699e-03  2.0023676356508845e-03  2.0293523099453128e-03 
 2.0567212446818937e-03  2.0844807176698577e-03  2.1126371392553283e-03  2.1411970561025844e-03 
 2.1701671551091657e-03  2.1995542674601376e-03  2.2293653728270349e-03  2.2596076037172544e-03 
 2.2902882499799028e-03  2.3214147634743648e-03  2.3529947629081123e-03  2.3850360388505804e-03 
 2.4175465589301851e-03  2.4505344732219112e-03  2.4840081198331740e-03  2.5179760306960146e-03 
 2.5524469375740387e-03  2.5874297782928386e-03  2.6229337032030852e-03  2.6589680818857883e-03 
 2.6955425101097114e-03  2.7326668170513249e-03  2.7703510727881530e-03  2.8086055960768238e-03 
 2.8474409624276655e-03  2.8868680124881810e-03  2.9268978607482885e-03  2.9675419045808085e-03 
 3.0088118336312371e-03  3.0507196395715063e-03  3.0932776262330734e-03  3.1364984201353724e-03 
 3.1803949814263716e-03  3.2249806152527686e-03  3.2702689835780868e-03  3.3162741174678359e-03 
 3.3630104298617083e-03  3.4104927288537358e-03  3.4587362315022640e-03  3.5077565781926031e-03 
 3.5575698475762861e-03  3.6081925721119469e-03  3.6596417542339847e-03  3.7119348831764227e-03 
 3.7650899524805897e-03  3.8191254782166764e-03  3.8740605179505027e-03  3.9299146904884256e-03 
 3.9867081964347758e-03  4.0444618395978774e-03  4.1031970492824126e-03  4.1629359035076493e-03 
 4.2237011531929929e-03  4.2855162473542261e-03  4.3484053593559691e-03  4.4123934142679842e-03 
 4.4775061173753291e-03  4.5437699838947196e-03  4.6112123699520516e-03  4.6798615048786523e-03 
 4.7497465248866923e-03  4.8208975081871211e-03  4.8933455116165836e-03  4.9671226088431079e-03 
 5.0422619302237228e-03  5.1187977043908586e-03  5.1967653016481543e-03  5.2762012792603669e-03 
 5.3571434287262481e-03  5.4396308251277638e-03  5.5237038786537301e-03  5.6094043884008194e-03 
 5.6967755985602216e-03  5.7858622571036146e-03  5.8767106770879676e-03  5.9693688007047717e-03 
 6.0638862662057320e-03  6.1603144778437308e-03  6.2587066789750049e-03  6.3591180284760544e-03 
 6.4616056806366794e-03  6.5662288686990210e-03  6.6730489922212019e-03  6.7821297084535662e-03 
 6.8935370279253547e-03  7.0073394144499366e-03  7.1236078897677912e-03  7.2424161430578509e-03 
 7.3638406455600906e-03  7.4879607705650528e-03  7.6148589190395679e-03  7.7446206511722748e-03 
 7.8773348241375895e-03  8.0130937363927113e-03  8.1519932788392188e-03  8.2941330931982620e-03 
 8.4396167379673995e-03  8.5885518623466627e-03  8.7410503885424259e-03  8.8972287028795793e-03 
 9.0572078561757564e-03  9.2211137738558626e-03  9.3890774763109846e-03  9.5612353100330387e-03 
 9.7377291900852259e-03  9.9187068544987576e-03  1.0104322131218240e-02  1.0294735218251852e-02 
 1.0490112977717955e-02  1.0690629244517308e-02  1.0896465150399494e-02  1.1107809464233669e-02 
 1.1324858949337839e-02  1.1547818738766594e-02  1.1776902729506095e-02  1.2012333996576125e-02 
 1.2254345228092680e-02  1.2503179182401226e-02  1.2759089168450082e-02  1.3022339550635842e-02 
 1.3293206279418246e-02  1.3571977449070828e-02  1.3858953884005661e-02  1.4154449755186337e-02 
 1.4458793228222442e-02  1.4772327144821825e-02  1.5095409739363677e-02  1.5428415392446165e-02 
 1.5771735423356997e-02  1.6125778923514050e-02  1.6490973633026235e-02  1.6867766862631500e-02 
 1.7256626463380487e-02  1.7658041846549587e-02  1.8072525056386950e-02  1.8500611898418447e-02 
 1.8942863126168729e-02  1.9399865689283573e-02  1.9872234046175455e-02  2.0360611544452439e-02 
 2.0865671872532406e-02  2.1388120585988778e-02  2.1928696712320426e-02  2.2488174437986418e-02 
 2.3067364881695012e-02  2.3667117958085345e-02  2.4288324336087942e-02  2.4931917496395978e-02 
 2.5598875892621917e-02  2.6290225220850966e-02  2.7007040802434150e-02  2.7750450084985657e-02 
 2.8521635266660426e-02  2.9321836048885708e-02  3.0152352522802052e-02  3.1014548194730877e-02 
 3.1909853156024820e-02  3.2839767402668356e-02  3.3805864309976216e-02  3.4809794267679696e-02 
 3.5853288480591529e-02  3.6938162939891578e-02  3.8066322569871712e-02  3.9239765554711037e-02 
 4.0460587849514021e-02  4.1730987879424523e-02  4.3053271430119389e-02  4.4429856732372583e-02 
 4.5863279742656866e-02  4.7356199620898494e-02  4.8911404405509153e-02  5.0531816884673245e-02 
 5.2220500661551886e-02  5.3980666409559841e-02  5.5815678312160895e-02  5.7729060679691489e-02 
 5.9724504733540934e-02  6.1805875545570009e-02  6.3977219117913695e-02  6.6242769585268757e-02 
 6.8606956518387038e-02  7.1074412303759951e-02  7.3649979570362664e-02  7.6338718629807775e-02 
 7.9145914891314048e-02  8.2077086207503078e-02  8.5137990101181463e-02  8.8334630816923887e-02 
 9.1673266134435549e-02  9.5160413873324023e-02  9.8802858011050376e-02  1.0260765432745006e-01 
 1.0658213548032604e-01  1.1073391540722795e-01  1.1507089293866295e-01  1.1960125449766865e-01 
 1.2433347574994692e-01  1.2927632205766998e-01  1.3443884757867627e-01  1.3983039284115759e-01 
 1.4546058061217551e-01  1.5133930986654057e-01  1.5747674765085104e-01  1.6388331862593411e-01 
 1.7056969205971456e-01  1.7754676603178124e-01  1.8482564860080150e-01  1.9241763567661851e-01 
 2.0033418533052766e-01  2.0858688827007901e-01  2.1718743419898828e-01  2.2614757377861150e-01 
 2.3547907590520253e-01  2.4519368001714295e-01  2.5530304314887181e-01  2.6581868145379339e-01 
 2.7675190592754439e-01  2.8811375207632867e-01  2.9991490329340975e-01  3.1216560773130153e-01 
 3.2487558848896952e-01  3.3805394697389679e-01  3.5170905934995472e-01  3.6584846604557397e-01 
 3.8047875437494888e-01  3.9560543442021978e-01  4.1123280843709614e-01  4.2736383418237356e-01 
 4.4399998272103286e-01  4.6114109145414456e-01  4.7878521331661555e-01  4.9692846332435103e-01 
 5.1556486390008982e-01  5.3468619066999290e-01  5.5428182069018805e-01  5.7433858532215576e-01 
 5.9484063021370603e-01  6.1576928504214734e-01  6.3710294582153248e-01  6.5881697265169559e-01 
 6.8088360578249085e-01  7.0327190277788376e-01  7.2594769939519843e-01  7.4887359655699937e-01 
 7.7200897550565628e-01  7.9531004291587837e-01  8.1872990741965779e-01  8.4221868868691385e-01 
 8.6572365991058275e-01  8.8918942426354108e-01  9.1255812561320759e-01  9.3576969347622807e-01 
 9.5876212184208431e-01  9.8147178105724364e-01  1.0038337614020920e+00  1.0257822462686741e+00 
 1.0472509119143210e+00  1.0681733495881987e+00  1.0884835043934946e+00  1.1081161235994452e+00 
 1.1270072053870699e+00  1.1450944374567227e+00  1.1623176139348472e+00  1.1786190190728554e+00 
 1.1939437677844074e+00  1.2082400963480091e+00  1.2214596014111267e+00  1.2335574310308783e+00 
 1.2444924366874996e+00  1.2542272987028915e+00  1.2627286383210585e+00  1.2699671284653324e+00 
 1.2759176143028004e+00  1.2805592118992870e+00  1.2838754505374439e+00  1.2858543845924948e+00 
 1.2864886922581957e+00  1.2857757498356353e+00  1.2837176722282577e+00  1.2803213139052494e+00 
 1.2755982274549307e+00  1.2695645794512733e+00  1.2622410254805390e+00  1.2536525477099951e+00 
 1.2438282593436323e+00  1.2328011807905939e+00  1.2206079924875359e+00  1.2072887691800342e+00 
 1.1928867001752688e+00  1.1774477996997834e+00  1.1610206110813317e+00  1.1436559080540925e+00 
 1.1254063960805747e+00  1.1063264162013504e+00  1.0864716535703107e+00  1.0658988525101361e+00 
 1.0446655396302384e+00  1.0228297562867530e+00  1.0004498014303187e+00  9.7758398568072191e-01 
 9.5429039714770336e-01  9.3062668019166650e-01  9.0664982610684719e-01  8.8241597735576505e-01 
 8.5798024481968638e-01  8.3339653827078408e-01  8.0871741006424702e-01  7.8399391199189983e-01 
 7.5927546518863354e-01  7.3460974293932391e-01  7.1004256619738193e-01  6.8561781159549595e-01 
 6.6137733169712754e-01  6.3736088720678163e-01  6.1360609083798812e-01  5.9014836251132574e-01 
 5.6702089552763857e-01  5.4425463334139690e-01  5.2187825653666009e-01  4.9991817958694890e-01 
 4.7839855696042183e-01  4.5734129811319085e-01  4.3676609089666840e-01  4.1669043288968521e-01 
 3.9712967015299799e-01  3.7809704289283963e-01  3.5960373751138153e-01  3.4165894451675038e-01 
 3.2426992176031971e-01  3.0744206246801681e-01  2.9117896753512867e-01  2.7548252155517378e-01 
 2.6035297206251962e-01  2.4578901147692056e-01  2.3178786124664602e-01  2.1834535770139563e-01 
 2.0545603914077479e-01  1.9311323370069897e-01  1.8130914755830463e-01  1.7003495305561356e-01 
 1.5928087634319901e-01  1.4903628416719533e-01  1.3928976944603030e-01  1.3002923530706578e-01 
 1.2124197727774665e-01  1.1291476335071583e-01  1.0503391166748838e-01  9.7585365590537737e-02 
 9.0554765958893599e-02  8.3927520347431034e-02  7.7688869174815336e-02  7.1823948529433898e-02 
 6.6317849606473647e-02  6.1155674672485401e-02  5.6322589496218239e-02  5.1803872206116812e-02 
 4.7584958555571051e-02  4.3651483596723668e-02  3.9989319782313328e-02  3.6584611532607919e-02 
 3.3423806320918160e-02  3.0493682346440829e-02  2.7781372877234586e-02  2.5274387358958556e-02 
 2.2960629396588363e-02  2.0828411726655324e-02  1.8866468306646459e-02  1.7063963656046705e-02 
 1.5410499590117867e-02  1.3896119492913655e-02  1.2511310280253880e-02  1.1247002206454042e-02 
 1.0094566670609489e-02  9.0458121790914607e-03  8.0929786208341833e-03  7.2287300110236343e-03 
 6.4461458568128649e-03  5.7387112959701378e-03  5.1003061558947006e-03  4.5251930762723264e-03 
 4.0080048338721839e-03  3.5437310026733382e-03  3.1277040767184634e-03  2.7555851768871378e-03 
 2.4233494562228893e-03  2.1272713115950159e-03  1.8639095023853351e-03  1.6300922696165976e-03 
 1.4229025415348005e-03  1.2396633041807084e-03  1.0779232079875319e-03  9.3544247396343499e-04 
 8.1017915562570098e-04  7.0027580559435814e-04  6.0404658866713913e-04  5.1996487634030407e-04 
 4.4665135114717390e-04  3.8286264290833034e-04  3.2748051305415548e-04  2.7950159760912249e-04 
 2.3802771426673398e-04  2.0225673424379551e-04  1.7147401528723740e-04  1.4504438833481487e-04 
 1.2240468690003547e-04  1.0305680525813884e-04  8.6561268945101771e-05  7.2531298931963141e-05 
 6.0627349084736135e-05  5.0552095144834319e-05  4.2045852442518796e-05  3.4882398860415347e-05 
 2.8865179168130807e-05  2.3823866723886904e-05  1.9611258655911840e-05  1.6100480966138270e-05 
 1.3182480513081121e-05  1.0763781501991379e-05  8.7644849120604765e-06  7.1164901975790388e-06 
 5.7619195891772243e-06  4.6517263710307184e-06  3.7444696005496394e-06  3.0052388508774581e-06 
 2.4047136777875035e-06  1.9183436275036884e-06  1.5256356987201253e-06  1.2095372406084403e-06 
 9.5590330056928527e-07  7.5303842421192910e-07  5.9130385033498644e-07  4.6278193170057119e-07 
 3.6099044554407269e-07  2.8064023454097157e-07  2.1743033882394187e-07  1.6787544290653135e-07 
 1.2916106903327697e-07  9.9022502142022086e-08  7.5643933376158141e-08  5.7574761385250342e-08 
 4.3660396249893952e-08  3.2985272708551373e-08  2.4826100522521167e-08  1.8613663419456091e-08 
 1.3901727235015897e-08  1.0341835706117985e-08  7.6629618478870738e-09  5.6551468375304563e-09 
 4.1563995521642197e-09  3.0422509182773855e-09  2.2174604038484649e-09  1.6094595105440129e-09 
 1.1631910056527034e-09  8.3706468816096440e-10  5.9980234644017639e-10  4.2798769910752033e-10 
 3.0417281558794475e-10  2.1542193789693884e-10  1.5219778265337174e-10  0.0000000000000000e+00 
 0.0000000000000000e+00  0.0000000000000000e+00  0.0000000000000000e+00  0.0000000000000000e+00 
 0.0000000000000000e+00  0.0000000000000000e+00  0.0000000000000000e+00  0.0000000000000000e+00 
 0.0000000000000000e+00  0.0000000000000000e+00  0.0000000000000000e+00  0.0000000000000000e+00 
 0.0000000000000000e+00  0.0000000000000000e+00  0.0000000000000000e+00  0.0000000000000000e+00 
 0.0000000000000000e+00  0.0000000000000000e+00  0.0000000000000000e+00  0.0000000000000000e+00 
 0.0000000000000000e+00  0.0000000000000000e+00  0.0000000000000000e+00  0.0000000000000000e+00 
 0.0000000000000000e+00  0.0000000000000000e+00  0.0000000000000000e+00  0.0000000000000000e+00 
 0.0000000000000000e+00  0.0000000000000000e+00  0.0000000000000000e+00  0.0000000000000000e+00 
 0.0000000000000000e+00  0.0000000000000000e+00  0.0000000000000000e+00  0.0000000000000000e+00 
 0.0000000000000000e+00  0.0000000000000000e+00  0.0000000000000000e+00  0.0000000000000000e+00 
 0.0000000000000000e+00  0.0000000000000000e+00  0.0000000000000000e+00  0.0000000000000000e+00 
 0.0000000000000000e+00  0.0000000000000000e+00  0.0000000000000000e+00  0.0000000000000000e+00 
 0.0000000000000000e+00  0.0000000000000000e+00  0.0000000000000000e+00  0.0000000000000000e+00 
 0.0000000000000000e+00  0.0000000000000000e+00  0.0000000000000000e+00  0.0000000000000000e+00 
 0.0000000000000000e+00  0.0000000000000000e+00  0.0000000000000000e+00  0.0000000000000000e+00 
 0.0000000000000000e+00  0.0000000000000000e+00  0.0000000000000000e+00  0.0000000000000000e+00 
 0.0000000000000000e+00  0.0000000000000000e+00  0.0000000000000000e+00  0.0000000000000000e+00 
 0.0000000000000000e+00  0.0000000000000000e+00  0.0000000000000000e+00  0.0000000000000000e+00 
 0.0000000000000000e+00  0.0000000000000000e+00  0.0000000000000000e+00  0.0000000000000000e+00 
 0.0000000000000000e+00  0.0000000000000000e+00  0.0000000000000000e+00  0.0000000000000000e+00 
 0.0000000000000000e+00  0.0000000000000000e+00  0.0000000000000000e+00  0.0000000000000000e+00 
 0.0000000000000000e+00  0.0000000000000000e+00  0.0000000000000000e+00  0.0000000000000000e+00 
 0.0000000000000000e+00  0.0000000000000000e+00  0.0000000000000000e+00  0.0000000000000000e+00 
 0.0000000000000000e+00  0.0000000000000000e+00  0.0000000000000000e+00  0.0000000000000000e+00 
 0.0000000000000000e+00  0.0000000000000000e+00  0.0000000000000000e+00  0.0000000000000000e+00 
 0.0000000000000000e+00  0.0000000000000000e+00  0.0000000000000000e+00  0.0000000000000000e+00 
 0.0000000000000000e+00  0.0000000000000000e+00  0.0000000000000000e+00  0.0000000000000000e+00 
 0.0000000000000000e+00  0.0000000000000000e+00  0.0000000000000000e+00  0.0000000000000000e+00 
 0.0000000000000000e+00  0.0000000000000000e+00  0.0000000000000000e+00  0.0000000000000000e+00 
 0.0000000000000000e+00  0.0000000000000000e+00  0.0000000000000000e+00  0.0000000000000000e+00 
 0.0000000000000000e+00  0.0000000000000000e+00  0.0000000000000000e+00  0.0000000000000000e+00 
 0.0000000000000000e+00  0.0000000000000000e+00  0.0000000000000000e+00  0.0000000000000000e+00 
 0.0000000000000000e+00  0.0000000000000000e+00  0.0000000000000000e+00  0.0000000000000000e+00 
 0.0000000000000000e+00  0.0000000000000000e+00  0.0000000000000000e+00  0.0000000000000000e+00 
 0.0000000000000000e+00  0.0000000000000000e+00  0.0000000000000000e+00  0.0000000000000000e+00 
 0.0000000000000000e+00  0.0000000000000000e+00  0.0000000000000000e+00  0.0000000000000000e+00 
 0.0000000000000000e+00  0.0000000000000000e+00  0.0000000000000000e+00  0.0000000000000000e+00 
 0.0000000000000000e+00  0.0000000000000000e+00  0.0000000000000000e+00  0.0000000000000000e+00 
 0.0000000000000000e+00  0.0000000000000000e+00  0.0000000000000000e+00  0.0000000000000000e+00 
 0.0000000000000000e+00  0.0000000000000000e+00  0.0000000000000000e+00  0.0000000000000000e+00 
 0.0000000000000000e+00  0.0000000000000000e+00  0.0000000000000000e+00  0.0000000000000000e+00 
 0.0000000000000000e+00  0.0000000000000000e+00  0.0000000000000000e+00  0.0000000000000000e+00 
 0.0000000000000000e+00  0.0000000000000000e+00  0.0000000000000000e+00  0.0000000000000000e+00 
 0.0000000000000000e+00  0.0000000000000000e+00  0.0000000000000000e+00  0.0000000000000000e+00 
 0.0000000000000000e+00  0.0000000000000000e+00  0.0000000000000000e+00  0.0000000000000000e+00 
 0.0000000000000000e+00  0.0000000000000000e+00  0.0000000000000000e+00  0.0000000000000000e+00 
 0.0000000000000000e+00  0.0000000000000000e+00  0.0000000000000000e+00  0.0000000000000000e+00 
 0.0000000000000000e+00  0.0000000000000000e+00  0.0000000000000000e+00  0.0000000000000000e+00 
 0.0000000000000000e+00  0.0000000000000000e+00  0.0000000000000000e+00  0.0000000000000000e+00 
 0.0000000000000000e+00  0.0000000000000000e+00  0.0000000000000000e+00  0.0000000000000000e+00 
 0.0000000000000000e+00 
P    1   2.00          Wavefunction
 2.0867293120304134e-10  2.1416957418141164e-10  2.1981100395195683e-10  2.2560103433625170e-10 
 2.3154357961555606e-10  2.3764265717701871e-10  2.4390239022958502e-10  2.5032701059144321e-10 
 2.5692086155089601e-10  2.6368840080258926e-10  2.7063420346108397e-10  2.7776296515380928e-10 
 2.8507950519548581e-10  2.9258876984616702e-10  3.0029583565510052e-10  3.0820591289266910e-10 
 3.1632434907273388e-10  3.2465663256775750e-10  3.3320839631915509e-10  3.4198542164537731e-10 
 3.5099364215030411e-10  3.6023914773458751e-10  3.6972818871265837e-10  3.7946718003817819e-10 
 3.8946270564079384e-10  3.9972152287712617e-10  4.1025056709900269e-10  4.2105695634202074e-10 
 4.3214799613761329e-10  4.4353118445186807e-10  4.5521421675444034e-10  4.6720499122098589e-10 
 4.7951161407263147e-10  4.9214240505609006e-10  5.0510590306813104e-10  5.1841087192820135e-10 
 5.3206630630310455e-10  5.4608143778774055e-10  5.6046574114602015e-10  5.7522894071616824e-10 
 5.9038101698475087e-10  6.0593221333386917e-10  6.2189304296607819e-10  6.3827429601171811e-10 
 6.5508704682345610e-10  6.7234266146297690e-10  6.9005280538487752e-10  7.0822945132296400e-10 
 7.2688488738428155e-10  7.4603172535634867e-10  7.6568290923321146e-10  7.8585172396608365e-10 
 8.0655180444448623e-10  8.2779714471395947e-10  8.4960210743657776e-10  8.7198143360066456e-10 
 8.9495025248627049e-10  9.1852409189315159e-10  9.4271888863816215e-10  9.6755099932916122e-10 
 9.9303721142271125e-10  1.0191947545730495e-09  1.0460413122800025e-09  1.0735950338437177e-09 
 1.1018745466342931e-09  1.1308989686846036e-09  1.1606879216148339e-09  1.1912615438974547e-09 
 1.2226405044716131e-09  1.2548460167161396e-09  1.2878998527906187e-09  1.3218243583542140e-09 
 1.3566424676722067e-09  1.3923777191204507e-09  1.4290542710982344e-09  1.4666969183603012e-09 
 1.5053311087790704e-09  1.5449829605483946e-09  1.5856792798404811e-09  1.6274475789279112e-09 
 1.6703160947830143e-09  1.7143138081671661e-09  1.7594704632229253e-09  1.8058165875822338e-09 
 1.8533835130043007e-09  1.9022033965571012e-09  1.9523092423568160e-09  2.0037349238799193e-09 
 2.0565152068629794e-09  2.1106857728056703e-09  2.1662832430928701e-09  2.2233452037521706e-09 
 2.2819102308635100e-09  2.3420179166381394e-09  2.4037088961845188e-09  2.4670248749792658e-09 
 2.5320086570617156e-09  2.5987041739711488e-09  2.6671565144462621e-09  2.7374119549069563e-09 
 2.8095179907390342e-09  2.8835233684029859e-09  2.9594781183885377e-09  3.0374335890372751e-09 
 3.1174424812561704e-09  3.1995588841455199e-09  3.2838383115653415e-09  3.3703377396649869e-09 
 3.4591156454013070e-09  3.5502320460714412e-09  3.6437485398869344e-09  3.7397283476166207e-09 
 3.8382363553264272e-09  3.9393391582449917e-09  4.0431051057847451e-09  4.1496043477488962e-09 
 4.2589088817555723e-09  4.3710926019111392e-09  4.4862313487656568e-09  4.6044029605841941e-09 
 4.7256873259687042e-09  4.8501664378660054e-09  4.9779244489984033e-09  5.1090477287544069e-09 
 5.2436249215780196e-09  5.3817470068960652e-09  5.5235073606240643e-09  5.6690018182922521e-09 
 5.8183287398344087e-09  5.9715890760832896e-09  6.1288864370176418e-09  6.2903271618069011e-09 
 6.4560203907009711e-09  6.6260781388136513e-09  6.8006153718496076e-09  6.9797500838260805e-09 
 7.1636033768418882e-09  7.3522995429476159e-09  7.5459661481723909e-09  7.7447341187639954e-09 
 7.9487378297006856e-09  8.1581151955344767e-09  8.3730077636273969e-09  8.5935608098436574e-09 
 8.8199234367625080e-09  9.0522486744781136e-09  9.2906935840546463e-09  9.5354193637065097e-09 
 9.7865914577754811e-09  1.0044379668578458e-08  1.0308958271201419e-08  1.0580506131317192e-08 
 1.0859206826106725e-08  1.1145248768365551e-08  1.1438825333879413e-08  1.1740134992155115e-08 
 1.2049381440594992e-08  1.2366773742205744e-08  1.2692526466934695e-08  1.3026859836729041e-08 
 1.3369999874416162e-08  1.3722178556505670e-08  1.4083633970016443e-08  1.4454610473434743e-08 
 1.4835358861912193e-08  1.5226136536815280e-08  1.5627207679741103e-08  1.6038843431116886e-08 
 1.6461322073504114e-08  1.6894929219731180e-08  1.7339958005981672e-08  1.7796709289969005e-08 
 1.8265491854331201e-08  1.8746622615383417e-08  1.9240426837369372e-08  1.9747238352356526e-08 
 2.0267399785923564e-08  2.0801262788792943e-08  2.1349188274565020e-08  2.1911546663714429e-08 
 2.2488718134013814e-08  2.3081092877554121e-08  2.3689071364535244e-08  2.4313064614005374e-08 
 2.4953494471732164e-08  2.5610793895393443e-08  2.6285407247280417e-08  2.6977790594711223e-08 
 2.7688412018357879e-08  2.8417751928695252e-08  2.9166303390785796e-08  2.9934572457619819e-08 
 3.0723078512236552e-08  3.1532354618857446e-08  3.2362947883268894e-08  3.3215419822698321e-08 
 3.4090346745433510e-08  3.4988320140441853e-08  3.5909947077253172e-08  3.6855850616376143e-08 
 3.7826670230526124e-08  3.8823062236948980e-08  3.9845700241133388e-08  4.0895275592211471e-08 
 4.1972497850355834e-08  4.3078095266488878e-08  4.4212815274628845e-08  4.5377424997205502e-08 
 4.6572711763687129e-08  4.7799483642869309e-08  4.9058569989185776e-08  5.0350822003410381e-08 
 5.1677113308129582e-08  5.3038340538374297e-08  5.4435423947810720e-08  5.5869308030899928e-08 
 5.7340962161446860e-08  5.8851381247970690e-08  6.0401586406339381e-08  6.1992625650123708e-08 
 6.3625574599137142e-08  6.5301537206640953e-08  6.7021646505706254e-08  6.8787065375237624e-08 
 7.0598987326176177e-08  7.2458637308414180e-08  7.4367272538966298e-08  7.6326183351957880e-08 
 7.8336694071004863e-08  8.0400163904575576e-08  8.2517987864939413e-08  8.4691597711324209e-08 
 8.6922462917920153e-08  8.9212091667384344e-08  9.1562031870518699e-08  9.3973872212810057e-08 
 9.6449243228540567e-08  9.8989818403194687e-08  1.0159731530490862e-07  1.0427349674572672e-07 
 1.0702017197345112e-07  1.0983919789488980e-07  1.1273248033133102e-07  1.1570197530709297e-07 
 1.1874969037202005e-07  1.2187768595882070e-07  1.2508807677616379e-07  1.2838303323847763e-07 
 1.3176478293341640e-07  1.3523561212798848e-07  1.3879786731436441e-07  1.4245395679641035e-07 
 1.4620635231802044e-07  1.5005759073434879e-07  1.5401027572707260e-07  1.5806707956484549e-07 
 1.6223074491013345e-07  1.6650408667365429e-07  1.7088999391767559e-07  1.7539143180945948e-07 
 1.8001144362617416e-07  1.8475315281263077e-07  1.8961976509323551e-07  1.9461457063958746e-07 
 1.9974094629518831e-07  2.0500235785876856e-07  2.1040236242777641e-07  2.1594461080361354e-07 
 2.2163284996024657e-07  2.2747092557786364e-07  2.3346278464329142e-07  2.3961247811893121e-07 
 2.4592416368202091e-07  2.5240210853607612e-07  2.5905069229641304e-07  2.6587440995170503e-07 
 2.7287787490357802e-07  2.8006582208630014e-07  2.8744311116867734e-07  2.9501472984032111e-07 
 3.0278579718451128e-07  3.1076156713993697e-07  3.1894743205365603e-07  3.2734892632767829e-07 
 3.3597173016163791e-07  3.4482167339408798e-07  3.5390473944501523e-07  3.6322706936224218e-07 
 3.7279496597445540e-07  3.8261489815366839e-07  3.9269350519000570e-07  4.0303760128180301e-07 
 4.1365418014429045e-07  4.2455041973969446e-07  4.3573368713189148e-07  4.4721154346900419e-07 
 4.5899174909732398e-07  4.7108226881002521e-07  4.8349127723422549e-07  4.9622716436004086e-07 
 5.0929854121538273e-07  5.2271424569034042e-07  5.3648334851509558e-07  5.5061515939541796e-07 
 5.6511923330990214e-07  5.8000537697321076e-07  5.9528365546970607e-07  6.1096439906196436e-07 
 6.2705821017878782e-07  6.4357597058745371e-07  6.6052884875506063e-07  6.7792830740396079e-07 
 6.9578611126640879e-07  7.1411433504367586e-07  7.3292537157503323e-07  7.5223194022214413e-07 
 7.7204709547455013e-07  7.9238423578209042e-07  8.1325711262024842e-07  8.3467983979457213e-07 
 8.5666690299048485e-07  8.7923316957497160e-07  9.0239389865678461e-07  9.2616475141200705e-07 
 9.5056180168197903e-07  9.7560154685078607e-07  1.0013009190096925e-06  1.0276772964161100e-06 
 1.0547485152548777e-06  1.0825328817098489e-06  1.1110491843539909e-06  1.1403167068664071e-06 
 1.1703552410849407e-06  1.2011851004032188e-06  1.2328271335212606e-06  1.2653027385589898e-06 
 1.2986338775422585e-06  1.3328430912712355e-06  1.3679535145812730e-06  1.4039888920066475e-06 
 1.4409735938578255e-06  1.4789326327232085e-06  1.5178916804065921e-06  1.5578770853118732e-06 
 1.5989158902868565e-06  1.6410358509383055e-06  1.6842654544307348e-06  1.7286339387817425e-06 
 1.7741713126670548e-06  1.8209083757487723e-06  1.8688767395406952e-06  1.9181088488249527e-06 
 1.9686380036345539e-06  2.0204983818168577e-06  2.0737250621933630e-06  2.1283540483316324e-06 
 2.1844222929455702e-06  2.2419677229407278e-06  2.3010292651217252e-06  2.3616468725793610e-06 
 2.4238615517754262e-06  2.4877153903437205e-06  2.5532515856262578e-06  2.6205144739641679e-06 
 2.6895495607633072e-06  2.7604035513551018e-06  2.8331243826737209e-06  2.9077612557712164e-06 
 2.9843646691928281e-06  3.0629864532352740e-06  3.1436798051114073e-06  3.2264993250452696e-06 
 3.3115010533221778e-06  3.3987425083191682e-06  3.4882827255417361e-06  3.5801822976935604e-06 
 3.6745034158065472e-06  3.7713099114592869e-06  3.8706673001127592e-06  3.9726428255928652e-06 
 4.0773055057501865e-06  4.1847261793281475e-06  4.2949775540716142e-06  4.4081342561088073e-06 
 4.5242728806403043e-06  4.6434720439698045e-06  4.7658124369122706e-06  4.8913768796160284e-06 
 5.0202503778364119e-06  5.1525201806995409e-06  5.2882758399958939e-06  5.4276092710444165e-06 
 5.5706148151690243e-06  5.7173893038305560e-06  5.8680321244583435e-06  6.0226452880268845e-06 
 6.1813334984241879e-06  6.3442042236597912e-06  6.5113677689617636e-06  6.6829373518133156e-06 
 6.8590291789810722e-06  7.0397625255884993e-06  7.2252598162893753e-06  7.4156467085977556e-06 
 7.6110521784324499e-06  7.8116086079356024e-06  8.0174518756265722e-06  8.2287214489540204e-06 
 8.4455604793107878e-06  8.6681158995779486e-06  8.8965385242661783e-06  9.1309831523245519e-06 
 9.3716086726887220e-06  9.6185781726425428e-06  9.8720590490688891e-06  1.0132223122667734e-05 
 1.0399246755221822e-05  1.0673310969992265e-05  1.0954601575328748e-05  1.1243309291581379e-05 
 1.1539629881403638e-05  1.1843764283538262e-05  1.2155918750180599e-05  1.2476304988016516e-05 
 1.2805140303034619e-05  1.3142647749215457e-05  1.3489056281203125e-05  1.3844600911067711e-05 
 1.4209522869270068e-05  1.4584069769943552e-05  1.4968495780610509e-05  1.5363061796454749e-05 
 1.5768035619274622e-05  1.6183692141244784e-05  1.6610313533618500e-05  1.7048189440505983e-05 
 1.7497617177868191e-05  1.7958901937869372e-05  1.8432356998736022e-05  1.8918303940273771e-05 
 1.9417072865198352e-05  1.9929002626441187e-05  2.0454441060594776e-05  2.0993745227667794e-05 
 2.1547281657324798e-05  2.2115426601790474e-05  2.2698566295603447e-05  2.3297097222410482e-05 
 2.3911426388996826e-05  2.4541971606754732e-05  2.5189161780797887e-05  2.5853437206935421e-05 
 2.6535249876725898e-05  2.7235063790837548e-05  2.7953355280948390e-05  2.8690613340426135e-05 
 2.9447339964035629e-05  3.0224050496928142e-05  3.1021273993175025e-05  3.1839553584115998e-05 
 3.2679446856800142e-05  3.3541526242806455e-05  3.4426379417739033e-05  3.5334609711701535e-05 
 3.6266836531063795e-05  3.7223695791844421e-05  3.8205840365041414e-05  3.9213940534254515e-05 
 4.0248684465952685e-05  4.1310778692751260e-05  4.2400948610074552e-05  4.3519938986591560e-05 
 4.4668514488824150e-05  4.5847460220339644e-05  4.7057582275953223e-05  4.8299708311377920e-05 
 4.9574688128774648e-05  5.0883394278668769e-05  5.2226722678714530e-05  5.3605593249803936e-05 
 5.5020950570032937e-05  5.6473764547053880e-05  5.7965031109360461e-05  5.9495772917069355e-05 
 6.1067040092780431e-05  6.2679910973117322e-05  6.4335492881569149e-05  6.6034922923274871e-05 
 6.7779368802413592e-05  6.9570029662884941e-05  7.1408136952987638e-05  7.3294955314827360e-05 
 7.5231783499210455e-05  7.7219955306804251e-05  7.9260840556372495e-05  8.1355846080921805e-05 
 8.3506416752622886e-05  8.5714036537400790e-05  8.7980229580119084e-05  9.0306561321314841e-05 
 9.2694639646474734e-05  9.5146116068877694e-05  9.7662686947064378e-05  1.0024609473803305e-04 
 1.0289812928729862e-04  1.0562062915699366e-04  1.0841548299323129e-04  1.1128463093399495e-04 
 1.1423006605886437e-04  1.1725383588193604e-04  1.2035804388934541e-04  1.2354485112284956e-04 
 1.2681647781098324e-04  1.3017520504935692e-04  1.3362337653172459e-04  1.3716340033350855e-04 
 1.4079775074953322e-04  1.4452897018778603e-04  1.4835967112109057e-04  1.5229253809865317e-04 
 1.5633032981951373e-04  1.6047588127001509e-04  1.6473210592748324e-04  1.6910199803239876e-04 
 1.7358863493142633e-04  1.7819517949376441e-04  1.8292488260337317e-04  1.8778108572973975e-04 
 1.9276722357994828e-04  1.9788682683492907e-04  2.0314352497288073e-04  2.0854104918297816e-04 
 2.1408323537260552e-04  2.1977402727148753e-04  2.2561747963622793e-04  2.3161776155891173e-04 
 2.3777915988357643e-04  2.4410608273451874e-04  2.5060306316056566e-04  2.5727476289961592e-04 
 2.6412597626793665e-04  2.7116163417889328e-04  2.7838680829598617e-04  2.8580671532527942e-04 
 2.9342672145252604e-04  3.0125234693051926e-04  3.0928927082244506e-04  3.1754333590725854e-04 
 3.2602055375337155e-04  3.3472710996721914e-04  3.4366936962355654e-04  3.5285388288464829e-04 
 3.6228739081582754e-04  3.7197683140523935e-04  3.8192934579593186e-04  3.9215228473883336e-04 
 4.0265321527553248e-04  4.1343992766019154e-04  4.2452044253034950e-04  4.3590301833681613e-04 
 4.4759615904333317e-04  4.5960862210717168e-04  4.7194942675235420e-04  4.8462786254773789e-04 
 4.9765349830276919e-04  5.1103619129432075e-04  5.2478609683866075e-04  5.3891367822326815e-04 
 5.5342971701391030e-04  5.6834532375313730e-04  5.8367194906712373e-04  5.9942139519860414e-04 
 6.1560582798450732e-04  6.3223778929780454e-04  6.4933020997402649e-04  6.6689642324391880e-04 
 6.8495017869475239e-04  7.0350565678391718e-04  7.2257748392960024e-04  7.4218074820457571e-04 
 7.6233101566043767e-04  7.8304434731096839e-04  8.0433731680478143e-04  8.2622702881888696e-04 
 8.4873113820643938e-04  8.7186786993360163e-04  8.9565603984224592e-04  9.2011507627708415e-04 
 9.4526504261779171e-04  9.7112666075878362e-04  9.9772133558148927e-04  1.0250711804663014e-03 
 1.0531990438938158e-03  1.0821285371875600e-03  1.1118840634531401e-03  1.1424908477716052e-03 
 1.1739749687078649e-03  1.2063633911982019e-03  1.2396840008843078e-03  1.2739656399648300e-03 
 1.3092381446392141e-03  1.3455323842225828e-03  1.3828803020146210e-03  1.4213149580098788e-03 
 1.4608705735415953e-03  1.5015825779561155e-03  1.5434876574202175e-03  1.5866238059692049e-03 
 1.6310303789094816e-03  1.6767481486955290e-03  1.7238193634077235e-03  1.7722878079643842e-03 
 1.8221988682087520e-03  1.8735995980193149e-03  1.9265387896001173e-03  1.9810670471163139e-03 
 2.0372368638493944e-03  2.0951027030561937e-03  2.1547210827260323e-03  2.2161506644411732e-03 
 2.2794523465572516e-03  2.3446893619324363e-03  2.4119273804469655e-03  2.4812346165682102e-03 
 2.5526819422308430e-03  2.6263430053168682e-03  2.7022943540363641e-03  2.7806155675268143e-03 
 2.8613893930069280e-03  2.9447018898399084e-03  3.0306425808813292e-03  3.1193046115081100e-03 
 3.2107849167476964e-03  3.3051843969504773e-03  3.4026081024737531e-03  3.5031654278723763e-03 
 3.6069703161195009e-03  3.7141414734108732e-03  3.8248025951377958e-03  3.9390826036474558e-03 
 4.0571158984448212e-03  4.1790426195277720e-03  4.3050089245868940e-03  4.4351672808432864e-03 
 4.5696767723420999e-03  4.7087034235663945e-03  4.8524205402854783e-03  5.0010090686041847e-03 
 5.1546579732348495e-03  5.3135646360721192e-03  5.4779352762123227e-03  5.6479853926241635e-03 
 5.8239402307460600e-03  6.0060352743578098e-03  6.1945167641504302e-03  6.3896422444983730e-03 
 6.5916811400228452e-03  6.8009153636239342e-03  7.0176399577529455e-03  7.2421637707945526e-03 
 7.4748101705319038e-03  7.7159177967761720e-03  7.9658413553558693e-03  8.2249524557803586e-03 
 8.4936404950169426e-03  8.7723135899511629e-03  9.0613995612365064e-03  9.3613469713816726e-03 
 9.6726262200718619e-03  9.9957306998745207e-03  1.0331178015640135e-02  1.0679511271074449e-02 
 1.1041300426130243e-02  1.1417143729043951e-02  1.1807669227024926e-02  1.2213536359792498e-02 
 1.2635437640348099e-02  1.3074100427565195e-02  1.3530288795379115e-02  1.4004805503560107e-02 
 1.4498494075255703e-02  1.5012240986691445e-02  1.5546977974620626e-02  1.6103684467312418e-02 
 1.6683390145061726e-02  1.7287177636390840e-02  1.7916185356290283e-02  1.8571610493010805e-02 
 1.9254712150067469e-02  1.9966814650245666e-02  2.0709311008504212e-02  2.1483666580746970e-02 
 2.2291422895476479e-02  2.3134201675344617e-02  2.4013709055570039e-02  2.4931740006091208e-02 
 2.5890182964160260e-02  2.6891024683846357e-02  2.7936355308597210e-02  2.9028373672593012e-02 
 3.0169392836105639e-02  3.1361845859432934e-02  3.2608291819199525e-02  3.3911422069884352e-02 
 3.5274066752333508e-02  3.6699201549727029e-02  3.8189954689966721e-02  3.9749614191720101e-02 
 4.1381635349366640e-02  4.3089648449823791e-02  4.4877466711653505e-02  4.6749094433939223e-02 
 4.8708735339148490e-02  5.0760801090526643e-02  5.2909919960474568e-02  5.5160945621812889e-02 
 5.7518966028798107e-02  5.9989312349198298e-02  6.2577567902629125e-02  6.5289577053661410e-02 
 6.8131454000914693e-02  7.1109591395416838e-02  7.4230668712917586e-02  7.7501660295572622e-02 
 8.0929842968447893e-02  8.4522803125623311e-02  8.8288443169295072e-02  9.2234987173188537e-02 
 9.6370985628810801e-02  1.0070531911961005e-01  1.0524720075399970e-01  1.1000617717347855e-01 
 1.1499212793679628e-01  1.2021526306532186e-01  1.2568611851855715e-01  1.3141554935218266e-01 
 1.3741472029423238e-01  1.4369509345810014e-01  1.5026841289422890e-01  1.5714668566571149e-01 
 1.6434215911685959e-01  1.7186729398835268e-01  1.7973473301819851e-01  1.8795726465485280e-01 
 1.9654778149798888e-01  2.0551923307424777e-01  2.1488457255066787e-01  2.2465669698841473e-01 
 2.3484838074516437e-01  2.4547220164752515e-01  2.5654045957700822e-01  2.6806508714630728e-01 
 2.8005755218934297e-01  2.9252875185118821e-01  3.0548889814528951e-01  3.1894739494798968e-01 
 3.3291270652674892e-01  3.4739221785070379e-01  3.6239208711162263e-01  3.7791709109008992e-01 
 3.9397046423450371e-01  4.1055373257580691e-01  4.2766654387300740e-01  4.4530649566506658e-01 
 4.6346896318268416e-01  4.8214692933581388e-01  5.0133081922532163e-01  5.2100834181635303e-01 
 5.4116434154556403e-01  5.6178066270747962e-01  5.8283602947603996e-01  6.0430594437134444e-01 
 6.2616260788977796e-01  6.4837486189227045e-01  6.7090815920438107e-01  6.9372456173328600e-01 
 7.1678276925397832e-01  7.4003818085511897e-01  7.6344299085078871e-01  7.8694632073736570e-01 
 8.1049438847825472e-01  8.3403071600132139e-01  8.5749637525759903e-01  8.8083027247335388e-01 
 9.0396946928702226e-01  9.2684953825918281e-01  9.4940494876004511e-01  9.7156947750409173e-01 
 9.9327663612634121e-01  1.0144601064057379e+00  1.0350541723950850e+00  1.0549941382681898e+00 
 1.0742167215920591e+00  1.0926604142428191e+00  1.1102658071987748e+00  1.1269758803529564e+00 
 1.1427362632397378e+00  1.1574954759539808e+00  1.1712051606037015e+00  1.1838203128456291e+00 
 1.1952995225590231e+00  1.2056051929868856e+00  1.2147037984162559e+00  1.2225661102491130e+00 
 1.2291674063403635e+00  1.2344876517653569e+00  1.2385116409171522e+00  1.2412290942559414e+00 
 1.2426347058473570e+00  1.2427281404850039e+00  1.2415139814641669e+00  1.2390016318246471e+00 
 1.2352051730999356e+00  1.2301431863601084e+00  1.2238385407112793e+00  1.2163181545122228e+00 
 1.2076127344729379e+00  1.1977564975757558e+00  1.1867868804541486e+00  1.1747442405097899e+00 
 1.1616715526659065e+00  1.1476141052586104e+00  1.1326191981675251e+00  1.1167358458897871e+00 
 1.1000144878733065e+00  1.0825067080509985e+00  1.0642649651623639e+00  1.0453423351159918e+00 
 1.0257922663399330e+00  1.0056683487882241e+00  9.8502409702329330e-01  9.6391274757765111e-01 
 9.4238707022063872e-01  9.2049919494824728e-01  8.9830045052760521e-01  8.7584121812616267e-01 
 8.5317079764615866e-01  8.3033728665942086e-01  8.0738747141683398e-01  7.8436672939137275e-01 
 7.6131894280620649e-01  7.3828642260144284e-01  7.1530984231422789e-01  6.9242818136391715e-01 
 6.6967867725278729e-01  6.4709678622055722e-01  6.2471615191574603e-01  6.0256858167152416e-01 
 5.8068402999707946e-01  5.5909058891688856e-01  5.3781448480930760e-01  5.1688008141229480e-01 
 4.9630988867783410e-01  4.7612457716769047e-01  4.5634299769153752e-01  4.3698220589601833e-01 
 4.1805749151607036e-01  3.9958241200264266e-01  3.8156883024390365e-01  3.6402695609362223e-01 
 3.4696539142349175e-01  3.3039117841510862e-01  3.1430985080321533e-01  2.9872548778304697e-01 
 2.8364077029382673e-01  2.6905703939061121e-01  2.5497435641764044e-01  2.4139156469827810e-01 
 2.2830635245967698e-01  2.1571531671446864e-01  2.0361402782709809e-01  1.9199709449890984e-01 
 1.8085822891371486e-01  1.7019031179427596e-01  1.5998545712985343e-01  1.5023507634557035e-01 
 1.4092994169579379e-01  1.3206024867585509e-01  1.2361567725914928e-01  1.1558545177983819e-01 
 1.0795839929492337e-01  1.0072300627324504e-01  9.3867473472904195e-02  8.7379768882601697e-02 
 8.1247678616349808e-02  7.5458855664869151e-02  7.0000866420663055e-02  6.4861234907202539e-02 
 6.0027484655801829e-02  5.5487178186569813e-02  5.1227954062239824e-02  4.7237561495673021e-02 
 4.3503892503356616e-02  4.0015011608237089e-02  3.6759183105737260e-02  3.3724895916747807e-02 
 3.0900886060738809e-02  2.8276156790888414e-02  2.5839996441254180e-02  2.3581994043497007e-02 
 2.1492052777581754e-02  1.9560401326968152e-02  1.7777603214390120e-02  1.6134564199397149e-02 
 1.4622537823008035e-02  1.3233129188582224e-02  1.1958297071190702e-02  1.0790354450372894e-02 
 9.7219675632548193e-03  8.7461535765949554e-03  7.8562769774358950e-03  7.0460447826876270e-03 
 6.3095006681631281e-03  5.6410181173356415e-03  5.0352926893929371e-03  4.4873335050294692e-03 
 3.9924540468360466e-03  3.5462623691352247e-03  3.1446508096704094e-03  2.7837852926673005e-03 
 2.4600943095035507e-03  2.1702576595586608e-03  1.9111950297746520e-03  1.6800544870996788e-03 
 1.4742009533300759e-03  1.2912047269896534e-03  1.1288301118227717e-03  9.8502420623880114e-04 
 8.5790590276070664e-04  7.4575514122550001e-04  6.4700245418073592e-04  5.6021883770829013e-04 
 4.8410597581721531e-04  4.1748684162588829e-04  3.5929669383845744e-04  3.0857448254469408e-04 
 2.6445467416309933e-04  2.2615950142626832e-04  1.9299164069129651e-04  1.6432731555732615e-04 
 1.3960982279306080e-04  1.1834347392044159e-04  1.0008794346369635e-04  8.4453012848890909e-05 
 7.1093697217919770e-05  5.9705740989790135e-05  5.0021466846014260e-05  4.1805961919063815e-05 
 3.4853584304947024e-05  2.8984772583896861e-05  2.4043140797228368e-05  1.9892841273758507e-05 
 1.6416177806015130e-05  1.3511451925395369e-05  1.1091025397655802e-05  9.0795825375778636e-06 
 7.4125765072039134e-06  6.0348443995406832e-06  4.8993766040177338e-06  3.9662266873420880e-06 
 3.2015487909406313e-06  2.5767503323368428e-06  2.0677485921448399e-06  1.6543205616133420e-06 
 1.3195362096753578e-06  1.0492660962106760e-06  8.3175500371505638e-07  6.5725397780245886e-07 
 5.1770385390420358e-07  4.0646400001911240e-07  3.1808062108296855e-07  2.4808954789105017e-07 
 1.9284897163543648e-07  1.4939808373223098e-07  1.1533803997384222e-07  8.8732088873948523e-08 
 6.8022087496933845e-08  5.1958975522613483e-08  3.9545091492311226e-08  2.9986496011618778e-08 
 2.2653717185844519e-08  1.7049555861623842e-08  1.2782784509829306e-08  9.5467459800910972e-09 
 7.1020090227863014e-09  5.2623684861092704e-09  3.8835914454768249e-09  2.8544080996318596e-09 
 2.0893298466933627e-09  1.5229481842267839e-09  1.1054284811761160e-09  7.9896363635051376e-10 
 5.7499542853934678e-10  4.1204711154230781e-10  2.9404052713432917e-10  2.0899560047686657e-10 
 1.4803034106722586e-10  1.0459609820798380e-10  0.0000000000000000e+00  0.0000000000000000e+00 
 0.0000000000000000e+00  0.0000000000000000e+00  0.0000000000000000e+00  0.0000000000000000e+00 
 0.0000000000000000e+00  0.0000000000000000e+00  0.0000000000000000e+00  0.0000000000000000e+00 
 0.0000000000000000e+00  0.0000000000000000e+00  0.0000000000000000e+00  0.0000000000000000e+00 
 0.0000000000000000e+00  0.0000000000000000e+00  0.0000000000000000e+00  0.0000000000000000e+00 
 0.0000000000000000e+00  0.0000000000000000e+00  0.0000000000000000e+00  0.0000000000000000e+00 
 0.0000000000000000e+00  0.0000000000000000e+00  0.0000000000000000e+00  0.0000000000000000e+00 
 0.0000000000000000e+00  0.0000000000000000e+00  0.0000000000000000e+00  0.0000000000000000e+00 
 0.0000000000000000e+00  0.0000000000000000e+00  0.0000000000000000e+00  0.0000000000000000e+00 
 0.0000000000000000e+00  0.0000000000000000e+00  0.0000000000000000e+00  0.0000000000000000e+00 
 0.0000000000000000e+00  0.0000000000000000e+00  0.0000000000000000e+00  0.0000000000000000e+00 
 0.0000000000000000e+00  0.0000000000000000e+00  0.0000000000000000e+00  0.0000000000000000e+00 
 0.0000000000000000e+00  0.0000000000000000e+00  0.0000000000000000e+00  0.0000000000000000e+00 
 0.0000000000000000e+00  0.0000000000000000e+00  0.0000000000000000e+00  0.0000000000000000e+00 
 0.0000000000000000e+00  0.0000000000000000e+00  0.0000000000000000e+00  0.0000000000000000e+00 
 0.0000000000000000e+00  0.0000000000000000e+00  0.0000000000000000e+00  0.0000000000000000e+00 
 0.0000000000000000e+00  0.0000000000000000e+00  0.0000000000000000e+00  0.0000000000000000e+00 
 0.0000000000000000e+00  0.0000000000000000e+00  0.0000000000000000e+00  0.0000000000000000e+00 
 0.0000000000000000e+00  0.0000000000000000e+00  0.0000000000000000e+00  0.0000000000000000e+00 
 0.0000000000000000e+00  0.0000000000000000e+00  0.0000000000000000e+00  0.0000000000000000e+00 
 0.0000000000000000e+00  0.0000000000000000e+00  0.0000000000000000e+00  0.0000000000000000e+00 
 0.0000000000000000e+00  0.0000000000000000e+00  0.0000000000000000e+00  0.0000000000000000e+00 
 0.0000000000000000e+00  0.0000000000000000e+00  0.0000000000000000e+00  0.0000000000000000e+00 
 0.0000000000000000e+00  0.0000000000000000e+00  0.0000000000000000e+00  0.0000000000000000e+00 
 0.0000000000000000e+00  0.0000000000000000e+00  0.0000000000000000e+00  0.0000000000000000e+00 
 0.0000000000000000e+00  0.0000000000000000e+00  0.0000000000000000e+00  0.0000000000000000e+00 
 0.0000000000000000e+00  0.0000000000000000e+00  0.0000000000000000e+00  0.0000000000000000e+00 
 0.0000000000000000e+00  0.0000000000000000e+00  0.0000000000000000e+00  0.0000000000000000e+00 
 0.0000000000000000e+00  0.0000000000000000e+00  0.0000000000000000e+00  0.0000000000000000e+00 
 0.0000000000000000e+00  0.0000000000000000e+00  0.0000000000000000e+00  0.0000000000000000e+00 
 0.0000000000000000e+00  0.0000000000000000e+00  0.0000000000000000e+00  0.0000000000000000e+00 
 0.0000000000000000e+00  0.0000000000000000e+00  0.0000000000000000e+00  0.0000000000000000e+00 
 0.0000000000000000e+00  0.0000000000000000e+00  0.0000000000000000e+00  0.0000000000000000e+00 
 0.0000000000000000e+00  0.0000000000000000e+00  0.0000000000000000e+00  0.0000000000000000e+00 
 0.0000000000000000e+00  0.0000000000000000e+00  0.0000000000000000e+00  0.0000000000000000e+00 
 0.0000000000000000e+00  0.0000000000000000e+00  0.0000000000000000e+00  0.0000000000000000e+00 
 0.0000000000000000e+00  0.0000000000000000e+00  0.0000000000000000e+00  0.0000000000000000e+00 
 0.0000000000000000e+00  0.0000000000000000e+00  0.0000000000000000e+00  0.0000000000000000e+00 
 0.0000000000000000e+00  0.0000000000000000e+00  0.0000000000000000e+00  0.0000000000000000e+00 
 0.0000000000000000e+00  0.0000000000000000e+00  0.0000000000000000e+00  0.0000000000000000e+00 
 0.0000000000000000e+00  0.0000000000000000e+00  0.0000000000000000e+00  0.0000000000000000e+00 
 0.0000000000000000e+00  0.0000000000000000e+00  0.0000000000000000e+00  0.0000000000000000e+00 
 0.0000000000000000e+00  0.0000000000000000e+00  0.0000000000000000e+00  0.0000000000000000e+00 
 0.0000000000000000e+00  0.0000000000000000e+00  0.0000000000000000e+00  0.0000000000000000e+00 
 0.0000000000000000e+00  0.0000000000000000e+00  0.0000000000000000e+00  0.0000000000000000e+00 
 0.0000000000000000e+00  0.0000000000000000e+00  0.0000000000000000e+00  0.0000000000000000e+00 
 0.0000000000000000e+00  0.0000000000000000e+00  0.0000000000000000e+00  0.0000000000000000e+00 
 0.0000000000000000e+00  0.0000000000000000e+00  0.0000000000000000e+00  0.0000000000000000e+00 
 0.0000000000000000e+00 
P    1   4.00          Wavefunction
 1.5587677773622944e-10  1.5998271994350263e-10  1.6419681656488915e-10  1.6852191649034354e-10 
 1.7296094365228932e-10  1.7751689900230918e-10  1.8219286253990314e-10  1.8699199539468580e-10 
 1.9191754196343100e-10  1.9697283210340815e-10  2.0216128338349298e-10  2.0748640339457492e-10 
 2.1295179212082289e-10  2.1856114437341211e-10  2.2431825228835817e-10  2.3022700789014576e-10 
 2.3629140572288660e-10  2.4251554555078391e-10  2.4890363512973015e-10  2.5545999305191122e-10 
 2.6218905166533999e-10  2.6909536007029364e-10  2.7618358719467960e-10  2.8345852495040961e-10 
 2.9092509147291615e-10  2.9858833444600036e-10  3.0645343451425986e-10  3.1452570878540311e-10 
 3.2281061442481825e-10  3.3131375234482612e-10  3.4004087099111235e-10  3.4899787022889660e-10 
 3.5819080533146859e-10  3.6762589107378465e-10  3.7730950593389496e-10  3.8724819640503922e-10 
 3.9744868142132777e-10  4.0791785689999916e-10  4.1866280040332576e-10  4.2969077592331702e-10 
 4.4100923879245826e-10  4.5262584072380185e-10  4.6454843498381990e-10  4.7678508170151431e-10 
 4.8934405331737428e-10  5.0223384017586529e-10  5.1546315626522816e-10  5.2904094510847154e-10 
 5.4297638580953752e-10  5.5727889925873060e-10  5.7195815450160208e-10  5.8702407527559834e-10 
 6.0248684671889089e-10  6.1835692225592176e-10  6.3464503066432329e-10  6.5136218332798522e-10 
 6.6851968168117729e-10  6.8612912484875439e-10  7.0420241748761408e-10  7.2275177783470583e-10 
 7.4178974596703161e-10  7.6132919227922360e-10  7.8138332618443037e-10  8.0196570504439124e-10 
 8.2309024333473928e-10  8.4477122205172631e-10  8.6702329836673166e-10  8.8986151553507770e-10 
 9.1330131306585600e-10  9.3735853715963617e-10  9.6204945142111328e-10  9.8739074785393726e-10 
 1.0133995581451583e-09  1.0400934652469139e-09  1.0674905152631918e-09  1.0956092296496981e-09 
 1.1244686177350856e-09  1.1540881895720022e-09  1.1844879691266499e-09  1.2156885078157687e-09 
 1.2477108984001981e-09  1.2805767892444095e-09  1.3143083989516514e-09  1.3489285313845941e-09 
 1.3844605910816393e-09  1.4209285990793041e-09  1.4583572091513874e-09  1.4967717244758937e-09 
 1.5361981147409741e-09  1.5766630337014631e-09  1.6181938371978650e-09  1.6608186016499859e-09 
 1.7045661430377002e-09  1.7494660363816964e-09  1.7955486357373596e-09  1.8428450947153184e-09 
 1.8913873875425223e-09  1.9412083306780875e-09  1.9923416049985299e-09  2.0448217785673799e-09 
 2.0986843300045699e-09  2.1539656724713982e-09  2.2107031782872803e-09  2.2689352041949352e-09 
 2.3287011172910741e-09  2.3900413216401439e-09  2.4529972855890906e-09  2.5176115698016385e-09 
 2.5839278560310044e-09  2.6519909766505318e-09  2.7218469449621813e-09  2.7935429863033858e-09 
 2.8671275699732948e-09  2.9426504419999849e-09  3.0201626587707983e-09  3.0997166215485358e-09 
 3.1813661118968562e-09  3.2651663280388001e-09  3.3511739221730579e-09  3.4394470387731718e-09 
 3.5300453538955939e-09  3.6230301155231531e-09  3.7184641849712198e-09  3.8164120793845506e-09 
 3.9169400153535545e-09  4.0201159536794527e-09  4.1260096453186059e-09  4.2346926785370702e-09 
 4.3462385273072557e-09  4.4607226009794053e-09  4.5782222952614887e-09  4.6988170445419488e-09 
 4.8225883755907016e-09  4.9496199626746876e-09  5.0799976841252120e-09  5.2138096803953572e-09 
 5.3511464136466816e-09  5.4921007289055108e-09  5.6367679168301575e-09  5.7852457781315010e-09 
 5.9376346896904859e-09  6.0940376724172384e-09  6.2545604608976712e-09  6.4193115748746696e-09 
 6.5884023926121787e-09  6.7619472261917817e-09  6.9400633987927100e-09  7.1228713240074811e-09 
 7.3104945872468266e-09  7.5030600292889157e-09  7.7006978320293964e-09  7.9035416064901768e-09 
 8.1117284831464941e-09  8.3253992046332933e-09  8.5446982208936570e-09  8.7697737868335238e-09 
 9.0007780625487900e-09  9.2378672161925307e-09  9.4812015295518682e-09  9.7309455064059021e-09 
 9.9872679837379102e-09  1.0250342245877059e-08  1.0520346141646764e-08  1.0797462204598888e-08 
 1.1081877776415111e-08  1.1373785133558827e-08  1.1673381617263288e-08  1.1980869766943798e-08 
 1.2296457457124175e-08  1.2620358037970095e-08  1.2952790479524262e-08  1.3293979519740986e-08 
 1.3644155816420190e-08  1.4003556103143627e-08  1.4372423349318678e-08  1.4751006924437982e-08 
 1.5139562766665917e-08  1.5538353555865914e-08  1.5947648891185633e-08  1.6367725473319986e-08 
 1.6798867291575304e-08  1.7241365815861088e-08  1.7695520193739157e-08  1.8161637452663391e-08 
 1.8640032707546874e-08  1.9131029373796692e-08  1.9634959385960439e-08  2.0152163422132369e-08 
 2.0682991134270651e-08  2.1227801384581809e-08  2.1786962488131836e-08  2.2360852461848232e-08 
 2.2949859280081203e-08  2.3554381136896882e-08  2.4174826715279861e-08  2.4811615463427049e-08 
 2.5465177878319770e-08  2.6135955796765600e-08  2.6824402694107023e-08  2.7530983990798627e-08 
 2.8256177367060211e-08  2.9000473085818606e-08  2.9764374324156486e-08  3.0548397513492304e-08 
 3.1353072688721390e-08  3.2178943846554180e-08  3.3026569313294022e-08  3.3896522122303089e-08 
 3.4789390401411746e-08  3.5705777770533141e-08  3.6646303749752130e-08  3.7611604178164214e-08 
 3.8602331643747899e-08  3.9619155924560925e-08  4.0662764441559006e-08  4.1733862723342848e-08 
 4.2833174883148122e-08  4.3961444108400671e-08  4.5119433163167925e-08  4.6307924903846579e-08 
 4.7527722808434971e-08  4.8779651519748048e-08  5.0064557402942500e-08  5.1383309117728785e-08 
 5.2736798205657098e-08  5.4125939692874468e-08  5.5551672708760511e-08  5.7014961120860182e-08 
 5.8516794186542808e-08  6.0058187221828437e-08  6.1640182287833230e-08  6.3263848895298480e-08 
 6.4930284727679795e-08  6.6640616383284954e-08  6.8396000136962937e-08  7.0197622721858706e-08 
 7.2046702131762805e-08  7.3944488444597920e-08  7.5892264667600142e-08  7.7891347604765531e-08 
 7.9943088747149411e-08  8.2048875186620065e-08  8.4210130553685022e-08  8.6428315980024283e-08 
 8.8704931086381228e-08  9.1041514996479549e-08  9.3439647377651888e-08  9.5900949508884246e-08 
 9.8427085376998075e-08  1.0101976280171205e-07  1.0368073459034406e-07  1.0641179972293471e-07 
 1.0921480456859401e-07  1.1209164413389360e-07  1.1504426334414973e-07  1.1807465835846274e-07 
 1.2118487791940359e-07  1.2437702473825971e-07  1.2765325691677779e-07  1.3101578940636500e-07 
 1.3446689550573579e-07  1.3800890839801809e-07  1.4164422272835792e-07  1.4537529622309032e-07 
 1.4920465135157214e-07  1.5313487703180088e-07  1.5716863038097351e-07  1.6130863851217019e-07 
 1.6555770037837804e-07  1.6991868866510317e-07  1.7439455173285151e-07  1.7898831561079254e-07 
 1.8370308604295540e-07  1.8854205058834164e-07  1.9350848077637604e-07  1.9860573431915353e-07 
 2.0383725738198002e-07  2.0920658691374186e-07  2.1471735303868237e-07  2.2037328151120299e-07 
 2.2617819623534940e-07  2.3213602185068843e-07  2.3825078638632320e-07  2.4452662398484432e-07 
 2.5096777769805765e-07  2.5757860235638140e-07  2.6436356751385290e-07  2.7132726047073739e-07 
 2.7847438937578460e-07  2.8580978641023156e-07  2.9333841105570677e-07  3.0106535344827330e-07 
 3.0899583782105218e-07  3.1713522603754207e-07  3.2548902121797782e-07  3.3406287146125862e-07 
 3.4286257366497555e-07  3.5189407744612445e-07  3.6116348916516247e-07  3.7067707605612955e-07 
 3.8044127046563830e-07  3.9046267420359970e-07  4.0074806300863397e-07  4.1130439113119262e-07 
 4.2213879603749584e-07  4.3325860323747412e-07  4.4467133123998575e-07  4.5638469663866782e-07 
 4.6840661933186816e-07  4.8074522788019710e-07  4.9340886500533152e-07  5.0640609323379571e-07 
 5.1974570068955231e-07  5.3343670703932309e-07  5.4748836959467843e-07  5.6191018957502915e-07 
 5.7671191853577179e-07  5.9190356496594611e-07  6.0749540105988168e-07  6.2349796966742891e-07 
 6.3992209142748714e-07  6.5677887208967667e-07  6.7407971002911911e-07  6.9183630395943058e-07 
 7.1006066084916155e-07  7.2876510404706089e-07  7.4796228162168115e-07  7.6766517492098841e-07 
 7.8788710735779131e-07  8.0864175342695905e-07  8.2994314796055623e-07  8.5180569562717935e-07 
 8.7424418068195893e-07  8.9727377697384799e-07  9.2091005821700879e-07  9.4516900853327531e-07 
 9.7006703327286932e-07  9.9562097012072558e-07  1.0218481004959847e-06  1.0487661612524158e-06 
 1.0763933566877245e-06  1.1047483708699315e-06  1.1338503802892082e-06  1.1637190668437885e-06 
 1.1943746311688064e-06  1.2258378063171328e-06  1.2581298718015446e-06  1.2912726680077829e-06 
 1.3252886109883452e-06  1.3602007076470811e-06  1.3960325713249593e-06  1.4328084377976298e-06 
 1.4705531816956991e-06  1.5092923333589238e-06  1.5490520961358171e-06  1.5898593641404897e-06 
 1.6317417404788305e-06  1.6747275559564890e-06  1.7188458882814157e-06  1.7641265817740892e-06 
 1.8106002675988825e-06  1.8582983845303904e-06  1.9072532002688881e-06  1.9574978333195055e-06 
 2.0090662754500478e-06  2.0619934147428025e-06  2.1163150592560912e-06  2.1720679613117073e-06 
 2.2292898424248499e-06  2.2880194188935620e-06  2.3482964280651671e-06  2.4101616552976272e-06 
 2.4736569616342411e-06  2.5388253122105771e-06  2.6057108054130285e-06  2.6743587028089149e-06 
 2.7448154598685449e-06  2.8171287575002269e-06  2.8913475344197523e-06  2.9675220203764534e-06 
 3.0457037702585240e-06  3.1259456991009073e-06  3.2083021180196470e-06  3.2928287710972761e-06 
 3.3795828732444620e-06  3.4686231490637855e-06  3.5600098727422766e-06  3.6538049090000004e-06 
 3.7500717551227817e-06  3.8488755841078672e-06  3.9502832889521621e-06  4.0543635281134409e-06 
 4.1611867721758152e-06  4.2708253517515977e-06  4.3833535066525363e-06  4.4988474363643984e-06 
 4.6173853518596816e-06  4.7390475287842690e-06  4.8639163620548767e-06  4.9920764219050945e-06 
 5.1236145114188588e-06  5.2586197255913410e-06  5.3971835119582066e-06  5.5393997328354033e-06 
 5.6853647292128027e-06  5.8351773863461861e-06  5.9889392010932682e-06  6.1467543510407290e-06 
 6.3087297654704630e-06  6.4749751982146346e-06  6.6456033024503859e-06  6.8207297074865612e-06 
 7.0004730975961666e-06  7.1849552929498694e-06  7.3743013327070362e-06  7.5686395603226825e-06 
 7.7681017111302315e-06  7.9728230022615599e-06  8.1829422249675893e-06  8.3986018394043574e-06 
 8.6199480719513390e-06  8.8471310151306344e-06  9.0803047301975214e-06  9.3196273524748786e-06 
 9.5652611995059490e-06  9.8173728821020682e-06  1.0076133418364045e-05  1.0341718350758153e-05 
 1.0614307866329916e-05  1.0894086920141292e-05  1.1181245362019143e-05  1.1475978066705466e-05 
 1.1778485067502425e-05  1.2088971693507753e-05  1.2407648710538933e-05  1.2734732465847275e-05 
 1.3070445036725972e-05  1.3415014383118992e-05  1.3768674504341084e-05  1.4131665600021912e-05 
 1.4504234235390855e-05  1.4886633511022274e-05  1.5279123237164492e-05  1.5681970112779233e-05 
 1.6095447909422118e-05  1.6519837660098324e-05  1.6955427853231600e-05  1.7402514631888879e-05 
 1.7861401998406636e-05  1.8332402024569637e-05  1.8815835067497090e-05  1.9312029991395608e-05 
 1.9821324395343316e-05  2.0344064847273981e-05  2.0880607124335398e-05  2.1431316459800966e-05 
 2.1996567796719209e-05  2.2576746048490989e-05  2.3172246366570212e-05  2.3783474415489440e-05 
 2.4410846655418010e-05  2.5054790632466334e-05  2.5715745276956682e-05  2.6394161209887306e-05 
 2.7090501057823545e-05  2.7805239776457023e-05  2.8538864983080811e-05  2.9291877298236564e-05 
 3.0064790696797248e-05  3.0858132868757184e-05  3.1672445590009515e-05  3.2508285103400111e-05 
 3.3366222510355510e-05  3.4246844173392116e-05  3.5150752129823457e-05  3.6078564516992026e-05 
 3.7030916009362786e-05  3.8008458267825976e-05  3.9011860401567860e-05  4.0041809442879665e-05 
 4.1099010835286506e-05  4.2184188935390710e-05  4.3298087528836343e-05  4.4441470360815350e-05 
 4.5615121681548704e-05  4.6819846807190863e-05  4.8056472696620075e-05  4.9325848544592175e-05 
 5.0628846391751997e-05  5.1966361752011813e-05  5.3339314257824372e-05  5.4748648323894649e-05 
 5.6195333829893944e-05  5.7680366822757489e-05  5.9204770239167692e-05  6.0769594648845112e-05 
 6.2375919019290476e-05  6.4024851502643239e-05  6.5717530245345158e-05  6.7455124221321282e-05 
 6.9238834089415093e-05  7.1069893075841327e-05  7.2949567882445328e-05  7.4879159621586998e-05 
 7.6860004778495585e-05  7.8893476201972066e-05  8.0980984124346889e-05  8.3123977211634092e-05 
 8.5323943644855828e-05  8.7582412233547620e-05  8.9900953562491273e-05  9.2281181172759988e-05 
 9.4724752778201166e-05  9.7233371518523433e-05  9.9808787250197829e-05  1.0245279787642854e-04 
 1.0516725071749503e-04  1.0795404392281763e-04  1.1081512792614817e-04  1.1375250694534317e-04 
 1.1676824052822949e-04  1.1986444514613355e-04  1.2304329583670426e-04  1.2630702789772301e-04 
 1.2965793863366142e-04  1.3309838915681455e-04  1.3663080624491195e-04  1.4025768425718100e-04 
 1.4398158711091932e-04  1.4780515032071146e-04  1.5173108310251364e-04  1.5576217054491908e-04 
 1.5990127585000996e-04  1.6415134264630114e-04  1.6851539737638182e-04  1.7299655176197096e-04 
 1.7759800534921142e-04  1.8232304813714937e-04  1.8717506329246362e-04  1.9215752995364313e-04 
 1.9727402612794139e-04  2.0252823168458165e-04  2.0792393144782991e-04  2.1346501839371261e-04 
 2.1915549695431425e-04  2.2499948643376071e-04  2.3100122454017545e-04  2.3716507103807680e-04 
 2.4349551152588498e-04  2.4999716134341114e-04  2.5667476961441476e-04  2.6353322342954324e-04 
 2.7057755217520344e-04  2.7781293201416328e-04  2.8524469052394177e-04  2.9287831149932243e-04 
 3.0071943992560670e-04  3.0877388712953133e-04  3.1704763611508681e-04  3.2554684709180806e-04 
 3.3427786320345686e-04  3.4324721646538400e-04  3.5246163391924277e-04  3.6192804401413258e-04 
 3.7165358322367666e-04  3.8164560290898484e-04  3.9191167643792433e-04  4.0245960657161556e-04 
 4.1329743312959141e-04  4.2443344094560511e-04  4.3587616812664832e-04  4.4763441462834753e-04 
 4.5971725116054267e-04  4.7213402843752781e-04  4.8489438678813330e-04  4.9800826614157881e-04 
 5.1148591640580747e-04  5.2533790825583433e-04  5.3957514435051552e-04  5.5420887099705371e-04 
 5.6925069028352542e-04  5.8471257270072488e-04  6.0060687027569933e-04  6.1694633024046339e-04 
 6.3374410926058744e-04  6.5101378824959362e-04  6.6876938779642371e-04  6.8702538423463322e-04 
 7.0579672638343600e-04  7.2509885299227857e-04  7.4494771092225263e-04  7.6535977409938687e-04 
 7.8635206327667625e-04  8.0794216664363040e-04  8.3014826132415118e-04  8.5298913580569716e-04 
 8.7648421334494140e-04  9.0065357639753057e-04  9.2551799212206760e-04  9.5109893901110080e-04 
 9.7741863470472896e-04  1.0045000650453840e-03  1.0323670144355118e-03  1.0610440975631775e-03 
 1.0905567925641362e-03  1.1209314756926102e-03  1.1521954575769372e-03  1.1843770211403925e-03 
 1.2175054612718651e-03  1.2516111263357124e-03  1.2867254616149909e-03  1.3228810547874601e-03 
 1.3601116835392332e-03  1.3984523654267298e-03  1.4379394101037312e-03  1.4786104740368211e-03 
 1.5205046178393571e-03  1.5636623663613878e-03  1.6081257716806070e-03  1.6539384791475929e-03 
 1.7011457966471749e-03  1.7497947672468869e-03  1.7999342454131562e-03  1.8516149769860306e-03 
 1.9048896831141309e-03  1.9598131483629317e-03  2.0164423132216307e-03  2.0748363712466923e-03 
 2.1350568710937767e-03  2.1971678237041599e-03  2.2612358149270173e-03  2.3273301238751058e-03 
 2.3955228473284810e-03  2.4658890305190536e-03  2.5385068046479241e-03  2.6134575315078421e-03 
 2.6908259556046219e-03  2.7707003641941667e-03  2.8531727556759283e-03  2.9383390168091551e-03 
 3.0262991092454526e-03  3.1171572658997399e-03  3.2110221977121639e-03  3.3080073113855822e-03 
 3.4082309387172961e-03  3.5118165781797121e-03  3.6188931494426924e-03  3.7295952615706879e-03 
 3.8440634956703724e-03  3.9624447028096194e-03  4.0848923180763263e-03  4.2115666916960380e-03 
 4.3426354381805405e-03  4.4782738045359670e-03  4.6186650586183499e-03  4.7640008987873544e-03 
 4.9144818860751673e-03  5.0703179001574143e-03  5.2317286204867355e-03  5.3989440340272013e-03 
 5.5722049711097480e-03  5.7517636710148513e-03  5.9378843789793705e-03  6.1308439764197718e-03 
 6.3309326462641386e-03  6.5384545753904254e-03  6.7537286962788077e-03  6.9770894701014288e-03 
 7.2088877135938912e-03  7.4494914721793381e-03  7.6992869419480556e-03  7.9586794432333890e-03 
 8.2280944486682033e-03  8.5079786687554636e-03  8.7988011981413299e-03  9.1010547259396633e-03 
 9.4152568136228656e-03  9.7419512441648554e-03  1.0081709446298269e-02  1.0435131997928265e-02 
 1.0802850212930017e-02  1.1185527815744766e-02  1.1583862708380030e-02  1.1998588834611737e-02 
 1.2430478146379202e-02  1.2880342677556108e-02  1.3349036730471114e-02  1.3837459180737992e-02 
 1.4346555906136121e-02  1.4877322345454315e-02  1.5430806193373022e-02  1.6008110237607499e-02 
 1.6610395344665348e-02  1.7238883600681085e-02  1.7894861613874397e-02  1.8579683985231757e-02 
 1.9294776954028450e-02  2.0041642224782809e-02  2.0821860982160035e-02  2.1637098100211478e-02 
 2.2489106552138628e-02  2.3379732026498973e-02  2.4310917755414052e-02  2.5284709559886327e-02 
 2.6303261116768561e-02  2.7368839451244336e-02  2.8483830657855487e-02  2.9650745852136298e-02 
 3.0872227353768232e-02  3.2151055100833763e-02  3.3490153293204504e-02  3.4892597261325722e-02 
 3.6361620554635744e-02  3.7900622241558421e-02  3.9513174410409746e-02  4.1203029857635853e-02 
 4.2974129946526614e-02  4.4830612615896832e-02  4.6776820514171556e-02  4.8817309229821623e-02 
 5.0956855584147330e-02  5.3200465946970796e-02  5.5553384529847032e-02  5.8021101604915179e-02 
 6.0609361590457912e-02  6.3324170936600921e-02  6.6171805736342598e-02  6.9158818978242123e-02 
 7.2292047347596838e-02  7.5578617472798329e-02  7.9025951502764993e-02  8.2641771889902280e-02 
 8.6434105240950215e-02  9.0411285085342533e-02  9.4581953397340726e-02  9.8955060694246352e-02 
 1.0353986451845756e-01  1.0834592609607586e-01  1.1338310494923541e-01  1.1866155122340395e-01 
 1.2419169547469708e-01  1.2998423564589626e-01  1.3605012094356017e-01  1.4240053231262190e-01 
 1.4904685918950974e-01  1.5600067220055977e-01  1.6327369145987561e-01  1.7087775011055995e-01 
 1.7882475274631762e-01  1.8712662834790969e-01  1.9579527737220692e-01  2.0484251264221159e-01 
 2.1427999370624573e-01  2.2411915436557614e-01  2.3437112311428326e-01  2.4504663629546455e-01 
 2.5615594385613327e-01  2.6770870768142274e-01  2.7971389260845386e-01  2.9217965036221938e-01 
 3.0511319681970872e-01  3.1852068319241678e-01  3.3240706191771868e-01  3.4677594826070746e-01 
 3.6162947884236646e-01  3.7696816851801740e-01  3.9279076722159773e-01  4.0909411855632766e-01 
 4.2587302204236321e-01  4.4312010102184463e-01  4.6082567827062948e-01  4.7897766137812331e-01 
 4.9756143994046897e-01  5.1655979657896267e-01  5.3595283375584213e-01  5.5571791832150064e-01 
 5.7582964569332085e-01  5.9625982553258383e-01  6.1697749074120889e-01  6.3794893152701504e-01 
 6.5913775616164938e-01  6.8050497985103453e-01  7.0200914282044957e-01  7.2360645824621028e-01 
 7.4525099000091288e-01  7.6689485927926071e-01  7.8848847801202226e-01  8.0998080556938412e-01 
 8.3131962368234347e-01  8.5245182295153721e-01  8.7332369306230195e-01  8.9388120827206297e-01 
 9.1407030028161129e-01  9.3383711250983181e-01  9.5312823301764871e-01  9.7189090740002415e-01 
 9.9007323701728533e-01  1.0076243709277284e+00  1.0244947009513434e+00  1.0406360687835707e+00 
 1.0560019937924716e+00  1.0705478952474743e+00  1.0842313623608522e+00  1.0970124108232191e+00 
 1.1088537388293793e+00  1.1197209717209951e+00  1.1295828854793473e+00  1.1384116019601440e+00 
 1.1461827509674511e+00  1.1528755964187438e+00  1.1584731257471272e+00  1.1629621031886705e+00 
 1.1663330886876697e+00  1.1685804248624714e+00  1.1697021948821233e+00  1.1697001542877972e+00 
 1.1685796398217865e+00  1.1663494582549787e+00  1.1630217580699047e+00  1.1586118866867281e+00 
 1.1531382357304103e+00  1.1466220766388506e+00  1.1390873887104447e+00  1.1305606814892906e+00 
 1.1210708131902087e+00  1.1106488066762794e+00  1.0993276643212988e+00  1.0871421829201264e+00 
 1.0741287696535633e+00  1.0603252599716093e+00  1.0457707381311891e+00  1.0305053610133361e+00 
 1.0145701857490981e+00  9.9800700160081068e-01  9.8085816647716928e-01  9.6316644840794230e-01 
 9.4497487225958998e-01  9.2632657193689205e-01  9.0726464828863718e-01  8.8783203221275031e-01 
 8.6807135664579493e-01  8.4802483059742995e-01  8.2773412235903920e-01  8.0724024853928400e-01 
 7.8658346973291893e-01  7.6580319292074817e-01  7.4493788067854849e-01  7.2402496725141763e-01 
 7.0310078152708455e-01  6.8220047691740637e-01  6.6135796813196479e-01  6.4060587480177511e-01 
 6.1997547188512181e-01  5.9949664676183345e-01  5.7919786289716324e-01  5.5910612993424813e-01 
 5.3924698004998817e-01  5.1964445038899099e-01  5.0032107137400961e-01  4.8129786067033692e-01 
 4.6259432257208410e-01  4.4422845256617566e-01  4.2621674681595317e-01  4.0857421630113533e-01 
 3.9131440534446271e-01  3.7444941425114098e-01  3.5798992578460442e-01  3.4194523520104991e-01 
 3.2632328356556728e-01  3.1113069407426180e-01  2.9637281110942215e-01  2.8205374175841613e-01 
 2.6817639953149303e-01  2.5474255001893042e-01  2.4175285823389070e-01  2.2920693739386022e-01 
 2.1710339890059110e-01  2.0543990328595299e-01  1.9421321189899191e-01  1.8341923911772628e-01 
 1.7305310487774325e-01  1.6310918731843807e-01  1.5358117535674704e-01  1.4446212100740530e-01 
 1.3574449127808980e-01  1.2742021947725454e-01  1.1948075578200426e-01  1.1191711692295335e-01 
 1.0471993485266062e-01  9.7879504273888002e-02  9.1385828913580130e-02  8.5228666438081996e-02 
 7.9397571914664608e-02  7.3881939733876786e-02  6.8671043916601573e-02  6.3754076738888096e-02 
 5.9120185616630107e-02  5.4758508200948235e-02  5.0658205643668901e-02  4.6808494000539533e-02 
 4.3198673747911094e-02  3.9818157396050921e-02  3.6656495189620136e-02  3.3703398893159667e-02 
 3.0948763665867587e-02  2.8382688036450346e-02  2.5995491995062531e-02  2.3777733225309291e-02 
 2.1720221505064547e-02  1.9814031310476949e-02  1.8050512663012993e-02  1.6421300264733010e-02 
 1.4918320972211161e-02  1.3533799664578142e-02  1.2260263566058038e-02  1.1090545088048196e-02 
 1.0017783260184975e-02  9.0354238239234250e-03  8.1372180658669697e-03  7.3172204712750001e-03 
 6.5697852808934264e-03  5.8895620364238302e-03  5.2714902014654695e-03  4.7107929456664983e-03 
 4.2029701800316141e-03  3.7437909309366922e-03  3.3292851393696989e-03  2.9557349701469613e-03 
 2.6196657135939367e-03  2.3178363594014949e-03  2.0472299190311852e-03  1.8050435693172035e-03 
 1.5886786858216059e-03  1.3957308301126674e-03  1.2239797505219740e-03  1.0713794511594619e-03 
 9.3604837909047882e-04  8.1625977466468196e-04  7.1043222508864422e-04  6.1712045650276959e-04 
 5.3500639510359934e-04  4.6289052328422968e-04  3.9968355238204154e-04  3.4439842945230146e-04 
 2.9614269155089288e-04  2.5411117732668996e-04  2.1757910230615064e-04  1.8589550110724472e-04 
 1.5847703695045980e-04  1.3480217624122791e-04  1.1440572367747281e-04  9.6873711282147865e-05 
 8.1838632965468489e-05  6.8975014675072094e-05  5.7995308883196293e-05  4.8646101075701304e-05 
 4.0704615035140528e-05  3.3975503035334754e-05  2.8287906573907611e-05  2.3492772947693174e-05 
 1.9460412809474704e-05  1.6078283818850645e-05  1.3248985600985912e-05  1.0888451440648140e-05 
 8.9243224516001140e-06  7.2944903598339815e-06  5.9457955104428135e-06  4.8328672397868879e-06 
 3.9170943352607240e-06  3.1657139232795393e-06  2.5510077716624057e-06  2.0495956557361714e-06 
 1.6418161093670875e-06  1.3111855547349382e-06  1.0439274708505377e-06  8.2856391430948092e-07 
 6.5556234117272812e-07  5.1703129162435009e-07  4.0645908546418196e-07  3.1849023362509458e-07 
 2.4873479658175177e-07  1.9360641324934949e-07  1.5018518289385792e-07  1.1610200738910886e-07 
 8.9441392055112310e-08  6.8660060917495064e-08  5.2519067520714709e-08  4.0027376682792391e-08 
 3.0395157304213136e-08  2.2995263220487960e-08  1.7331589920524375e-08  1.3013181619453723e-08 
 9.7331275851723023e-09  7.2514306787872120e-09  5.3811566520041261e-09  3.9772816610814726e-09 
 2.9277494394258973e-09  2.1463302564872827e-09  1.5669427109716025e-09  1.1391579806721704e-09 
 8.2465568262313594e-10  5.9444217255164872e-10  4.2667700403788546e-10  3.0498233729877688e-10 
 2.1713419245801636e-10  1.5405434269656850e-10  1.0903801042447286e-10  0.0000000000000000e+00 
 0.0000000000000000e+00  0.0000000000000000e+00  0.0000000000000000e+00  0.0000000000000000e+00 
 0.0000000000000000e+00  0.0000000000000000e+00  0.0000000000000000e+00  0.0000000000000000e+00 
 0.0000000000000000e+00  0.0000000000000000e+00  0.0000000000000000e+00  0.0000000000000000e+00 
 0.0000000000000000e+00  0.0000000000000000e+00  0.0000000000000000e+00  0.0000000000000000e+00 
 0.0000000000000000e+00  0.0000000000000000e+00  0.0000000000000000e+00  0.0000000000000000e+00 
 0.0000000000000000e+00  0.0000000000000000e+00  0.0000000000000000e+00  0.0000000000000000e+00 
 0.0000000000000000e+00  0.0000000000000000e+00  0.0000000000000000e+00  0.0000000000000000e+00 
 0.0000000000000000e+00  0.0000000000000000e+00  0.0000000000000000e+00  0.0000000000000000e+00 
 0.0000000000000000e+00  0.0000000000000000e+00  0.0000000000000000e+00  0.0000000000000000e+00 
 0.0000000000000000e+00  0.0000000000000000e+00  0.0000000000000000e+00  0.0000000000000000e+00 
 0.0000000000000000e+00  0.0000000000000000e+00  0.0000000000000000e+00  0.0000000000000000e+00 
 0.0000000000000000e+00  0.0000000000000000e+00  0.0000000000000000e+00  0.0000000000000000e+00 
 0.0000000000000000e+00  0.0000000000000000e+00  0.0000000000000000e+00  0.0000000000000000e+00 
 0.0000000000000000e+00  0.0000000000000000e+00  0.0000000000000000e+00  0.0000000000000000e+00 
 0.0000000000000000e+00  0.0000000000000000e+00  0.0000000000000000e+00  0.0000000000000000e+00 
 0.0000000000000000e+00  0.0000000000000000e+00  0.0000000000000000e+00  0.0000000000000000e+00 
 0.0000000000000000e+00  0.0000000000000000e+00  0.0000000000000000e+00  0.0000000000000000e+00 
 0.0000000000000000e+00  0.0000000000000000e+00  0.0000000000000000e+00  0.0000000000000000e+00 
 0.0000000000000000e+00  0.0000000000000000e+00  0.0000000000000000e+00  0.0000000000000000e+00 
 0.0000000000000000e+00  0.0000000000000000e+00  0.0000000000000000e+00  0.0000000000000000e+00 
 0.0000000000000000e+00  0.0000000000000000e+00  0.0000000000000000e+00  0.0000000000000000e+00 
 0.0000000000000000e+00  0.0000000000000000e+00  0.0000000000000000e+00  0.0000000000000000e+00 
 0.0000000000000000e+00  0.0000000000000000e+00  0.0000000000000000e+00  0.0000000000000000e+00 
 0.0000000000000000e+00  0.0000000000000000e+00  0.0000000000000000e+00  0.0000000000000000e+00 
 0.0000000000000000e+00  0.0000000000000000e+00  0.0000000000000000e+00  0.0000000000000000e+00 
 0.0000000000000000e+00  0.0000000000000000e+00  0.0000000000000000e+00  0.0000000000000000e+00 
 0.0000000000000000e+00  0.0000000000000000e+00  0.0000000000000000e+00  0.0000000000000000e+00 
 0.0000000000000000e+00  0.0000000000000000e+00  0.0000000000000000e+00  0.0000000000000000e+00 
 0.0000000000000000e+00  0.0000000000000000e+00  0.0000000000000000e+00  0.0000000000000000e+00 
 0.0000000000000000e+00  0.0000000000000000e+00  0.0000000000000000e+00  0.0000000000000000e+00 
 0.0000000000000000e+00  0.0000000000000000e+00  0.0000000000000000e+00  0.0000000000000000e+00 
 0.0000000000000000e+00  0.0000000000000000e+00  0.0000000000000000e+00  0.0000000000000000e+00 
 0.0000000000000000e+00  0.0000000000000000e+00  0.0000000000000000e+00  0.0000000000000000e+00 
 0.0000000000000000e+00  0.0000000000000000e+00  0.0000000000000000e+00  0.0000000000000000e+00 
 0.0000000000000000e+00  0.0000000000000000e+00  0.0000000000000000e+00  0.0000000000000000e+00 
 0.0000000000000000e+00  0.0000000000000000e+00  0.0000000000000000e+00  0.0000000000000000e+00 
 0.0000000000000000e+00  0.0000000000000000e+00  0.0000000000000000e+00  0.0000000000000000e+00 
 0.0000000000000000e+00  0.0000000000000000e+00  0.0000000000000000e+00  0.0000000000000000e+00 
 0.0000000000000000e+00  0.0000000000000000e+00  0.0000000000000000e+00  0.0000000000000000e+00 
 0.0000000000000000e+00  0.0000000000000000e+00  0.0000000000000000e+00  0.0000000000000000e+00 
 0.0000000000000000e+00  0.0000000000000000e+00  0.0000000000000000e+00  0.0000000000000000e+00 
 0.0000000000000000e+00  0.0000000000000000e+00  0.0000000000000000e+00  0.0000000000000000e+00 
 0.0000000000000000e+00  0.0000000000000000e+00  0.0000000000000000e+00  0.0000000000000000e+00 
 0.0000000000000000e+00  0.0000000000000000e+00  0.0000000000000000e+00  0.0000000000000000e+00 
 0.0000000000000000e+00  0.0000000000000000e+00  0.0000000000000000e+00  0.0000000000000000e+00 
 0.0000000000000000e+00 
D    2   3.80          Wavefunction
 2.7864012562644395e-14  2.8972177818310971e-14  3.0124415342277125e-14  3.1322477909968991e-14 
 3.2568188005539159e-14  3.3863440594216500e-14  3.5210206004913571e-14  3.6610532927476792e-14 
 3.8066551529138630e-14  3.9580476694912737e-14  4.1154611396860987e-14  4.2791350197358026e-14 
 4.4493182891682282e-14  4.6262698295474614e-14  4.8102588182826024e-14  5.0015651380984973e-14 
 5.2004798027913263e-14  5.4073053999166877e-14  5.6223565510836145e-14  5.8459603905546888e-14 
 6.0784570628803329e-14  6.3202002403242449e-14  6.5715576608670923e-14  6.8329116876068853e-14 
 7.1046598904069614e-14  7.3872156506763925e-14  7.6810087902028120e-14  7.9864862249942079e-14 
 8.3041126451243462e-14  8.6343712216159477e-14  8.9777643414369737e-14  9.3348143717280501e-14 
 9.7060644544236075e-14  1.0092079332475455e-13  1.0493446208935704e-13  1.0910775640205817e-13 
 1.1344702464810582e-13  1.1795886769109917e-13  1.2265014891417474e-13  1.2752800466053524e-13 
 1.3259985508920340e-13  1.3787341546251442e-13  1.4335670788251727e-13  1.4905807349413849e-13 
 1.5498618517367163e-13  1.6115006072189400e-13  1.6755907658188045e-13  1.7422298210238046e-13 
 1.8115191436845743e-13  1.8835641362194917e-13  1.9584743929520753e-13  2.0363638668250818e-13 
 2.1173510427448955e-13  2.2015591178199151e-13  2.2891161887671045e-13  2.3801554467717928e-13 
 2.4748153800971451e-13  2.5732399847515049e-13  2.6755789835340856e-13  2.7819880537922078e-13 
 2.8926290642365571e-13  3.0076703211746961e-13  3.1272868245374057e-13  3.2516605340873084e-13 
 3.3809806462147516e-13  3.5154438817419829e-13  3.6552547851734475e-13  3.8006260358474045e-13 
 3.9517787714622009e-13  4.1089429244693369e-13  4.2723575718450521e-13  4.4422712987724856e-13 
 4.6189425767876639e-13  4.8026401569645248e-13  4.9936434787371153e-13  5.1922430949808254e-13 
 5.3987411139993223e-13  5.6134516590895142e-13  5.8367013463836428e-13  6.0688297816953612e-13 
 6.3101900771256508e-13  6.5611493882143824e-13  6.8220894724546743e-13  7.0934072700196045e-13 
 7.3755155075847435e-13  7.6688433261649706e-13  7.9738369339206687e-13  8.2909602849263533e-13 
 8.6206957849342378e-13  8.9635450252063620e-13  9.3200295455315727e-13  9.6906916275880833e-13 
 1.0076095119858399e-12  1.0476826295351560e-12  1.0893494743437359e-12  1.1326734297149273e-12 
 1.1777203997366670e-12  1.2245589095342984e-12  1.2732602095104956e-12  1.3238983837308578e-12 
 1.3765504626200483e-12  1.4312965401399201e-12  1.4882198956278620e-12  1.5474071204807259e-12 
 1.6089482498770222e-12  1.6729368997377847e-12  1.7394704091344199e-12  1.8086499883601985e-12 
 1.8805808728906104e-12  1.9553724834668065e-12  2.0331385925456268e-12  2.1139974973694338e-12 
 2.1980721999190132e-12  2.2854905940232854e-12  2.3763856599104663e-12  2.4708956664966154e-12 
 2.5691643817193020e-12  2.6713412912363326e-12  2.7775818258222488e-12  2.8880475978084716e-12 
 3.0029066469268042e-12  3.1223336959302336e-12  3.2465104163799043e-12  3.3756257050025579e-12 
 3.5098759710388519e-12  3.6494654350196525e-12  3.7946064394247977e-12  3.9455197716969250e-12 
 4.1024350001016947e-12  4.2655908229453507e-12  4.4352354316808225e-12  4.6116268884547312e-12 
 4.7950335186696236e-12  4.9857343191585944e-12  5.1840193825932050e-12  5.3901903387703118e-12 
 5.6045608134490784e-12  5.8274569054361612e-12  6.0592176826447955e-12  6.3001956978823911e-12 
 6.5507575251512420e-12  6.8112843172781802e-12  7.0821723857214216e-12  7.3638338034366082e-12 
 7.6566970317191200e-12  7.9612075719761920e-12  8.2778286434203563e-12  8.6070418877150188e-12 
 8.9493481016441852e-12  9.3052679989207636e-12  9.6753430022923719e-12  1.0060136067149556e-11 
 1.0460232537889317e-11  1.0876241038336599e-11  1.1308794397578283e-11  1.1758550612618025e-11 
 1.2226193849316325e-11  1.2712435483138496e-11  1.3218015181293624e-11  1.3743702027910745e-11 
 1.4290295693963780e-11  1.4858627653724958e-11  1.5449562449597189e-11  1.6063999007249355e-11 
 1.6702872003055203e-11  1.7367153285915924e-11  1.8057853355629268e-11  1.8776022900054093e-11 
 1.9522754393408709e-11  2.0299183758134274e-11  2.1106492092851230e-11  2.1945907469037491e-11 
 2.2818706799161270e-11  2.3726217779110461e-11  2.4669820907873332e-11  2.5650951587542912e-11 
 2.6671102306839465e-11  2.7731824911472731e-11  2.8834732964797511e-11  2.9981504202353605e-11 
 3.1173883084023998e-11  3.2413683447693562e-11  3.3702791268444898e-11  3.5043167527488807e-11 
 3.6436851195193464e-11  3.7885962332749867e-11  3.9392705317192180e-11  4.0959372194678514e-11 
 4.2588346167133187e-11  4.4282105217554493e-11  4.6043225879502550e-11  4.7874387156501387e-11 
 4.9778374597317499e-11  5.1758084533314137e-11  5.3816528484327044e-11  5.5956837739763910e-11 
 5.8182268121896337e-11  6.0496204938589877e-11  6.2902168133006709e-11  6.5403817638114048e-11 
 6.8004958944144045e-11  7.0709548887473799e-11  7.3521701669732019e-11  7.6445695116288134e-11 
 7.9485977183644422e-11  8.2647172725629900e-11  8.5934090528688989e-11  8.9351730626966635e-11 
 9.2905291908317694e-11  9.6600180022810586e-11  1.0044201560575593e-10  1.0443664282776837e-10 
 1.0859013828486841e-10  1.1290882024214736e-10  1.1739925824505701e-10  1.2206828311294445e-10 
 1.2692299733003429e-10  1.3197078584966464e-10  1.3721932732821244e-10  1.4267660580579667e-10 
 1.4835092285152858e-10  1.5425091019178317e-10  1.6038554284070323e-10  1.6676415275290863e-10 
 1.7339644301917967e-10  1.8029250262670950e-10  1.8746282180637713e-10  1.9491830799038898e-10 
 2.0267030240456146e-10  2.1073059732048695e-10  2.1911145399382438e-10  2.2782562131600412e-10 
 2.3688635520771838e-10  2.4630743878369886e-10  2.5610320331945616e-10  2.6628855005187474e-10 
 2.7687897284682717e-10  2.8789058176828692e-10  2.9934012758479669e-10  3.1124502725056732e-10 
 3.2362339039997044e-10  3.3649404689572815e-10  3.4987657547270475e-10  3.6379133352087367e-10 
 3.7825948805276477e-10  3.9330304790249916e-10  4.0894489720539170e-10  4.2520883020905106e-10 
 4.4211958746893067e-10  4.5970289348339009e-10  4.7798549582551768e-10  4.9699520583124081e-10 
 5.1676094090561784e-10  5.3731276851166665e-10  5.5868195190864738e-10  5.8090099770937128e-10 
 6.0400370532888427e-10  6.2802521839974265e-10  6.5300207823209302e-10  6.7897227939988078e-10 
 7.0597532753774197e-10  7.3405229943650210e-10  7.6324590552869330e-10  7.9360055485914564e-10 
 8.2516242263948463e-10  8.5797952048929625e-10  8.9210176947081170e-10  9.2758107602820954e-10 
 9.6447141094705413e-10  1.0028288914539818e-09  1.0427118665815265e-09  1.0841810059279340e-09 
 1.1272993919469944e-09  1.1721326159082697e-09  1.2187488776737052e-09  1.2672190894423855e-09 
 1.3176169836212613e-09  1.3700192249859275e-09  1.4245055273020731e-09  1.4811587745849974e-09 
 1.5400651471816459e-09  1.6013142528669553e-09  1.6649992631539197e-09  1.7312170550247217e-09 
 1.8000683582985161e-09  1.8716579088600290e-09  1.9460946079820448e-09  2.0234916879841252e-09 
 2.1039668844795464e-09  2.1876426154724515e-09  2.2746461675776499e-09  2.3651098896465230e-09 
 2.4591713940949118e-09  2.5569737662376304e-09  2.6586657819476101e-09  2.7644021339713573e-09 
 2.8743436672450401e-09  2.9886576235691876e-09  3.1075178960141675e-09  3.2311052934434585e-09 
 3.3596078155571058e-09  3.4932209388737457e-09  3.6321479140862380e-09  3.7766000752432316e-09 
 3.9267971612270032e-09  4.0829676500165772e-09  4.2453491062446327e-09  4.4141885425768766e-09 
 4.5897427954636199e-09  4.7722789158351577e-09  4.9620745753352772e-09  5.1594184887108353e-09 
 5.3646108529999976e-09  5.5779638041871870e-09  5.7998018920194338e-09  6.0304625737064308e-09 
 6.2702967272553021e-09  6.5196691852210041e-09  6.7789592896843035e-09  7.0485614693015722e-09 
 7.3288858393042377e-09  7.6203588253606644e-09  7.9234238122494368e-09  8.2385418183309342e-09 
 8.5661921968431434e-09  8.9068733650886629e-09  9.2611035626220996e-09  9.6294216395913408e-09 
 1.0012387876431949e-08  1.0410584836161658e-08  1.0824618250571652e-08  1.1255117941662669e-08 
 1.1702738779727823e-08  1.2168161679539627e-08  1.2652094636156811e-08  1.3155273801926685e-08 
 1.3678464606321600e-08  1.4222462920313124e-08  1.4788096267055417e-08  1.5376225080719706e-08 
 1.5987744015394998e-08  1.6623583306046454e-08  1.7284710183601908e-08  1.7972130346319570e-08 
 1.8686889489675433e-08  1.9430074897098001e-08  2.0202817093970626e-08  2.1006291567417799e-08 
 2.1841720554492230e-08  2.2710374901483120e-08  2.3613575997174777e-08  2.4552697782996797e-08 
 2.5529168843124390e-08  2.6544474577708837e-08  2.7600159462544645e-08  2.8697829398611579e-08 
 2.9839154155066212e-08  3.1025869909400205e-08  3.2259781888629960e-08  3.3542767115536260e-08 
 3.4876777264132210e-08  3.6263841628703911e-08  3.7706070210940879e-08  3.9205656929853437e-08 
 4.0764882959360326e-08  4.2386120198624288e-08  4.4071834880415316e-08  4.5824591322990564e-08 
 4.7647055831198934e-08  4.9542000752744384e-08  5.1512308695778496e-08  5.3560976914237545e-08 
 5.5691121867594508e-08  5.7905983961961455e-08  6.0208932479753120e-08  6.2603470705409415e-08 
 6.5093241254971820e-08  6.7682031617618789e-08  7.0373779917587428e-08  7.3172580905242747e-08 
 7.6082692186404822e-08  7.9108540699405345e-08  8.2254729449721966e-08  8.5526044512429650e-08 
 8.8927462313115835e-08  9.2464157198328358e-08  9.6141509307065981e-08  9.9965112755278359e-08 
 1.0394078414581814e-07  1.0807457141678249e-07  1.1237276304169603e-07  1.1684189759552146e-07 
 1.2148877370104132e-07  1.2632046037073257e-07  1.3134430775985657e-07  1.3656795834711393e-07 
 1.4199935855986109e-07  1.4764677086156365e-07  1.5351878631986529e-07  1.5962433767438119e-07 
 1.6597271292408506e-07  1.7257356945494954e-07  1.7943694872932008e-07  1.8657329155935794e-07 
 1.9399345398777590e-07  2.0170872380001407e-07  2.0973083769296232e-07  2.1807199912633562e-07 
 2.2674489688384347e-07  2.3576272437237688e-07  2.4513919968855482e-07  2.5488858648314191e-07 
 2.6502571565505998e-07  2.7556600790798003e-07  2.8652549720378298e-07  2.9792085514854749e-07 
 3.0976941634814213e-07  3.2208920477196758e-07  3.3489896116492950e-07  3.4821817154931374e-07 
 3.6206709685989410e-07  3.7646680375732054e-07  3.9143919666663093e-07  4.0700705108958764e-07 
 4.2319404824147754e-07  4.4002481106502500e-07  4.5752494167616196e-07  4.7572106029857245e-07 
 4.9464084574619255e-07  5.1431307751519910e-07  5.3476767954946383e-07  5.5603576574599312e-07 
 5.7814968726951937e-07  6.0114308174815556e-07  6.2505092442488286e-07  6.4990958134261386e-07 
 6.7575686464366570e-07  7.0263209006767793e-07  7.3057613673536963e-07  7.5963150930898253e-07 
 7.8984240262387737e-07  8.2125476888950647e-07  8.5391638756187892e-07  8.8787693799369902e-07 
 9.2318807497257916e-07  9.5990350726210548e-07  9.9807907926510188e-07  1.0377728559331833e-06 
 1.0790452110516014e-06  1.1219589190335310e-06  1.1665792503632627e-06  1.2129740708333068e-06 
 1.2612139447261807e-06  1.3113722420976273e-06  1.3635252503242519e-06  1.4177522900850285e-06 
 1.4741358359528605e-06  1.5327616417793690e-06  1.5937188710633687e-06  1.6571002325010450e-06 
 1.7230021209237025e-06  1.7915247638371494e-06  1.8627723737852557e-06  1.9368533067690757e-06 
 2.0138802269620972e-06  2.0939702779717525e-06  2.1772452609072154e-06  2.2638318195238663e-06 
 2.3538616327255275e-06  2.4474716147167076e-06  2.5448041231087239e-06  2.6460071752955989e-06 
 2.7512346734281861e-06  2.8606466383279883e-06  2.9744094526957142e-06  3.0926961139836541e-06 
 3.2156864973156494e-06  3.3435676288536211e-06  3.4765339700254524e-06  3.6147877130454860e-06 
 3.7585390881759838e-06  3.9080066831956954e-06  4.0634177755601290e-06  4.2250086777574044e-06 
 4.3930250963834566e-06  4.5677225054811987e-06  4.7493665347098133e-06  4.9382333729327585e-06 
 5.1346101878364778e-06  5.3387955622159682e-06  5.5510999475886506e-06  5.7718461358241450e-06 
 6.0013697495048495e-06  6.2400197517604778e-06  6.4881589763492260e-06  6.7461646787888061e-06 
 7.0144291093724139e-06  7.2933601089377629e-06  7.5833817282917189e-06  7.8849348722287886e-06 
 8.1984779691188637e-06  8.5244876670783079e-06  8.8634595577784788e-06  9.2159089289876552e-06 
 9.5823715469856226e-06  9.9634044700353057e-06  1.0359586894142646e-05  1.0771521032384720e-05 
 1.1199833029136647e-05  1.1645173910580533e-05  1.2108220572934387e-05  1.2589676809895797e-05 
 1.3090274380854256e-05  1.3610774121487536e-05  1.4151967098421270e-05  1.4714675809697353e-05 
 1.5299755432865700e-05  1.5908095122585695e-05  1.6540619359698031e-05  1.7198289353805378e-05 
 1.7882104501480497e-05  1.8593103902304363e-05  1.9332367935023697e-05  2.0101019896207779e-05 
 2.0900227703878298e-05  2.1731205668683648e-05  2.2595216335290654e-05  2.3493572396772010e-05 
 2.4427638684877590e-05  2.5398834239191372e-05  2.6408634458294477e-05  2.7458573336177562e-05 
 2.8550245787273946e-05  2.9685310063617591e-05  3.0865490267768193e-05  3.2092578965289295e-05 
 3.3368439900714328e-05  3.4695010821090808e-05  3.6074306411353559e-05  3.7508421345945839e-05 
 3.8999533461280708e-05  4.0549907053816206e-05  4.2161896308705538e-05  4.3837948864178907e-05 
 4.5580609517016517e-05  4.7392524074682925e-05  4.9276443359912884e-05  5.1235227373765080e-05 
 5.3271849623398375e-05  5.5389401621070244e-05  5.7591097561112690e-05  5.9880279181906735e-05 
 6.2260420820152586e-05  6.4735134665019122e-05  6.7308176220054336e-05  6.9983449981048825e-05 
 7.2765015338365071e-05  7.5657092712580652e-05  7.8664069932640561e-05  8.1790508866075499e-05 
 8.5041152311217784e-05  8.8420931161736676e-05  9.1934971854221032e-05  9.5588604109957107e-05 
 9.9387368982488514e-05  1.0333702722299925e-04  1.0744356797603431e-04  1.1171321781856305e-04 
 1.1615245015590216e-04  1.2076799498854520e-04  1.2556684906449739e-04  1.3055628643228844e-04 
 1.3574386941043098e-04  1.4113745998971394e-04  1.4674523168536083e-04  1.5257568185675569e-04 
 1.5863764451313361e-04  1.6494030362435572e-04  1.7149320695664246e-04  1.7830628045391873e-04 
 1.8538984318623922e-04  1.9275462288760625e-04  2.0041177210637317e-04  2.0837288499233730e-04 
 2.1665001474558079e-04  2.2525569175310336e-04  2.3420294244032059e-04  2.4350530886557033e-04 
 2.5317686908688279e-04  2.6323225833142745e-04  2.7368669099925264e-04  2.8455598353419037e-04 
 2.9585657819609701e-04  3.0760556776996512e-04  3.1982072124884587e-04  3.3252051052900036e-04 
 3.4572413815722096e-04  3.5945156617186433e-04  3.7372354608079334e-04  3.8856165002115414e-04 
 4.0398830314772088e-04  4.2002681729840646e-04  4.3670142598750179e-04  4.5403732077923880e-04 
 4.7206068909639610e-04  4.9079875352088043e-04  5.1027981264552497e-04  5.3053328353875229e-04 
 5.5158974588626075e-04  5.7348098787651347e-04  5.9624005389954222e-04  6.1990129413142686e-04 
 6.4450041607980245e-04  6.7007453816883967e-04  6.9666224544540610e-04  7.2430364749150381e-04 
 7.5304043863162675e-04  7.8291596052738617e-04  8.1397526725563232e-04  8.4626519297034935e-04 
 8.7983442225284512e-04  9.1473356325918055e-04  9.5101522377845447e-04  9.8873409032038204e-04 
 1.0279470103557280e-03  1.0687130778384703e-03  1.1110937221441622e-03  1.1551528005648137e-03 
 1.2009566945067546e-03  1.2485744095443742e-03  1.2980776794893900e-03  1.3495410746423775e-03 
 1.4030421144007323e-03  1.4586613844050403e-03  1.5164826584140262e-03  1.5765930251068648e-03 
 1.6390830200206741e-03  1.7040467628405302e-03  1.7715821002693131e-03  1.8417907547152055e-03 
 1.9147784790457235e-03  1.9906552176687307e-03  2.0695352742131508e-03  2.1515374860949055e-03 
 2.2367854062671543e-03  2.3254074924681260e-03  2.4175373042948033e-03  2.5133137084464878e-03 
 2.6128810924988628e-03  2.7163895875866048e-03  2.8239953003910056e-03  2.9358605548483610e-03 
 3.0521541440152642e-03  3.1730515925483490e-03  3.2987354302785295e-03  3.4293954773835424e-03 
 3.5652291416874522e-03  3.7064417286420230e-03  3.8532467645724603e-03  4.0058663337988291e-03 
 4.1645314302750187e-03  4.3294823244189257e-03  4.5009689458410922e-03  4.6792512827140923e-03 
 4.8645997985618510e-03  5.0572958672865410e-03  5.2576322272911381e-03  5.4659134555978322e-03 
 5.6824564629065983e-03  5.9075910105841779e-03  6.1416602506217007e-03  6.3850212896490195e-03 
 6.6380457781457210e-03  6.9011205260426237e-03  7.1746481459633452e-03  7.4590477254131895e-03 
 7.7547555292822902e-03  8.0622257340910788e-03  8.3819311954693807e-03  8.7143642504248272e-03 
 9.0600375560223097e-03  9.4194849661632194e-03  9.7932624482212349e-03  1.0181949041360066e-02 
 1.0586147858427424e-02  1.1006487133388173e-02  1.1443621316327807e-02  1.1898232218124196e-02 
 1.2371030206950731e-02  1.2862755458836422e-02  1.3374179264567717e-02  1.3906105395271623e-02 
 1.4459371529069056e-02  1.5034850741230260e-02  1.5633453060299129e-02  1.6256127092678572e-02 
 1.6903861718183696e-02  1.7577687859071073e-02  1.8278680325038918e-02  1.9007959736662312e-02 
 1.9766694529677536e-02  2.0556103042456742e-02  2.1377455688916150e-02  2.2232077218974782e-02 
 2.3121349068521608e-02  2.4046711800654985e-02  2.5009667639723624e-02  2.6011783099419570e-02 
 2.7054691705845801e-02  2.8140096816099015e-02  2.9269774532466368e-02  3.0445576711827817e-02 
 3.1669434069277448e-02  3.2943359374319865e-02  3.4269450737256915e-02  3.5649894982545768e-02 
 3.7086971104976427e-02  3.8583053803474675e-02  4.0140617086179754e-02  4.1762237939162027e-02 
 4.3450600049728685e-02  4.5208497573702502e-02  4.7038838934339779e-02  4.8944650638668152e-02 
 5.0929081094958237e-02  5.2995404412783602e-02  5.5147024164654272e-02  5.7387477085513276e-02 
 5.9720436683445170e-02  6.2149716731736887e-02  6.4679274608931581e-02  6.7313214449694486e-02 
 7.0055790065138832e-02  7.2911407586698479e-02  7.5884627782644265e-02  7.8980167990881076e-02 
 8.2202903605679695e-02  8.5557869049446997e-02  8.9050258153468412e-02  9.2685423863720251e-02 
 9.6468877179315099e-02  1.0040628522187812e-01  1.0450346832416699e-01  1.0876639601556716e-01 
 1.1320118177080349e-01  1.1781407637644552e-01  1.2261145975776808e-01  1.2759983109657239e-01 
 1.3278579705910692e-01  1.3817605794279963e-01  1.4377739154183727e-01  1.4959663452553890e-01 
 1.5564066112097760e-01  1.6191635889353553e-01  1.6843060142727279e-01  1.7519021772243926e-01 
 1.8220195815142959e-01  1.8947245684811523e-01  1.9700819044965645e-01  2.0481543316504602e-01 
 2.1290020821058359e-01  2.2126823572823170e-01  2.2992487738638187e-01  2.3887507795089916e-01 
 2.4812330420333073e-01  2.5767348166795501e-01  2.6752892968472358e-01  2.7769229542631879e-01 
 2.8816548750111309e-01  2.9894960980855906e-01  3.1004489632124510e-01  3.2145064746333901e-01 
 3.3316516874578439e-01  3.4518571231307110e-01  3.5750842206281558e-01  3.7012828302357303e-01 
 3.8303907572022866e-01  3.9623333631726554e-01  4.0970232340072071e-01  4.2343599232784768e-01 
 4.3742297812353259e-01  4.5165058791462392e-01  4.6610480384357789e-01  4.8077029726283693e-01 
 4.9563045474921752e-01  5.1066741606131694e-01  5.2586212356892836e-01  5.4119438191068547e-01 
 5.5664292572700480e-01  5.7218549237768179e-01  5.8779889577401678e-01  6.0345909708920542e-01 
 6.1914126843015682e-01  6.3481984675281899e-01  6.5046857738019059e-01  6.6606054915461033e-01 
 6.8156822596782096e-01  6.9696348147128651e-01  7.1221764457706194e-01  7.2730156312313066e-01 
 7.4218569299803405e-01  7.5684019569423000e-01  7.7123508284314757e-01  7.8534036596973089e-01 
 7.9912622130414690e-01  8.1256316246289895e-01  8.2562221417877568e-01  8.3827508173590859e-01 
 8.5049431196922998e-01  8.6225344291432227e-01  8.7352714030075451e-01  8.8429131997391786e-01 
 8.9452325598260995e-01  9.0420167450367372e-01  9.1330683403499757e-01  9.2182059242338310e-01 
 9.2972646134829040e-01  9.3700964889072613e-01  9.4365709080266513e-01  9.4965747107156273e-01 
 9.5500123235518797e-01  9.5968057684786490e-01  9.6368945813128981e-01  9.6702356456067962e-01 
 9.6968029473873807e-01  9.7165872563424593e-01  9.7295957390781906e-01  9.7358515101315246e-01 
 9.7353931264729388e-01  9.7282740312672877e-01  9.7145619526714866e-01  9.6943382634446851e-01 
 9.6676973071153927e-01  9.6347456963720013e-01  9.5956015892366364e-01  9.5503939484706146e-01 
 9.4992617894859632e-01  9.4423534218196969e-01  9.3798256889912124e-01  9.3118432113154381e-01 
 9.2385776359082172e-01  9.1602068977388151e-01  9.0769144953103820e-01  8.9888887841452836e-01 
 8.8963222908076689e-01  8.7994110498304212e-01  8.6983539655062592e-01  8.5933522001076035e-01 
 8.4846085897207946e-01  8.3723270885215617e-01  8.2567122419867345e-01  8.1379686892353986e-01 
 8.0163006944249249e-01  7.8919117068942257e-01  7.7650039495467582e-01  7.6357780307234646e-01 
 7.5044325992165106e-01  7.3711640007333534e-01  7.2361659755711105e-01  7.0996293761713647e-01 
 6.9617419076079035e-01  6.8226878900085353e-01  6.6826480418610923e-01  6.5417992832098004e-01 
 6.4003145577650888e-01  6.2583626729763242e-01  6.1161081571446396e-01  5.9737111326808423e-01 
 5.8313272046416864e-01  5.6891073637041711e-01  5.5471979027621288e-01  5.4057403463522902e-01 
 5.2648713921387758e-01  5.1247228637058373e-01  4.9854216739290536e-01  4.8470897982156191e-01 
 4.7098442569256072e-01  4.5737971063082328e-01  4.4390554373107416e-01  4.3057213816427192e-01 
 4.1738921245057031e-01  4.0436599234268006e-01  3.9151121326660193e-01  3.7883312326998958e-01 
 3.6633948643188202e-01  3.5403758669120566e-01  3.4193423205531737e-01  3.3003575915388628e-01 
 3.1834803810765072e-01  3.0687647768598653e-01  2.9562603073181570e-01  2.8460119983715637e-01 
 2.7380604325752900e-01  2.6324418105842423e-01  2.5291880149220691e-01  2.4283266760897557e-01 
 2.3298812410994485e-01  2.2338710445678048e-01  2.1403113825485964e-01  2.0492135893241625e-01 
 1.9605851174147398e-01  1.8744296210812056e-01  1.7907470436129819e-01  1.7095337087097320e-01 
 1.6307824162440565e-01  1.5544825426715975e-01  1.4806201463198904e-01  1.4091780777360069e-01 
 1.3401360952093536e-01  1.2734709855112522e-01  1.2091566898091981e-01  1.1471644346236380e-01 
 1.0874628676018951e-01  1.0300181977905949e-01  9.7479433999795348e-02  9.2175306275376248e-02 
 8.7085413929926359e-02  8.2205550097629684e-02  7.7531339233684826e-02  7.3058252725505327e-02 
 6.8781624530247124e-02  6.4696666764321550e-02  6.0798485171176225e-02  5.7082094395793988e-02 
 5.3542432997325702e-02  5.0174378135819007e-02  4.6972759874658723e-02  4.3932375045204045e-02 
 4.1048000626534804e-02  3.8314406600348426e-02  3.5726368247315378e-02  3.3278677857910603e-02 
 3.0966155837220167e-02  2.8783661189397947e-02  2.6726101373227205e-02  2.4788441525542902e-02 
 2.2965713054029214e-02  2.1253021605078169e-02  1.9645554415952698e-02  1.8138587063431029e-02 
 1.6727489623429480e-02  1.5407732257828800e-02  1.4174890245907278e-02  1.3024648478463508e-02 
 1.1952805432957765e-02  1.0955276647886997e-02  1.0028097714214335e-02  9.1674268010812649e-03 
 8.3695467323225206e-03  7.6308666295566985e-03  6.9479231369114630e-03  6.3173812418210306e-03 
 5.7360347058548391e-03  5.2008061192346895e-03  4.7087465925950700e-03  4.2570350996448351e-03 
 3.8429774846924876e-03  3.4640051494847588e-03  3.1176734344523687e-03  2.8016597102233968e-03 
 2.5137611961147137e-03  2.2518925232036333e-03  2.0140830604730279e-03  1.7984740233731901e-03 
 1.6033153849151201e-03  1.4269626100695966e-03  1.2678732347668968e-03  1.1246033111513469e-03 
 9.9580374092758726e-04  8.8021651863194280e-04  7.7667090646893586e-04  6.8407956197147238e-04 
 6.0143463918006334e-04  5.2780388330223862e-04  4.6232673792209674e-04  4.0421048279846105e-04 
 3.5272641913709161e-04  3.0720611796789861e-04  2.6703774592289103e-04  2.3166248131559805e-04 
 2.0057103198855691e-04  1.7330026494205772e-04  1.4942995630350611e-04  1.2857966875998969e-04 
 1.1040576217286384e-04  9.4598541736627554e-05  8.0879546747488601e-05  6.8998981820394550e-05 
 5.8733291245662951e-05  4.9882876114573001e-05  4.2269952872499042e-05  3.5736551081808555e-05 
 3.0142647396654274e-05  2.5364432068346561e-05  2.1292703712246426e-05  1.7831387572935340e-05 
 1.4896172120613621e-05  1.2413258494183848e-05  1.0318217070471380e-05  8.5549452791055416e-06 
 7.0747206928581828e-06  5.8353433975102345e-06  4.8003616771929266e-06  3.9383751341409531e-06 
 3.2224094894348530e-06  2.6293574772448721e-06  2.1394804431594843e-06  1.7359654814935604e-06 
 1.4045331914516861e-06  1.1330913924680817e-06  9.1143041015752130e-07  7.3095582172265771e-07 
 5.8445482944795699e-07  4.6589270959543089e-07  3.7023605857747377e-07  2.9329982613152094e-07 
 2.3161538419779142e-07  1.8231712854583176e-07  1.4304534652665203e-07  1.1186330761331267e-07 
 8.7186742921399809e-08  6.7724075246327477e-08  5.2425942145468099e-08  4.0442721279679030e-08 
 3.1088919849954985e-08  2.3813428917856039e-08  1.8174769208817075e-08  1.3820568292298002e-08 
 1.0470610514598011e-08  7.9028914845055024e-09  5.9421890666306881e-09  4.4507335246532536e-09 
 3.3206214783227896e-09  2.4676724816032852e-09  1.8264740582071734e-09  1.3464016754874418e-09 
 9.8843508963411692e-10  7.2262240197881121e-10  5.2606862884727824e-10  3.8134715843842672e-10 
 2.7525065165537241e-10  1.9781319573833532e-10  1.4154824960253318e-10  1.0085749341076129e-10 
 7.1574436113801201e-11  5.0613829270661988e-11  3.5703834668683857e-11  0.0000000000000000e+00 
 0.0000000000000000e+00  0.0000000000000000e+00  0.0000000000000000e+00  0.0000000000000000e+00 
 0.0000000000000000e+00  0.0000000000000000e+00  0.0000000000000000e+00  0.0000000000000000e+00 
 0.0000000000000000e+00  0.0000000000000000e+00  0.0000000000000000e+00  0.0000000000000000e+00 
 0.0000000000000000e+00  0.0000000000000000e+00  0.0000000000000000e+00  0.0000000000000000e+00 
 0.0000000000000000e+00  0.0000000000000000e+00  0.0000000000000000e+00  0.0000000000000000e+00 
 0.0000000000000000e+00  0.0000000000000000e+00  0.0000000000000000e+00  0.0000000000000000e+00 
 0.0000000000000000e+00  0.0000000000000000e+00  0.0000000000000000e+00  0.0000000000000000e+00 
 0.0000000000000000e+00  0.0000000000000000e+00  0.0000000000000000e+00  0.0000000000000000e+00 
 0.0000000000000000e+00  0.0000000000000000e+00  0.0000000000000000e+00  0.0000000000000000e+00 
 0.0000000000000000e+00  0.0000000000000000e+00  0.0000000000000000e+00  0.0000000000000000e+00 
 0.0000000000000000e+00  0.0000000000000000e+00  0.0000000000000000e+00  0.0000000000000000e+00 
 0.0000000000000000e+00  0.0000000000000000e+00  0.0000000000000000e+00  0.0000000000000000e+00 
 0.0000000000000000e+00  0.0000000000000000e+00  0.0000000000000000e+00  0.0000000000000000e+00 
 0.0000000000000000e+00  0.0000000000000000e+00  0.0000000000000000e+00  0.0000000000000000e+00 
 0.0000000000000000e+00  0.0000000000000000e+00  0.0000000000000000e+00  0.0000000000000000e+00 
 0.0000000000000000e+00  0.0000000000000000e+00  0.0000000000000000e+00  0.0000000000000000e+00 
 0.0000000000000000e+00  0.0000000000000000e+00  0.0000000000000000e+00  0.0000000000000000e+00 
 0.0000000000000000e+00  0.0000000000000000e+00  0.0000000000000000e+00  0.0000000000000000e+00 
 0.0000000000000000e+00  0.0000000000000000e+00  0.0000000000000000e+00  0.0000000000000000e+00 
 0.0000000000000000e+00  0.0000000000000000e+00  0.0000000000000000e+00  0.0000000000000000e+00 
 0.0000000000000000e+00  0.0000000000000000e+00  0.0000000000000000e+00  0.0000000000000000e+00 
 0.0000000000000000e+00  0.0000000000000000e+00  0.0000000000000000e+00  0.0000000000000000e+00 
 0.0000000000000000e+00  0.0000000000000000e+00  0.0000000000000000e+00  0.0000000000000000e+00 
 0.0000000000000000e+00  0.0000000000000000e+00  0.0000000000000000e+00  0.0000000000000000e+00 
 0.0000000000000000e+00  0.0000000000000000e+00  0.0000000000000000e+00  0.0000000000000000e+00 
 0.0000000000000000e+00  0.0000000000000000e+00  0.0000000000000000e+00  0.0000000000000000e+00 
 0.0000000000000000e+00  0.0000000000000000e+00  0.0000000000000000e+00  0.0000000000000000e+00 
 0.0000000000000000e+00  0.0000000000000000e+00  0.0000000000000000e+00  0.0000000000000000e+00 
 0.0000000000000000e+00  0.0000000000000000e+00  0.0000000000000000e+00  0.0000000000000000e+00 
 0.0000000000000000e+00  0.0000000000000000e+00  0.0000000000000000e+00  0.0000000000000000e+00 
 0.0000000000000000e+00  0.0000000000000000e+00  0.0000000000000000e+00  0.0000000000000000e+00 
 0.0000000000000000e+00  0.0000000000000000e+00  0.0000000000000000e+00  0.0000000000000000e+00 
 0.0000000000000000e+00  0.0000000000000000e+00  0.0000000000000000e+00  0.0000000000000000e+00 
 0.0000000000000000e+00  0.0000000000000000e+00  0.0000000000000000e+00  0.0000000000000000e+00 
 0.0000000000000000e+00  0.0000000000000000e+00  0.0000000000000000e+00  0.0000000000000000e+00 
 0.0000000000000000e+00 
D    2   5.70          Wavefunction
 2.1064918507242616e-14  2.1902680504091522e-14  2.2773760700831294e-14  2.3679484178386405e-14 
 2.4621228716790639e-14  2.5600426891056136e-14  2.6618568250396205e-14  2.7677201584116848e-14 
 2.8777937277623860e-14  2.9922449762129597e-14  3.1112480061785556e-14  3.2349838442115883e-14 
 3.3636407163780176e-14  3.4974143345854872e-14  3.6365081942988665e-14  3.7811338840960887e-14 
 3.9315114075351684e-14  4.0878695178220276e-14  4.2504460657882328e-14  4.4194883617079542e-14 
 4.5952535515045802e-14  4.7780090079192417e-14  4.9680327372362991e-14  5.1656138021844996e-14 
 5.3710527616571152e-14  5.5846621279199634e-14  5.8067668420028234e-14  6.0377047679973739e-14 
 6.2778272070136267e-14  6.5274994315766360e-14  6.7871012412764337e-14  7.0570275405164266e-14 
 7.3376889392391314e-14  7.6295123775430569e-14  7.9329417751408982e-14  8.2484387066470194e-14 
 8.5764831037214090e-14  8.9175739851382747e-14  9.2722302158897977e-14  9.6409912964798236e-14 
 1.0024418183608131e-13  1.0423094143493724e-13  1.0837625639135197e-13  1.1268643252857872e-13 
 1.1716802645551084e-13  1.2182785554054798e-13  1.2667300828212768e-13  1.3171085509169821e-13 
 1.3694905950553500e-13  1.4239558984245708e-13  1.4805873132517592e-13  1.5394709868371652e-13 
 1.6006964926008257e-13  1.6643569663410049e-13  1.7305492479116983e-13  1.7993740285347178e-13 
 1.8709360039704558e-13  1.9453440337803154e-13  2.0227113069230919e-13  2.1031555139372008e-13 
 2.1867990259706707e-13  2.2737690809312548e-13  2.3641979770398169e-13  2.4582232740814237e-13 
 2.5559880026603041e-13  2.6576408817769665e-13  2.7633365450584695e-13  2.8732357759859776e-13 
 2.9875057524774311e-13  3.1063203011973854e-13  3.2298601619808823e-13  3.3583132627735725e-13 
 3.4918750055063538e-13  3.6307485633393744e-13  3.7751451897275757e-13  3.9252845397779187e-13 
 4.0813950043871433e-13  4.2437140576683513e-13  4.4124886181949098e-13  4.5879754246111964e-13 
 4.7704414261815674e-13  4.9601641888716435e-13  5.1574323175796597e-13  5.3625458951601281e-13 
 5.5758169389077277e-13  5.7975698751957316e-13  6.0281420329910661e-13  6.2678841569966900e-13 
 6.5171609412019012e-13  6.7763515836521862e-13  7.0458503632825312e-13  7.3260672396916976e-13 
 7.6174284767697692e-13  7.9203772911277152e-13  8.2353745263152637e-13  8.5628993538527777e-13 
 8.9034500021434901e-13  9.2575445143749441e-13  9.6257215365625103e-13  1.0008541136933820e-12 
 1.0406585657900462e-12  1.0820460601913047e-12  1.1250795552547123e-12  1.1698245132221151e-12 
 1.2163489998003348e-12  1.2647237877022294e-12  1.3150224643056260e-12  1.3673215435939098e-12 
 1.4217005825485328e-12  1.4782423021705194e-12  1.5370327133150481e-12  1.5981612475305400e-12 
 1.6617208931012776e-12  1.7278083365005040e-12  1.7965241094691852e-12  1.8679727419441560e-12 
 1.9422629210683014e-12  2.0195076565246423e-12  2.0998244524458434e-12  2.1833354861606384e-12 
 2.2701677940490920e-12  2.3604534647894106e-12  2.4543298402902785e-12  2.5519397246143577e-12 
 2.6534316012107893e-12  2.7589598587871264e-12  2.8686850261643043e-12  2.9827740164719098e-12 
 3.1014003810552076e-12  3.2247445734801740e-12  3.3529942240381394e-12  3.4863444251676071e-12 
 3.6249980282274383e-12  3.7691659520728503e-12  3.9190675039036276e-12  4.0749307128726169e-12 
 4.2369926769620001e-12  4.4054999236549972e-12  4.5807087849516531e-12  4.7628857872991927e-12 
 4.9523080570300788e-12  5.1492637419245446e-12  5.3540524495388698e-12  5.5669857029661774e-12 
 5.7883874147230595e-12  6.0185943794828950e-12  6.2579567864054170e-12  6.5068387518418560e-12 
 6.7656188732260447e-12  7.0346908049940083e-12  7.3144638574081764e-12  7.6053636191970969e-12 
 7.9078326049578582e-12  8.2223309283059767e-12  8.5493370017968131e-12  8.8893482646831729e-12 
 9.2428819396161657e-12  9.6104758194404614e-12  9.9926890852807142e-12  1.0390103157163711e-11 
 1.0803322578470136e-11  1.1232975935561443e-11  1.1679716813980688e-11  1.2144224792681930e-11 
 1.2627206477800633e-11  1.3129396577537561e-11  1.3651559019791364e-11  1.4194488114239910e-11 
 1.4759009760638142e-11  1.5345982705170533e-11  1.5956299846769253e-11  1.6590889595385231e-11 
 1.7250717284278304e-11  1.7936786638474815e-11  1.8650141301626433e-11  1.9391866423592922e-11 
 2.0163090311163777e-11  2.0964986144429845e-11  2.1798773761415887e-11  2.2665721513688737e-11 
 2.3567148195763983e-11  2.4504425051245966e-11  2.5478977858752933e-11  2.6492289100800378e-11 
 2.7545900218942025e-11  2.8641413958598615e-11  2.9780496807141795e-11  3.0964881528941666e-11 
 3.2196369801234367e-11  3.3476834954819342e-11  3.4808224823755435e-11  3.6192564708390685e-11 
 3.7631960456233203e-11  3.9128601665349742e-11  4.0684765015164896e-11  4.2302817729727663e-11 
 4.3985221178713873e-11  4.5734534621641927e-11  4.7553419100997973e-11  4.9444641490192242e-11 
 5.1411078702504612e-11  5.3455722067421774e-11  5.5581681881023425e-11  5.7792192137339356e-11 
 6.0090615447874767e-11  6.2480448156787329e-11  6.4965325659497278e-11  6.7549027932820898e-11 
 7.0235485285040086e-11  7.3028784334654685e-11  7.5933174226912431e-11  7.8953073097573417e-11 
 8.2093074793740985e-11  8.5357955861983402e-11  8.8752682814376064e-11  9.2282419683517613e-11 
 9.5952535878012333e-11  9.9768614350368707e-11  1.0373646008973874e-10  1.0786210895241739e-10 
 1.1215183684353518e-10  1.1661216926391009e-10  1.2124989123658277e-10  1.2607205762813392e-10 
 1.3108600388048497e-10  1.3629935716950765e-10  1.4172004800741581e-10  1.4735632230658967e-10 
 1.5321675392318353e-10  1.5931025769959845e-10  1.6564610302565929e-10  1.7223392793912582e-10 
 1.7908375378698727e-10  1.8620600046984261e-10  1.9361150229255674e-10  2.0131152444530356e-10 
 2.0931778014006739e-10  2.1764244842867017e-10  2.2629819272942914e-10  2.3529818009062768e-10 
 2.4465610122010186e-10  2.5438619131141284e-10  2.6450325169828350e-10  2.7502267237024283e-10 
 2.8596045538372477e-10  2.9733323920423768e-10  3.0915832401663045e-10  3.2145369804195984e-10 
 3.3423806490098885e-10  3.4753087206594302e-10  3.6135234044380507e-10  3.7572349513614863e-10 
 3.9066619742230290e-10  4.0620317801450080e-10  4.2235807163559825e-10  4.3915545297196141e-10 
 4.5662087405621778e-10  4.7478090313673161e-10  4.9366316509293495e-10  5.1329638345799410e-10 
 5.3371042411273158e-10  5.5493634071727703e-10  5.7700642194955028e-10  5.9995424062244054e-10 
 6.2381470475439489e-10  6.4862411067110661e-10  6.7442019821907890e-10  7.0124220817505735e-10 
 7.2913094193865772e-10  7.5812882359899756e-10  7.8827996446974242e-10  8.1963023019074039e-10 
 8.5222731049831684e-10  8.8612079177036270e-10  9.2136223245657176e-10  9.5800524150857124e-10 
 9.9610555992924551e-10  1.0357211455653108e-09  1.0769122612721172e-09  1.1197415665847971e-09 
 1.1642742130351973e-09  1.2105779432595928e-09  1.2587231940479300e-09  1.3087832034913591e-09 
 1.3608341223910271e-09  1.4149551300976084e-09  1.4712285549577660e-09  1.5297399995507579e-09 
 1.5905784709056899e-09  1.6538365158974794e-09  1.7196103620274906e-09  1.7880000638031321e-09 
 1.8591096549400999e-09  1.9330473066175723e-09  2.0099254920267706e-09  2.0898611574636300e-09 
 2.1729759002258919e-09  2.2593961535852356e-09  2.3492533791158259e-09  2.4426842666718383e-09 
 2.5398309423181794e-09  2.6408411845307023e-09  2.7458686489947830e-09  2.8550731023442500e-09 
 2.9686206651962089e-09  3.0866840648514683e-09  3.2094428980449943e-09  3.3370839041460648e-09 
 3.4698012492237337e-09  3.6077968214097294e-09  3.7512805380080914e-09  3.9004706648187120e-09 
 4.0555941481605891e-09  4.2168869600998060e-09  4.3845944574074585e-09  4.5589717547935685e-09 
 4.7402841129847497e-09  4.9288073422360046e-09  5.1248282218904732e-09  5.3286449366253823e-09 
 5.5405675300478561e-09  5.7609183763306088e-09  5.9900326706049928e-09  6.2282589388574398e-09 
 6.4759595681049553e-09  6.7335113576562455e-09  7.0013060922970709e-09  7.2797511382718360e-09 
 7.5692700629680520e-09  7.8703032792464101e-09  8.1833087153967283e-09  8.5087625117389277e-09 
 8.8471597449288487e-09  9.1990151810707940e-09  9.5648640587825625e-09  9.9452629034042719e-09 
 1.0340790373589725e-08  1.0752048141568254e-08  1.1179661808416274e-08  1.1624281855731094e-08 
 1.2086584635154768e-08  1.2567273397253564e-08  1.3067079361318354e-08  1.3586762827713590e-08 
 1.4127114334467279e-08  1.4688955859861576e-08  1.5273142072853829e-08  1.5880561633230394e-08 
 1.6512138543471612e-08  1.7168833554384622e-08  1.7851645626642779e-08  1.8561613450455424e-08 
 1.9299817025680195e-08  2.0067379304782074e-08  2.0865467901138969e-08  2.1695296865293050e-08 
 2.2558128531850489e-08  2.3455275439839727e-08  2.4388102329450056e-08  2.5358028218188660e-08 
 2.6366528559615010e-08  2.7415137487937004e-08  2.8505450151883900e-08  2.9639125141407163e-08 
 3.0817887010901094e-08  3.2043528902782182e-08  3.3317915275418530e-08  3.4642984739559537e-08 
 3.6020753007580819e-08  3.7453315960030937e-08  3.8942852834144936e-08  4.0491629539174720e-08 
 4.2102002103579394e-08  4.3776420259318934e-08  4.5517431168702723e-08  4.7327683299461517e-08 
 4.9209930453936067e-08  5.1167035958510211e-08  5.3201977019659494e-08  5.5317849253239506e-08 
 5.7517871393901351e-08  5.9805390191795282e-08  6.2183885504008178e-08  6.4656975588476057e-08 
 6.7228422608421179e-08  6.9902138355682221e-08  7.2682190201639637e-08  7.5572807284783262e-08 
 7.8578386944330128e-08  8.1703501409672929e-08  8.4952904755830080e-08  8.8331540135471444e-08 
 9.1844547298515319e-08  9.5497270410729782e-08  9.9295266183225167e-08  1.0324431232519907e-07 
 1.0735041633278460e-07  1.1161982462736497e-07  1.1605903205725027e-07  1.2067479177716392e-07 
 1.2547412552056123e-07  1.3046433428040011e-07  1.3565300941460485e-07  1.4104804419310989e-07 
 1.4665764580404240e-07  1.5249034783730168e-07  1.5855502326451710e-07  1.6486089793512327e-07 
 1.7141756460907414e-07  1.7823499754753453e-07  1.8532356768373491e-07  1.9269405839705883e-07 
 2.0035768191434865e-07  2.0832609636337021e-07  2.1661142350436254e-07  2.2522626716663340e-07 
 2.3418373241823552e-07  2.4349744549786794e-07  2.5318157453930878e-07  2.6325085111988708e-07 
 2.7372059266575675e-07  2.8460672574803569e-07  2.9592581030522771e-07  3.0769506482875310e-07 
 3.1993239254987635e-07  3.3265640866784292e-07  3.4588646866061797e-07  3.5964269772126539e-07 
 3.7394602136471746e-07  3.8881819725146352e-07  4.0428184827653339e-07  4.2036049697407766e-07 
 4.3707860128984409e-07  4.5446159177592846e-07  4.7253591026434051e-07  4.9132905007817033e-07 
 5.1086959784148233e-07  5.3118727695148407e-07  5.5231299277905675e-07  5.7427887966634567e-07 
 5.9711834979285040e-07  6.2086614398428771e-07  6.4555838454145515e-07  6.7123263016938946e-07 
 6.9792793309030856e-07  7.2568489842713887e-07  7.5454574594788266e-07  7.8455437426466778e-07 
 8.1575642758504291e-07  8.4819936511696997e-07  8.8193253323298588e-07  9.1700724050320086e-07 
 9.5347683571116081e-07  9.9139678897112321e-07  1.0308247760700134e-06  1.0718207661622197e-06 
 1.1144471129504833e-06  1.1587686494914215e-06  1.2048527867697373e-06  1.2527696161908835e-06 
 1.3025920161478990e-06  1.3543957628243200e-06  1.4082596454015006e-06  1.4642655858453593e-06 
 1.5224987634545165e-06  1.5830477443590254e-06  1.6460046161663954e-06  1.7114651279594229e-06 
 1.7795288358584797e-06  1.8502992543693235e-06  1.9238840137462985e-06  2.0003950236099063e-06 
 2.0799486430672118e-06  2.1626658575934179e-06  2.2486724629432102e-06  2.3380992563710940e-06 
 2.4310822354510776e-06  2.5277628047975458e-06  2.6282879910011601e-06  2.7328106661060742e-06 
 2.8414897799677031e-06  2.9544906018437439e-06  3.0719849715851339e-06  3.1941515608082048e-06 
 3.3211761444443839e-06  3.4532518830795479e-06  3.5905796165114624e-06  3.7333681689707462e-06 
 3.8818346664684787e-06  4.0362048667519027e-06  4.1967135023688168e-06  4.3636046373610552e-06 
 4.5371320381281592e-06  4.7175595590237033e-06  4.9051615432691456e-06  5.1002232397931905e-06 
 5.3030412366287881e-06  5.5139239115249468e-06  5.7331919004565815e-06  5.9611785847427310e-06 
 6.1982305975115665e-06  6.4447083502799947e-06  6.7009865804459382e-06  6.9674549205231425e-06 
 7.2445184899811355e-06  7.5325985105872340e-06  7.8321329461829276e-06  8.1435771678640135e-06 
 8.4674046455721414e-06  8.8041076671454433e-06  9.1541980859173732e-06  9.5182080979959589e-06 
 9.8966910504006169e-06  1.0290222281280203e-05  1.0699399993484443e-05  1.1124846162811291e-05 
 1.1567207482305030e-05  1.2027156344034444e-05  1.2505391859836881e-05  1.3002640922572935e-05 
 1.3519659309497433e-05  1.4057232829416130e-05  1.4616178515363440e-05  1.5197345864605272e-05 
 1.5801618127842307e-05  1.6429913649563298e-05  1.7083187261575118e-05  1.7762431731816286e-05 
 1.8468679270644249e-05  1.9203003096873000e-05  1.9966519065927933e-05  2.0760387362578148e-05 
 2.1585814260803881e-05  2.2444053953457679e-05  2.3336410454483090e-05  2.4264239576563981e-05 
 2.5228950987190735e-05  2.6232010346248302e-05  2.7274941528352892e-05  2.8359328933292409e-05 
 2.9486819888057581e-05  3.0659127144089215e-05  3.1878031473509463e-05  3.3145384368254485e-05 
 3.4463110846180235e-05  3.5833212368374026e-05  3.7257769872072017e-05  3.8738946923755892e-05 
 4.0278992997183350e-05  4.1880246881294432e-05  4.3545140223130922e-05  4.5276201211109174e-05 
 4.7076058404197366e-05  4.8947444712767802e-05  5.0893201537122408e-05  5.2916283069927070e-05 
 5.5019760769036183e-05  5.7206828007445426e-05  5.9480804907376576e-05  6.1845143365775525e-05 
 6.4303432278791658e-05  6.6859402973106765e-05  6.9516934852291963e-05  7.2280061266695241e-05 
 7.5152975615697999e-05  7.8140037691528942e-05  8.1245780274187017e-05  8.4474915987403404e-05 
 8.7832344425965730e-05  9.1323159565136406e-05  9.4952657463322494e-05  9.8726344269596476e-05 
 1.0264994454812714e-04  1.0672940993205965e-04  1.1097092811987889e-04  1.1538093222781083e-04 
 1.1996611051235324e-04  1.2473341647758836e-04  1.2969007938251311e-04  1.3484361516422831e-04 
 1.4020183779346165e-04  1.4577287107955320e-04  1.5156516094271978e-04  1.5758748817212227e-04 
 1.6384898168900460e-04  1.7035913233494213e-04  1.7712780720604147e-04  1.8416526455476980e-04 
 1.9148216928196305e-04  1.9908960904246973e-04  2.0699911098883133e-04  2.1522265917838694e-04 
 2.2377271267021363e-04  2.3266222433938386e-04  2.4190466043713777e-04  2.5151402092672719e-04 
 2.6150486062590124e-04  2.7189231118826605e-04  2.8269210395707084e-04  2.9392059372634199e-04 
 3.0559478344572926e-04  3.1773234990691587e-04  3.3035167045101458e-04  3.4347185073799842e-04 
 3.5711275362092075e-04  3.7129502916945797e-04  3.8604014588916830e-04  4.0137042318480275e-04 
 4.1730906511803568e-04  4.3388019551210812e-04  4.5110889445809448e-04  4.6902123627983220e-04 
 4.8764432901698382e-04  5.0700635548824545e-04  5.2713661599938560e-04  5.4806557276358703e-04 
 5.6982489610449163e-04  5.9244751251541646e-04  6.1596765465141970e-04  6.4042091333427306e-04 
 6.6584429165393133e-04  6.9227626125379672e-04  7.1975682089099114e-04  7.4832755736691729e-04 
 7.7803170892771058e-04  8.0891423123869105e-04  8.4102186604168266e-04  8.7440321260905216e-04 
 9.0910880211359088e-04  9.4519117503887398e-04  9.8270496176057444e-04  1.0217069664353250e-03 
 1.0622562543401821e-03  1.1044142428125619e-03  1.1482447959476755e-03  1.1938143232180724e-03 
 1.2411918821878627e-03  1.2904492855026213e-03  1.3416612123448488e-03  1.3949053245542447e-03 
 1.4502623876219659e-03  1.5078163967784696e-03  1.5676547084056212e-03  1.6298681770154043e-03 
 1.6945512980499175e-03  1.7618023567703743e-03  1.8317235835166351e-03  1.9044213156333453e-03 
 1.9800061663742203e-03  2.0585932011122840e-03  2.1403021212011430e-03  2.2252574558506324e-03 
 2.3135887623994384e-03  2.4054308353877694e-03  2.5009239248547015e-03  2.6002139643077115e-03 
 2.7034528088360414e-03  2.8107984838650979e-03  2.9224154450761698e-03  3.0384748500441924e-03 
 3.1591548421766101e-03  3.2846408475682011e-03  3.4151258854204923e-03  3.5508108927099218e-03 
 3.6919050638265579e-03  3.8386262059447286e-03  3.9912011109288232e-03  4.1498659446215147e-03 
 4.3148666544081437e-03  4.4864593959998370e-03  4.6649109804294099e-03  4.8504993423081032e-03 
 5.0435140304480501e-03  5.2442567220149410e-03  5.4530417614378204e-03  5.6701967253683892e-03 
 5.8960630150506942e-03  6.1309964775334612e-03  6.3753680572320543e-03  6.6295644794246867e-03 
 6.8939889673483405e-03  7.1690619946437233e-03  7.4552220749855127e-03  7.7529265908239864e-03 
 8.0626526632567481e-03  8.3848980651445790e-03  8.7201821796831676e-03  9.0690470067422806e-03 
 9.4320582193857510e-03  9.8098062730886358e-03  1.0202907570272162e-02  1.0612005682881346e-02 
 1.1037772635834565e-02  1.1480910254277308e-02  1.1942151577673780e-02  1.2422262343868036e-02 
 1.2922042546340660e-02  1.3442328067975573e-02  1.3983992394733307e-02  1.4547948412700054e-02 
 1.5135150292044373e-02  1.5746595461462974e-02  1.6383326676731792e-02  1.7046434186995162e-02 
 1.7737058002422063e-02  1.8456390266830290e-02  1.9205677738823701e-02  1.9986224384900414e-02 
 2.0799394087866237e-02  2.1646613473723573e-02  2.2529374859995416e-02  2.3449239328181964e-02 
 2.4407839922727360e-02  2.5406884978488274e-02  2.6448161578239524e-02  2.7533539141213707e-02 
 2.8664973143046068e-02  2.9844508966770756e-02  3.1074285883682228e-02  3.2356541161923200e-02 
 3.3693614299577380e-02  3.5087951377817735e-02  3.6542109528275447e-02  3.8058761507235833e-02 
 3.9640700367517351e-02  4.1290844216931952e-02  4.3012241050036377e-02  4.4808073637444233e-02 
 4.6681664454250718e-02  4.8636480626098273e-02  5.0676138868051557e-02  5.2804410387715502e-02 
 5.5025225719886918e-02  5.7342679455429015e-02  5.9761034821954058e-02  6.2284728068241556e-02 
 6.4918372598046545e-02  6.7666762792012572e-02  7.0534877448731229e-02  7.3527882767531000e-02 
 7.6651134786278760e-02  7.9910181177296563e-02  8.3310762293413262e-02  8.6858811344188269e-02 
 9.0560453569507510e-02  9.4422004264154716e-02  9.8449965492763344e-02  1.0265102132000332e-01 
 1.0703203136629501e-01  1.1160002248522684e-01  1.1636217834578400e-01  1.2132582669119414e-01 
 1.2649842403755029e-01  1.3188753757039107e-01  1.3750082399724334e-01  1.4334600511998338e-01 
 1.4943083990398873e-01  1.5576309284262724e-01  1.6235049844666830e-01  1.6920072172941031e-01 
 1.7632131460991943e-01  1.8371966821833655e-01  1.9140296115749092e-01  1.9937810385189658e-01 
 2.0765167919552149e-01  2.1622987978967734e-01  2.2511844213778007e-01  2.3432257823058028e-01 
 2.4384690501078382e-01  2.5369537224853489e-01  2.6387118939020310e-01  2.7437675196605227e-01 
 2.8521356816363469e-01  2.9638218620028511e-01  3.0788212316673591e-01  3.1971179606958255e-01 
 3.3186845587481328e-01  3.4434812544551691e-01  3.5714554236759610e-01  3.7025410775713069e-01 
 3.8366584222740613e-01  3.9737135024412790e-01  4.1135979409128359e-01  4.2561887858026942e-01 
 4.4013484743010184e-01  4.5489249189481668e-01  4.6987517169018178e-01  4.8506484757006818e-01 
 5.0044212405669897e-01  5.1598629993219680e-01  5.3167542331932871e-01  5.4748634775184202e-01 
 5.6339478581622682e-01  5.7937535792961203e-01  5.9540163562168902e-01  6.1144618107266602e-01 
 6.2748058712676169e-01  6.4347552391433349e-01  6.5940079900827009e-01  6.7522543787768030e-01 
 6.9091779136823805e-01  7.0644565435235085e-01  7.2177643123489765e-01  7.3687730934531603e-01 
 7.5171544900194631e-01  7.6625818310266247e-01  7.8047321931057423e-01  7.9432883918437680e-01 
 8.0779408966723998e-01  8.2083896347252638e-01  8.3343456595190624e-01  8.4555326690656984e-01 
 8.5716883647589792e-01  8.6825656472429358e-01  8.7879336488208259e-01  8.8875786042233362e-01 
 8.9813045630996635e-01  9.0689339487181309e-01  9.1503079682628097e-01  9.2252868809059119e-01 
 9.2937501305781600e-01  9.3555963510635998e-01  9.4107432517016754e-01  9.4591273925648345e-01 
 9.5007038584696157e-01  9.5354458415504550e-01  9.5633441423643661e-01  9.5844065995903938e-01 
 9.5986574583413176e-01  9.6061366869141906e-01  9.6068992514845031e-01  9.6010143578219642e-01 
 9.5885646685809889e-01  9.5696455040995076e-01  9.5443640339661850e-01  9.5128384659336684e-01 
 9.4751972380283478e-01  9.4315782189712327e-01  9.3821279213207676e-01  9.3270007310962721e-01 
 9.2663581569716791e-01  9.2003681014910277e-01  9.1292041563041759e-01  9.0530449229142229e-01 
 8.9720733599508518e-01  8.8864761576494455e-01  8.7964431398933207e-01  8.7021666939101205e-01 
 8.6038412274958442e-01  8.5016626534650119e-01  8.3958279008885928e-01  8.2865344525768181e-01 
 8.1739799081875375e-01  8.0583615722863744e-01  7.9398760666459289e-01  7.8187189660704404e-01 
 7.6950844569971366e-01  7.5691650139025046e-01  7.4411511138599606e-01  7.3112309464650849e-01 
 7.1795901603323564e-01  7.0464116245790920e-01  6.9118752087257651e-01  6.7761575803207919e-01 
 6.6394320195969680e-01  6.5018682504703629e-01  6.3636322871938988e-01  6.2248862959783169e-01 
 6.0857884708940291e-01  5.9464929233673580e-01  5.8071495845846755e-01  5.6679041201185565e-01 
 5.5288978560918445e-01  5.3902677161990131e-01  5.2521461689095483e-01  5.1146611841857015e-01 
 4.9779361990574517e-01  4.8420900914106846e-01  4.7072371613607417e-01  4.5734871196026716e-01 
 4.4409450821516161e-01  4.3097115709118367e-01  4.1798825195407940e-01  4.0515492841055029e-01 
 3.9247986580617000e-01  3.7997128911223038e-01  3.6763697116202282e-01  3.5548423520116496e-01 
 3.4351995772094368e-01  3.3175057154826254e-01  3.2018206917065506e-01  3.0882000627996525e-01 
 2.9766950552366150e-01  2.8673526045826764e-01  2.7602153970519494e-01  2.6553219131511341e-01 
 2.5527064735283028e-01  2.4523992872037345e-01  2.3544265024143113e-01  2.2588102603523924e-01 
 2.1655687521297520e-01  2.0747162793223664e-01  1.9862633184772086e-01  1.9002165899887677e-01 
 1.8165791317375132e-01  1.7353503778675705e-01  1.6565262430498470e-01  1.5800992125271879e-01 
 1.5060584381739234e-01  1.4343898407244049e-01  1.3650762182360249e-01  1.2980973607543994e-01 
 1.2334301710452947e-01  1.1710487911528292e-01  1.1109247344401899e-01  1.0530270226711599e-01 
 9.9732232759986161e-02  9.4377511645796511e-02  8.9234780066545769e-02  8.4300088703692946e-02 
 7.9569313072036213e-02  7.5038168908905148e-02  7.0702227580228760e-02  6.6556931426283578e-02 
 6.2597608972073157e-02  5.8819489931282186e-02  5.5217719938071896e-02  5.1787374945445323e-02 
 4.8523475235261126e-02  4.5420998992243611e-02  4.2474895400696988e-02  3.9680097229619994e-02 
 3.7031532878752008e-02  3.4524137864671733e-02  3.2152865732305407e-02  2.9912698382979126e-02 
 2.7798655815386712e-02  2.5805805280475078e-02  2.3929269855231392e-02  2.2164236443663880e-02 
 2.0505963215899030e-02  1.8949786498284511e-02  1.7491127128724256e-02  1.6125496292229716e-02 
 1.4848500851914265e-02  1.3655848190465942e-02  1.2543350576594251e-02  1.1506929070153937e-02 
 1.0542616978699536e-02  9.6465628772125118e-03  8.8150332017562835e-03  8.0444144269323902e-03 
 7.3312148362990291e-03  6.6720658944223032e-03  6.0637232289960574e-03  5.5030672315061150e-03 
 4.9871032852319280e-03  4.5129616299603272e-03  4.0778968736074521e-03  3.6792871619701888e-03 
 3.3146330190142602e-03  2.9815558714042074e-03  2.6777962723398521e-03  2.4012118411337264e-03 
 2.1497749362958318e-03  1.9215700811409009e-03  1.7147911620598905e-03  1.5277384205679932e-03 
 1.3588152610295732e-03  1.2065248965462353e-03  1.0694668558648658e-03  9.4633337431153733e-04 
 8.3590569168433802e-04  7.3705027974849135e-04  6.4871502148036296e-04  5.6992536351677385e-04 
 4.9978046239931222e-04  4.3744934417936873e-04  3.8216709578938683e-04  3.3323110531141450e-04 
 2.8999736690799678e-04  2.5187686474527647e-04  2.1833204875585499e-04  1.8887341358063501e-04 
 1.6305619051446176e-04  1.4047716077835479e-04  1.2077159696835856e-04  1.0361033810259995e-04 
 8.8697002317261801e-05  7.5765339960192000e-05  6.4576728607196833e-05  5.4917810388278065e-05 
 4.6598270964907897e-05  3.9448758548915296e-05  3.3318940501066602e-05  2.8075694293843400e-05 
 2.3601428967749268e-05  1.9792532651972621e-05  1.6557941255556293e-05  1.3817823060589185e-05 
 1.1502373659750979e-05  9.5507154715609558e-06  7.9098959321463312e-06  6.5339783961091525e-06 
 5.3832197747391332e-06  4.4233289908605457e-06  3.6248004294567627e-06  2.9623167053992718e-06 
 2.4142152477902161e-06  1.9620134085128178e-06  1.5899870347730177e-06  1.2847976962576294e-06 
 1.0351640219677505e-06  8.3157287516932091e-07  6.6602637303319524e-07  5.3182103666276994e-07 
 4.2335563402824494e-07  3.3596454998979620e-07  2.6577378167865983e-07  2.0957691201307122e-07 
 1.6472865744674738e-07  1.2905381693980003e-07  1.0076966670223149e-07  7.8420048891560701e-08 
 6.0819591825762067e-08  4.7006674318807492e-08  3.6203907585416993e-08  2.7785055097596044e-08 
 2.1247444257851646e-08  1.6189044349913183e-08  1.2289493595430865e-08  9.2944550091301994e-09 
 7.0027668744495482e-09  5.2559298511057172e-09  3.9295397778977448e-09  2.9263339448015530e-09 
 2.1705697563211234e-09  1.6034990435859547e-09  1.1797395208088466e-09  8.6437769632110901e-10 
 6.3066556833129895e-10  4.5819724224548040e-10  3.3147173282715914e-10  2.3876514529967950e-10 
 1.7124960205521717e-10  1.2230808786753434e-10  8.7004175463818700e-11  6.1673674276868059e-11 
 4.3611891329835372e-11  0.0000000000000000e+00  0.0000000000000000e+00  0.0000000000000000e+00 
 0.0000000000000000e+00  0.0000000000000000e+00  0.0000000000000000e+00  0.0000000000000000e+00 
 0.0000000000000000e+00  0.0000000000000000e+00  0.0000000000000000e+00  0.0000000000000000e+00 
 0.0000000000000000e+00  0.0000000000000000e+00  0.0000000000000000e+00  0.0000000000000000e+00 
 0.0000000000000000e+00  0.0000000000000000e+00  0.0000000000000000e+00  0.0000000000000000e+00 
 0.0000000000000000e+00  0.0000000000000000e+00  0.0000000000000000e+00  0.0000000000000000e+00 
 0.0000000000000000e+00  0.0000000000000000e+00  0.0000000000000000e+00  0.0000000000000000e+00 
 0.0000000000000000e+00  0.0000000000000000e+00  0.0000000000000000e+00  0.0000000000000000e+00 
 0.0000000000000000e+00  0.0000000000000000e+00  0.0000000000000000e+00  0.0000000000000000e+00 
 0.0000000000000000e+00  0.0000000000000000e+00  0.0000000000000000e+00  0.0000000000000000e+00 
 0.0000000000000000e+00  0.0000000000000000e+00  0.0000000000000000e+00  0.0000000000000000e+00 
 0.0000000000000000e+00  0.0000000000000000e+00  0.0000000000000000e+00  0.0000000000000000e+00 
 0.0000000000000000e+00  0.0000000000000000e+00  0.0000000000000000e+00  0.0000000000000000e+00 
 0.0000000000000000e+00  0.0000000000000000e+00  0.0000000000000000e+00  0.0000000000000000e+00 
 0.0000000000000000e+00  0.0000000000000000e+00  0.0000000000000000e+00  0.0000000000000000e+00 
 0.0000000000000000e+00  0.0000000000000000e+00  0.0000000000000000e+00  0.0000000000000000e+00 
 0.0000000000000000e+00  0.0000000000000000e+00  0.0000000000000000e+00  0.0000000000000000e+00 
 0.0000000000000000e+00  0.0000000000000000e+00  0.0000000000000000e+00  0.0000000000000000e+00 
 0.0000000000000000e+00  0.0000000000000000e+00  0.0000000000000000e+00  0.0000000000000000e+00 
 0.0000000000000000e+00  0.0000000000000000e+00  0.0000000000000000e+00  0.0000000000000000e+00 
 0.0000000000000000e+00  0.0000000000000000e+00  0.0000000000000000e+00  0.0000000000000000e+00 
 0.0000000000000000e+00  0.0000000000000000e+00  0.0000000000000000e+00  0.0000000000000000e+00 
 0.0000000000000000e+00  0.0000000000000000e+00  0.0000000000000000e+00  0.0000000000000000e+00 
 0.0000000000000000e+00  0.0000000000000000e+00  0.0000000000000000e+00  0.0000000000000000e+00 
 0.0000000000000000e+00  0.0000000000000000e+00  0.0000000000000000e+00  0.0000000000000000e+00 
 0.0000000000000000e+00  0.0000000000000000e+00  0.0000000000000000e+00  0.0000000000000000e+00 
 0.0000000000000000e+00  0.0000000000000000e+00  0.0000000000000000e+00  0.0000000000000000e+00 
 0.0000000000000000e+00  0.0000000000000000e+00  0.0000000000000000e+00  0.0000000000000000e+00 
 0.0000000000000000e+00  0.0000000000000000e+00  0.0000000000000000e+00  0.0000000000000000e+00 
 0.0000000000000000e+00  0.0000000000000000e+00  0.0000000000000000e+00  0.0000000000000000e+00 
 0.0000000000000000e+00  0.0000000000000000e+00  0.0000000000000000e+00  0.0000000000000000e+00 
 0.0000000000000000e+00  0.0000000000000000e+00  0.0000000000000000e+00  0.0000000000000000e+00 
 0.0000000000000000e+00  0.0000000000000000e+00  0.0000000000000000e+00  0.0000000000000000e+00 
 0.0000000000000000e+00  0.0000000000000000e+00  0.0000000000000000e+00  0.0000000000000000e+00 
 0.0000000000000000e+00  0.0000000000000000e+00  0.0000000000000000e+00  0.0000000000000000e+00 
 0.0000000000000000e+00 
</PP_PSWFC>


<PP_RHOATOM>
 8.9463928554510433e-12  9.1820493418513546e-12  9.4239132443204198e-12  9.6721480721225947e-12 
 9.9269216415133289e-12  1.0188406189189527e-11  1.0456778488728277e-11  1.0732219970092692e-11 
 1.1014916842285653e-11  1.1305060219234399e-11  1.1602846248991002e-11  1.1908476246336178e-11 
 1.2222156828875908e-11  1.2544100056723113e-11  1.2874523575858586e-11  1.3213650765268224e-11 
 1.3561710887956019e-11  1.3918939245934891e-11  1.4285577339300087e-11  1.4661873029492801e-11 
 1.5048080706864287e-11  1.5444461462653772e-11  1.5851283265496451e-11  1.6268821142580951e-11 
 1.6697357365578540e-11  1.7137181641470005e-11  1.7588591308399100e-11  1.8051891536684886e-11 
 1.8527395535129086e-11  1.9015424762757694e-11  1.9516309146140008e-11  2.0030387302432320e-11 
 2.0558006768296572e-11  2.1099524234849022e-11  2.1655305788797775e-11  2.2225727159932136e-11 
 2.2811173975130979e-11  2.3412042019062040e-11  2.4028737501748393e-11  2.4661677333182707e-11 
 2.5311289405175319e-11  2.5978012880626429e-11  2.6662298490417985e-11  2.7364608838126119e-11 
 2.8085418712759954e-11  2.8825215409738310e-11  2.9584499060321328e-11  3.0363782969719637e-11 
 3.1163593964109699e-11  3.1984472746789971e-11  3.2826974263718507e-11  3.3691668078679328e-11 
 3.4579138758331034e-11  3.5489986267398111e-11  3.6424826374271849e-11  3.7384291067295401e-11 
 3.8369028982014296e-11  3.9379705839680987e-11  4.0417004897310384e-11  4.1481627409590213e-11 
 4.2574293102958587e-11  4.3695740662169485e-11  4.4846728229674830e-11  4.6028033918160783e-11 
 4.7240456336585143e-11  4.8484815130070776e-11  4.9761951534020966e-11  5.1072728942830352e-11 
 5.2418033493576623e-11  5.3798774665087516e-11  5.5215885892787629e-11  5.6670325199741245e-11 
 5.8163075844317592e-11  5.9695146984916356e-11  6.1267574362202920e-11  6.2881420999314635e-11 
 6.4537777920511072e-11  6.6237764888754759e-11  6.7982531162720839e-11  6.9773256273746804e-11 
 7.1611150823248639e-11  7.3497457301141503e-11  7.5433450925819296e-11  7.7420440506259503e-11 
 7.9459769326837935e-11  8.1552816055450119e-11  8.3700995675553797e-11  8.5905760442763311e-11 
 8.8168600866641054e-11  9.0491046718351754e-11  9.2874668064858577e-11  9.5321076330362638e-11 
 9.7831925385701052e-11  1.0040891266644282e-10  1.0305378032043533e-10  1.0576831638558017e-10 
 1.0855435599863280e-10  1.1141378263584338e-10  1.1434852938627887e-10  1.1736058025868582e-10 
 1.2045197152277757e-10  1.2362479308585398e-10  1.2688118990568247e-10  1.3022336344059716e-10 
 1.3365357313779587e-10  1.3717413796084109e-10  1.4078743795739768e-10  1.4449591586826832e-10 
 1.4830207877881174e-10  1.5220849981386415e-10  1.5621781987730656e-10  1.6033274943745525e-10 
 1.6455607035948351e-10  1.6889063778611114e-10  1.7333938206783642e-10  1.7790531074401210e-10 
 1.8259151057610784e-10  1.8740114963453180e-10  1.9233747944042376e-10  1.9740383716386592e-10 
 2.0260364788000025e-10  2.0794042688457548e-10  2.1341778207049003e-10  2.1903941636693882e-10 
 2.2480913024281080e-10  2.3073082427603265e-10  2.3680850179059236e-10  2.4304627156303008e-10 
 2.4944835060022158e-10  2.5601906699033566e-10  2.6276286282889225e-10  2.6968429722189811e-10 
 2.7678804936809469e-10  2.8407892172239550e-10  2.9156184324266029e-10  2.9924187272199311e-10 
 3.0712420220882418e-10  3.1521416051708344e-10  3.2351721682884137e-10  3.3203898439185195e-10 
 3.4078522431450059e-10  3.4976184946071713e-10  3.5897492844749551e-10  3.6843068974771608e-10 
 3.7813552590104869e-10  3.8809599783578259e-10  3.9831883930450616e-10  4.0881096143663374e-10 
 4.1957945741086335e-10  4.3063160725071544e-10  4.4197488274640636e-10  4.5361695250637519e-10 
 4.6556568714188719e-10  4.7782916458821274e-10  4.9041567556598956e-10  5.0333372918644825e-10 
 5.1659205870430475e-10  5.3019962742220142e-10  5.4416563475069189e-10  5.5849952242786993e-10 
 5.7321098090284391e-10  5.8830995588737735e-10  6.0380665508012650e-10  6.1971155506801691e-10 
 6.3603540840943356e-10  6.5278925090400878e-10  6.6998440905392892e-10  6.8763250772180030e-10 
 7.0574547799026171e-10  7.2433556522864895e-10  7.4341533737217182e-10  7.6299769341920876e-10 
 7.8309587215245384e-10  8.0372346108982431e-10  8.2489440567117622e-10  8.4662301868704768e-10 
 8.6892398995580211e-10  8.9181239625571721e-10  9.1530371151873816e-10  9.3941381729279194e-10 
 9.6415901347973609e-10  9.8955602935620713e-10  1.0156220348848210e-09  1.0423746523233777e-09 
 1.0698319681399277e-09  1.0980125452417486e-09  1.1269354355265152e-09  1.1566201927641523e-09 
 1.1870868858180669e-09  1.2183561122147386e-09  1.2504490120708124e-09  1.2833872823871336e-09 
 1.3171931917193954e-09  1.3518895952353156e-09  1.3874999501685389e-09  1.4240483316797090e-09 
 1.4615594491354593e-09  1.5000586628163075e-09  1.5395720010647954e-09  1.5801261778854451e-09 
 1.6217486110084526e-09  1.6644674404293424e-09  1.7083115474371314e-09  1.7533105741438625e-09 
 1.7994949435287488e-09  1.8468958800104588e-09  1.8955454305614967e-09  1.9454764863789541e-09 
 1.9967228051262845e-09  2.0493190337611780e-09  2.1033007319649730e-09  2.1587043961894578e-09 
 2.2155674843373534e-09  2.2739284410931691e-09  2.3338267239215750e-09  2.3953028297509051e-09 
 2.4583983223598409e-09  2.5231558604858222e-09  2.5896192266741947e-09  2.6578333568876653e-09 
 2.7278443708960697e-09  2.7996996034670403e-09  2.8734476363787163e-09  2.9491383312761385e-09 
 3.0268228633935825e-09  3.1065537561657035e-09  3.1883849167508715e-09  3.2723716724907994e-09 
 3.3585708083311338e-09  3.4470406052283740e-09  3.5378408795690997e-09  3.6310330236282390e-09 
 3.7266800470937710e-09  3.8248466196859798e-09  3.9255991149001668e-09  4.0290056549024085e-09 
 4.1351361566088330e-09  4.2440623789795728e-09  4.3558579715595218e-09  4.4705985242986946e-09 
 4.5883616186860578e-09  4.7092268802313815e-09  4.8332760323307567e-09  4.9605929515522795e-09 
 5.0912637243793341e-09  5.2253767054500273e-09  5.3630225773321381e-09  5.5042944118742616e-09 
 5.6492877331746092e-09  5.7981005822102524e-09  5.9508335831706247e-09  6.1075900115402416e-09 
 6.2684758639768830e-09  6.4335999300325621e-09  6.6030738657660344e-09  6.7770122692966809e-09 
 6.9555327583511711e-09  7.1387560498554248e-09  7.3268060416259256e-09  7.5198098962158665e-09 
 7.7178981269730452e-09  7.9212046863678908e-09  8.1298670566516907e-09  8.3440263429065022e-09 
 8.5638273685499953e-09  8.7894187733601352e-09  9.0209531140862126e-09  9.2585869677146968e-09 
 9.5024810374600196e-09  9.7528002615523363e-09  1.0009713924896245e-08  1.0273395773676359e-08 
 1.0544024132987658e-08  1.0821782027570546e-08  1.1106857305732870e-08  1.1399442766543011e-08 
 1.1699736290380671e-08  1.2007940972934101e-08  1.2324265262734931e-08  1.2648923102324205e-08 
 1.2982134073145575e-08  1.3324123544264280e-08  1.3675122825013031e-08  1.4035369321668780e-08 
 1.4405106698266802e-08  1.4784585041661636e-08  1.5174061030947203e-08  1.5573798111351378e-08 
 1.5984066672723454e-08  1.6405144232736096e-08  1.6837315624926633e-08  1.7280873191708712e-08 
 1.7736116982506141e-08  1.8203354957119564e-08  1.8682903194459059e-08  1.9175086106793579e-08 
 1.9680236659664677e-08  2.0198696597614924e-08  2.0730816675885288e-08  2.1276956898239823e-08 
 2.1837486761080707e-08  2.2412785504020504e-08  2.3003242367083213e-08  2.3609256854710426e-08 
 2.4231239006753262e-08  2.4869609676636049e-08  2.5524800816882417e-08  2.6197255772199623e-08 
 2.6887429580322213e-08  2.7595789280821703e-08  2.8322814232094388e-08  2.9068996436744742e-08 
 2.9834840875588827e-08  3.0620865850506563e-08  3.1427603336379499e-08  3.2255599342355923e-08 
 3.3105414282692598e-08  3.3977623357428102e-08  3.4872816943151061e-08  3.5791600994132043e-08 
 3.6734597454096691e-08  3.7702444678924421e-08  3.8695797870564339e-08  3.9715329522469355e-08 
 4.0761729876855966e-08  4.1835707394106789e-08  4.2937989234641219e-08  4.4069321753588129e-08 
 4.5230471008603932e-08  4.6422223281189003e-08  4.7645385611864561e-08  4.8900786349582191e-08 
 5.0189275715748901e-08  5.1511726383259920e-08  5.2869034070943992e-08  5.4262118153835217e-08 
 5.5691922289698220e-08  5.7159415062244592e-08  5.8665590641490416e-08  6.0211469461718337e-08 
 6.1798098917518218e-08  6.3426554078396446e-08  6.5097938422454352e-08  6.6813384589653139e-08 
 6.8574055155195021e-08  7.0381143423565154e-08  7.2235874243796085e-08  7.4139504846528077e-08 
 7.6093325703460141e-08  7.8098661409797668e-08  8.0156871590323681e-08  8.2269351829735274e-08 
 8.4437534627907226e-08  8.6662890380760988e-08  8.8946928387437753e-08  9.1291197884493992e-08 
 9.3697289107855787e-08  9.6166834383292715e-08  9.8701509246188602e-08  1.0130303359141309e-07 
 1.0397317285411682e-07  1.0671373922229714e-07  1.0952659288200503e-07  1.1241364329608987e-07 
 1.1537685051740121e-07  1.1841822653739364e-07  1.2153983667110812e-07  1.2474380097952744e-07 
 1.2803229573033542e-07  1.3140755489813456e-07  1.3487187170520943e-07  1.3842760020395080e-07 
 1.4207715690208847e-07  1.4582302243191300e-07  1.4966774326469778e-07  1.5361393347156996e-07 
 1.5766427653211081e-07  1.6182152719200475e-07  1.6608851337109305e-07  1.7046813812322470e-07 
 1.7496338164934142e-07  1.7957730336527119e-07  1.8431304402574736e-07  1.8917382790621819e-07 
 1.9416296504405415e-07  1.9928385354080848e-07  2.0453998192723645e-07  2.0993493159282933e-07 
 2.1547237928167380e-07  2.2115609965649740e-07  2.2698996793282366e-07  2.3297796258521520e-07 
 2.3912416812764608e-07  2.4543277797011081e-07  2.5190809735363685e-07  2.5855454636594568e-07 
 2.6537666304006209e-07  2.7237910653825386e-07  2.7956666042376255e-07  2.8694423602285820e-07 
 2.9451687587983251e-07  3.0228975730762887e-07  3.1026819603688993e-07  3.1845764996629074e-07 
 3.2686372301712389e-07  3.3549216909519192e-07  3.4434889616315951e-07  3.5343997042661848e-07 
 3.6277162063722475e-07  3.7235024251636870e-07  3.8218240330295206e-07  3.9227484642896841e-07 
 4.0263449632669034e-07  4.1326846337141365e-07  4.2418404896379236e-07  4.3538875075596431e-07 
 4.4689026802580324e-07  4.5869650720376482e-07  4.7081558755695138e-07  4.8325584703516142e-07 
 4.9602584828386451e-07  5.0913438482919192e-07  5.2259048744022144e-07  5.3640343067399726e-07 
 5.5058273960892376e-07  5.6513819677236367e-07  5.8007984926846204e-07  5.9541801611243788e-07 
 6.1116329577779638e-07  6.2732657396314216e-07  6.4391903158550686e-07  6.6095215300734534e-07 
 6.7843773450462085e-07  6.9638789298364965e-07  7.1481507495465808e-07  7.3373206577028903e-07 
 7.5315199913760028e-07  7.7308836691238450e-07  7.9355502918500273e-07  8.1456622466721842e-07 
 8.3613658138990129e-07  8.5828112772181039e-07  8.8101530372007620e-07  9.0435497282336463e-07 
 9.2831643389915265e-07  9.5291643365694596e-07  9.7817217943974498e-07  1.0041013524065251e-06 
 1.0307221211189789e-06  1.0580531555462938e-06  1.0861136415022629e-06  1.1149232955295906e-06 
 1.1445023802468275e-06  1.1748717201739895e-06  1.2060527180535433e-06  1.2380673716840911e-06 
 1.2709382912848312e-06  1.3046887174095129e-06  1.3393425394294517e-06  1.3749243146058954e-06 
 1.4114592877729000e-06  1.4489734116527312e-06  1.4874933678267045e-06  1.5270465883853563e-06 
 1.5676612782827849e-06  1.6093664384211204e-06  1.6521918894920753e-06  1.6961682966037585e-06 
 1.7413271947220928e-06  1.7877010149574318e-06  1.8353231117282994e-06  1.8842277908355664e-06 
 1.9344503384817897e-06  1.9860270512720069e-06  2.0389952672338482e-06  2.0933933978964914e-06 
 2.1492609614697569e-06  2.2066386171665008e-06  2.2655682007133549e-06  2.3260927610969513e-06 
 2.3882565985948441e-06  2.4521053041426606e-06  2.5176858000913023e-06  2.5850463824105612e-06 
 2.6542367643980545e-06  2.7253081219552144e-06  2.7983131404948635e-06  2.8733060635479996e-06 
 2.9503427431406287e-06  3.0294806920147522e-06  3.1107791377712751e-06  3.1942990790162323e-06 
 3.2801033435957463e-06  3.3682566490091617e-06  3.4588256650942473e-06  3.5518790790829252e-06 
 3.6474876631308082e-06  3.7457243444289343e-06  3.8466642780115105e-06  3.9503849223790909e-06 
 4.0569661180626377e-06  4.1664901692602730e-06  4.2790419286850841e-06  4.3947088857695171e-06 
 4.5135812583792334e-06  4.6357520881971880e-06  4.7613173399469752e-06  4.8903760046332702e-06 
 5.0230302069863687e-06  5.1593853173077255e-06  5.2995500679236584e-06  5.4436366744653147e-06 
 5.5917609622046119e-06  5.7440424976880532e-06  5.9006047259232930e-06  6.0615751133870097e-06 
 6.2270852971371283e-06  6.3972712403278615e-06  6.5722733944421465e-06  6.7522368685734835e-06 
 6.9373116061072323e-06  7.1276525691708226e-06  7.3234199312429414e-06  7.5247792783332371e-06 
 7.7319018191673783e-06  7.9449646048365332e-06  8.1641507583963691e-06  8.3896497149280955e-06 
 8.6216574726033779e-06  8.8603768553257421e-06  9.1060177875541332e-06  9.3587975819492153e-06 
 9.6189412405200410e-06  9.8866817699882087e-06  1.0162260512128453e-05  1.0445927489889264e-05 
 1.0737941770144422e-05  1.1038571843976671e-05  1.1348096025448341e-05  1.1666802869870887e-05 
 1.1994991612645531e-05  1.2332972629812382e-05  1.2681067921513504e-05  1.3039611619649068e-05 
 1.3408950521083503e-05  1.3789444647841446e-05  1.4181467835822362e-05  1.4585408353656279e-05 
 1.5001669553424322e-05  1.5430670555074655e-05  1.5872846966479013e-05  1.6328651641196766e-05 
 1.6798555476144215e-05  1.7283048251505365e-05  1.7782639515368877e-05  1.8297859515734923e-05 
 1.8829260182704160e-05  1.9377416163842429e-05  1.9942925915907863e-05  2.0526412856333728e-05 
 2.1128526578080810e-05  2.1749944131709975e-05  2.2391371378777096e-05  2.3053544420923820e-05 
 2.3737231109325816e-05  2.4443232639470225e-05  2.5172385236565073e-05  2.5925561937237926e-05 
 2.6703674473561544e-05  2.7507675265850844e-05  2.8338559531111729e-05  2.9197367514490003e-05 
 3.0085186851569225e-05  3.1003155069904720e-05  3.1952462238755690e-05  3.2934353776597332e-05 
 3.3950133426657051e-05  3.5001166411431319e-05  3.6088882777904410e-05  3.7214780946009994e-05 
 3.8380431473759406e-05  3.9587481053405700e-05  4.0837656754031931e-05  4.2132770527043411e-05 
 4.3474723992221539e-05  4.4865513523258454e-05  4.6307235653053151e-05  4.7802092820510258e-05 
 4.9352399482157252e-05  5.0960588613588765e-05  5.2629218627568971e-05  5.4360980737586901e-05 
 5.6158706797771772e-05  5.8025377652353489e-05  5.9964132030306017e-05  6.1978276023456352e-05 
 6.4071293189190350e-05  6.6246855321961155e-05  6.8508833941120168e-05  7.0861312546163861e-05 
 7.3308599694350585e-05  7.5855242959800781e-05  7.8506043837691381e-05  8.1266073662005888e-05 
 8.4140690610542892e-05  8.7135557876547446e-05  9.0256663092446319e-05  9.3510339097780513e-05 
 9.6903286150574214e-05  1.0044259568911060e-04  1.0413577575944002e-04  1.0799077823299209e-04 
 1.1201602794844866e-04  1.1622045392262339e-04  1.2061352278656533e-04  1.2520527461551734e-04 
 1.3000636133481475e-04  1.3502808789838153e-04  1.4028245645227673e-04  1.4578221371286504e-04 
 1.5154090180775179e-04  1.5757291284775415e-04  1.6389354752003400e-04  1.7051907801621019e-04 
 1.7746681563501044e-04  1.8475518342695127e-04  1.9240379427887979e-04  2.0043353486916626e-04 
 2.0886665596015234e-04  2.1772686953338487e-04  2.2703945331548620e-04  2.3683136328853707e-04 
 2.4713135482891125e-04  2.5797011317297994e-04  2.6938039396739576e-04  2.8139717472621761e-04 
 2.9405781808743777e-04  3.0740224783805034e-04  3.2147313876024279e-04  3.3631612144223059e-04 
 3.5198000329642520e-04  3.6851700713572941e-04  3.8598302877673236e-04  4.0443791526726752e-04 
 4.2394576547628068e-04  4.4457525493732158e-04  4.6639998700446155e-04  4.8949887256240113e-04 
 5.1395654073243884e-04  5.3986378323448326e-04  5.6731803530414896e-04  5.9642389632521750e-04 
 6.2729369362346098e-04  6.6004809318046746e-04  6.9481676136823626e-04  7.3173908217984856e-04 
 7.7096493484159949e-04  8.1265553714111112e-04  8.5698436029796213e-04  9.0413812174242861e-04 
 9.5431786275877999e-04  1.0077401185971918e-03  1.0646381893684252e-03  1.1252635208140675e-03 
 1.1898872048992364e-03  1.2588016111114873e-03  1.3323221603776878e-03  1.4107892546385767e-03 
 1.4945703763587362e-03  1.5840623736085304e-03  1.6796939478462040e-03  1.7819283631659061e-03 
 1.8912663975753001e-03  2.0082495588404862e-03  2.1334635896034597e-03  2.2675422888572584e-03 
 2.4111716794772650e-03  2.5650945543761795e-03  2.7301154370004393e-03  2.9071059953439558e-03 
 3.0970109524510528e-03  3.3008545405465643e-03  3.5197475505026371e-03  3.7548950333670290e-03 
 4.0076047161785458e-03  4.2792962003266764e-03  4.5715110173236862e-03  4.8859236241011600e-03 
 5.2243534278765234e-03  5.5887779393197622e-03  5.9813471622525731e-03  6.4043993385020717e-03 
 6.8604781778843866e-03  7.3523517156903750e-03  7.8830329535712305e-03  8.4558024544652104e-03 
 9.0742330782628243e-03  9.7422170623739611e-03  1.0463995670338320e-02  1.1244191652214483e-02 
 1.2087844782798798e-02  1.3000450767869317e-02  1.3988003834727526e-02  1.5057043351423527e-02 
 1.6214704849294638e-02  1.7468775855911015e-02  1.8827756980278953e-02  2.0300928729262320e-02 
 2.1898424573679874e-02  2.3631310824430249e-02  2.5511673923258045e-02  2.7552715799333997e-02 
 2.9768857991554348e-02  3.2175855287178048e-02  3.4790919679853080e-02  3.7632855503871715e-02 
 4.0722206656176978e-02  4.4081416872623007e-02  4.7735004079535959e-02  5.1709749894816762e-02 
 5.6034905403576384e-02  6.0742414380272253e-02  6.5867155170951319e-02  7.1447202483649858e-02 
 7.7524110360079571e-02  8.4143217614934596e-02  9.1353977027573002e-02  9.9210309551137826e-02 
 1.0777098476259109e-01  1.1710002870934752e-01  1.2726716020938939e-01  1.3834825652649446e-01 
 1.5042584916453414e-01  1.6358965029801956e-01  1.7793711007290980e-01  1.9357400466418562e-01 
 2.1061505455619575e-01  2.2918457200906911e-01  2.4941713607968852e-01  2.7145829286852141e-01 
 2.9546527785328014e-01  3.2160775623605820e-01  3.5006857616147441e-01  3.8104452844913950e-01 
 4.1474710511508905e-01  4.5140324742599541e-01  4.9125607253173265e-01  5.3456556585452952e-01 
 5.8160922437970597e-01  6.3268263380338707e-01  6.8809996016469055e-01  7.4819433415192871e-01 
 8.1331810376556635e-01  8.8384292850127977e-01  9.6015968575830080e-01  1.0426781578746309e+00 
 1.1318264661559554e+00  1.2280502166345975e+00  1.3318113212238727e+00  1.4435864575931663e+00 
 1.5638651316612138e+00  1.6931473082708237e+00  1.8319405785364271e+00  1.9807568366869415e+00 
 2.1401084450564105e+00  2.3105038732394156e+00  2.4924428062927868e+00  2.6864107271217508e+00 
 2.8928729896662948e+00  3.1122684119858595e+00  3.3450024315960749e+00  3.5914398792208311e+00 
 3.8518974413007241e+00  4.1266358959955687e+00  4.4158522219029486e+00  4.7196716931349521e+00 
 5.0381400885296186e+00  5.3712161562798713e+00  5.7187644876372090e+00  6.0805489638949899e+00 
 6.4562269486675277e+00  6.8453444014113103e+00  7.2473320867767166e+00  7.6615030460506039e+00 
 8.0870514797281388e+00  8.5230531621198846e+00  8.9684674681152856e+00  9.4221410379895900e+00 
 9.8828130396335432e+00  1.0349121913183195e+01  1.0819613409327424e+01  1.1292749672431135e+01 
 1.1766919088328649e+01  1.2240446627757883e+01  1.2711604475829565e+01  1.3178622838563129e+01 
 1.3639700937647856e+01  1.4093018312296270e+01  1.4536746610246185e+01  1.4969062067886737e+01 
 1.5388158897042588e+01  1.5792262784613483e+01  1.6179646005808635e+01  1.6548642329672610e+01 
 1.6897661982215908e+01  1.7225206231948018e+01  1.7529881170648789e+01  1.7810410329682327e+01 
 1.8065645838833479e+01  1.8294577910221108e+01  1.8496342505490890e+01  1.8670227113413802e+01 
 1.8815674623821391e+01  1.8932285331631661e+01  1.9019817142235283e+01  1.9078184078108297e+01 
 1.9107453207739002e+01  1.9107840133200856e+01  1.9079703183108801e+01  1.9023536464134605e+01 
 1.8939961927386499e+01  1.8829720606279611e+01  1.8693663180445036e+01  1.8532740016092678e+01 
 1.8347990827370893e+01  1.8140534095949349e+01  1.7911556377582080e+01  1.7662301615043720e+01 
 1.7394060566303864e+01  1.7108160449573440e+01  1.6805954888151074e+01  1.6488814238139991e+01 
 1.6158116361922751e+01  1.5815237912089511e+01  1.5461546157487199e+01  1.5098391403570634e+01 
 1.4727100027386239e+01  1.4348968147931576e+01  1.3965255943011467e+01  1.3577182611257545e+01 
 1.3185922001067667e+01  1.2792598846040226e+01  1.2398285642483241e+01  1.2004000122941662e+01 
 1.1610703305816706e+01  1.1219298092285815e+01  1.0830628378513222e+01  1.0445478648555687e+01 
 1.0064574011389503e+01  9.6885806440885638e+00  9.3181066023436188e+00  8.9537029591957413e+00 
 8.5958652330266609e+00  8.2450350664603089e+00  7.9016021188339067e+00  7.5659061339187241e+00 
 7.2382391605075860e+00  6.9188478658081456e+00  6.6079359537889522e+00  6.3056666115308460e+00 
 6.0121649972775151e+00  5.7275207284730261e+00  5.4517903526416580e+00  5.1849997827551677e+00 
 4.9271466811042739e+00  4.6782027780002302e+00  4.4381161138438987e+00  4.2068131951961352e+00 
 3.9842010574514353e+00  3.7701692285428292e+00  3.5645915897830278e+00  3.3673281314705412e+00 
 3.1782266022582042e+00  2.9971240524958942e+00  2.8238482728216669e+00  2.6582191301904992e+00 
 2.5000498043036044e+00  2.3491479280403960e+00  2.2053166360078222e+00  2.0683555257166377e+00 
 1.9380615361803522e+00  1.8142297489196531e+00  1.6966541164528546e+00  1.5851281233711048e+00 
 1.4794453850452234e+00  1.3794001888987033e+00  1.2847879830178939e+00  1.1954058166641901e+00 
 1.1110527370127203e+00  1.0315301461751689e+00  9.5664212227821865e-01  8.8619570807027737e-01 
 8.2000117022334273e-01  7.5787223218914568e-01  6.9962628316467457e-01  6.4508456542481363e-01 
 5.9407234199273917e-01  5.4641904634505400e-01  5.0195841559076038e-01  4.6052860832285908e-01 
 4.2197230812335401e-01  3.8613681349852058e-01  3.5287411484498715e-01  3.2204095889843037e-01 
 2.9349890098059905e-01  2.6711434525551880e-01  2.4275857312490343e-01  2.2030775983520201e-01 
 1.9964297933507594e-01  1.8065019741126448e-01  1.6322025314129196e-01  1.4724882873137524e-01 
 1.3263640785490333e-01  1.1928822266819071e-01  1.0711418975282380e-01  9.6028835314545744e-02 
 8.5951210053591617e-02  7.6804794207932486e-02  6.8517393355612494e-02  6.1021025641078828e-02 
 5.4251801162283057e-02  4.8149794317768890e-02  4.2658909963236638e-02  3.7726744265164730e-02 
 3.3304441163352599e-02  2.9346545365964680e-02  2.5810852799301662e-02  2.2658259418861043e-02 
 1.9852609262692125e-02  1.7360542592394557e-02  1.5151344921346213e-02  1.3196797677145145e-02 
 1.1471031186642066e-02  9.9503806089110969e-03  8.6132453755374434e-03  7.4399526300638272e-03 
 6.4126250905876094e-03  5.5150536924528882e-03  4.7325753027041180e-03  4.0519557352718880e-03 
 3.4612782364082436e-03  2.9498375541892668e-03  2.5080396543305339e-03  2.1273070973623002e-03 
 1.7999900495181413e-03  1.5192828615373693e-03  1.2791461159177605e-03  1.0742340138628491e-03 
 8.9982694807580433e-04  7.5176908644767194e-04  6.2641077433219134e-04  5.2055554923584226e-04 
 4.3141155111523118e-04  3.5654710379807644e-04  2.9385023806651308e-04  2.4149192440722444e-04 
 1.9789278309682195e-04  1.6169304091846672e-04  1.3172550717360952e-04  1.0699134654830426e-04 
 8.6638432614489933e-05  6.9942073100212246e-05  5.6287906365334997e-05  4.5156777596064110e-05 
 3.6111412916499394e-05  2.8784719751321580e-05  2.2869552212907878e-05  1.8109790890911741e-05 
 1.4292597065610723e-05  1.1241711932455893e-05  8.8116818105987419e-06  6.8829004215805051e-06 
 5.3573690875145453e-06  4.1550850455544026e-06  3.2109769545699637e-06  2.4723150405036385e-06 
 1.8965311604117397e-06  1.4493913443085222e-06  1.1034700913075514e-06  8.3688185391329762e-07 
 6.3223075125966824e-07  4.7574462493198986e-07  3.5656411157456833e-07  2.6616148096970959e-07 
 1.9786760613080641e-07  1.4648862487932239e-07  1.0799665339056117e-07  7.9281354817503070e-08 
 5.7951283660664419e-08  4.2175751585638007e-08  3.0559524186547536e-08  2.2043990412598893e-08 
 1.5829574793934814e-08  1.1315112925430191e-08  8.0507064330824693e-09  5.7012361953758206e-09 
 4.0182610820714612e-09  2.8184809549764330e-09  1.9673121893200153e-09  1.3664246769213629e-09 
 9.4433257858029864e-10  6.4932683147420668e-10  4.4419398105638547e-10  3.0229041540217251e-10 
 2.0463952159138017e-10  1.3779666327878437e-10  9.2287346475195001e-11  6.1470914880760545e-11 
 4.0718392243557759e-11  2.6820935900553259e-11  1.7566615484981523e-11  1.1439345556339732e-11 
 7.4059502496729164e-12  4.7664395103348694e-12  3.0493534470515253e-12  1.9390458001446265e-12 
 1.2254645668706506e-12  7.6968165381667370e-13  4.8037899767745672e-13  2.9790906612165153e-13 
 1.8355833126670527e-13  1.1236175109865594e-13  6.8325018402881158e-14  4.1268645265604243e-14 
 2.4757209236418449e-14  1.4749778061870256e-14  8.7263451654007685e-15  5.1262837447296308e-15 
 2.9898951599798833e-15  1.7312170311920034e-15  9.9505694257680054e-16  5.6767960517384410e-16 
 3.2142164282669580e-16  1.8060110042909780e-16  1.0069214078081412e-16  5.5700183424708043e-17 
 3.0567441402614881e-17  1.6640188258050286e-17  8.9848195892398058e-18  4.8113656607615451e-18 
 2.5550117374477369e-18  1.3453790925189808e-18  7.0241545155066148e-19  3.6360461838985593e-19 
 1.8662764900223310e-19  9.5002516550602196e-20  4.7991543802577131e-20  2.1680759963212535e-20 
 1.0841383272582608e-20  0.0000000000000000e+00  0.0000000000000000e+00  0.0000000000000000e+00 
 0.0000000000000000e+00  0.0000000000000000e+00  0.0000000000000000e+00  0.0000000000000000e+00 
 0.0000000000000000e+00  0.0000000000000000e+00  0.0000000000000000e+00  0.0000000000000000e+00 
 0.0000000000000000e+00  0.0000000000000000e+00  0.0000000000000000e+00  0.0000000000000000e+00 
 0.0000000000000000e+00  0.0000000000000000e+00  0.0000000000000000e+00  0.0000000000000000e+00 
 0.0000000000000000e+00  0.0000000000000000e+00  0.0000000000000000e+00  0.0000000000000000e+00 
 0.0000000000000000e+00  0.0000000000000000e+00  0.0000000000000000e+00  0.0000000000000000e+00 
 0.0000000000000000e+00  0.0000000000000000e+00  0.0000000000000000e+00  0.0000000000000000e+00 
 0.0000000000000000e+00  0.0000000000000000e+00  0.0000000000000000e+00  0.0000000000000000e+00 
 0.0000000000000000e+00  0.0000000000000000e+00  0.0000000000000000e+00  0.0000000000000000e+00 
 0.0000000000000000e+00  0.0000000000000000e+00  0.0000000000000000e+00  0.0000000000000000e+00 
 0.0000000000000000e+00  0.0000000000000000e+00  0.0000000000000000e+00  0.0000000000000000e+00 
 0.0000000000000000e+00  0.0000000000000000e+00  0.0000000000000000e+00  0.0000000000000000e+00 
 0.0000000000000000e+00  0.0000000000000000e+00  0.0000000000000000e+00  0.0000000000000000e+00 
 0.0000000000000000e+00  0.0000000000000000e+00  0.0000000000000000e+00  0.0000000000000000e+00 
 0.0000000000000000e+00  0.0000000000000000e+00  0.0000000000000000e+00  0.0000000000000000e+00 
 0.0000000000000000e+00  0.0000000000000000e+00  0.0000000000000000e+00  0.0000000000000000e+00 
 0.0000000000000000e+00  0.0000000000000000e+00  0.0000000000000000e+00  0.0000000000000000e+00 
 0.0000000000000000e+00  0.0000000000000000e+00  0.0000000000000000e+00  0.0000000000000000e+00 
 0.0000000000000000e+00  0.0000000000000000e+00  0.0000000000000000e+00  0.0000000000000000e+00 
 0.0000000000000000e+00  0.0000000000000000e+00  0.0000000000000000e+00  0.0000000000000000e+00 
 0.0000000000000000e+00  0.0000000000000000e+00  0.0000000000000000e+00  0.0000000000000000e+00 
 0.0000000000000000e+00  0.0000000000000000e+00  0.0000000000000000e+00  0.0000000000000000e+00 
 0.0000000000000000e+00  0.0000000000000000e+00  0.0000000000000000e+00  0.0000000000000000e+00 
 0.0000000000000000e+00  0.0000000000000000e+00  0.0000000000000000e+00  0.0000000000000000e+00 
 0.0000000000000000e+00  0.0000000000000000e+00  0.0000000000000000e+00  0.0000000000000000e+00 
 0.0000000000000000e+00  0.0000000000000000e+00  0.0000000000000000e+00  0.0000000000000000e+00 
 0.0000000000000000e+00  0.0000000000000000e+00  0.0000000000000000e+00  0.0000000000000000e+00 
 0.0000000000000000e+00  0.0000000000000000e+00  0.0000000000000000e+00  0.0000000000000000e+00 
 0.0000000000000000e+00  0.0000000000000000e+00  0.0000000000000000e+00  0.0000000000000000e+00 
 0.0000000000000000e+00  0.0000000000000000e+00  0.0000000000000000e+00  0.0000000000000000e+00 
 0.0000000000000000e+00  0.0000000000000000e+00  0.0000000000000000e+00  0.0000000000000000e+00 
 0.0000000000000000e+00  0.0000000000000000e+00  0.0000000000000000e+00  0.0000000000000000e+00 
 0.0000000000000000e+00  0.0000000000000000e+00  0.0000000000000000e+00  0.0000000000000000e+00 
 0.0000000000000000e+00  0.0000000000000000e+00  0.0000000000000000e+00  0.0000000000000000e+00 
 0.0000000000000000e+00 
</PP_RHOATOM>


<PP_ADDINFO>
 5S  5  0   0.50  2.00 
 5P  5  1   0.50  2.00 
 5P  5  1   1.50  4.00 
 5D  5  2   1.50  3.80 
 5D  5  2   2.50  5.70 
  1   0.50 
  1   1.50 
  2   1.50 
  2   2.50 
 -6.28070760,  117.78291693,   81.00000000,    0.01300000 
</PP_ADDINFO>
