  <PP_INFO>

############################################################
#    Opium Parameter File                                  #
############################################################
#-----------------------------------------------------------
#Command line   : opium Hg Hg.log ae ps nl tc2 ke upf qmcpack rpt 
 
#Opium version  : 4.1 
#Compile Host   : py-garuda.cos.ncsu.edu 
#Compile OS     : Linux 5.15.0-113-generic x86_64 
#Compile Date   : Sat Jul 13 02:11:52 EDT 2024 
#-----------------------------------------------------------
#Execution Host : Gwaihir 
#Execution Date : Wed Apr  8 11:26:20 2026
 
#-----------------------------------------------------------
############################################################
[Atom]
Hg
15
100   2.00  -
200   2.00  -
210   6.00  -
300   2.00  -
310   6.00  -
320   10.00  -
400   2.00  -
410   6.00  -
420   10.00  -
430   14.00  -
500   2.00  -
510   6.00  -
520   9.50  -
600   1.00  -
610   0.50  -

[Pseudo]
3 -1 -1 -1
g

[Gaussinfo]
12 5
2 2 2 2 4
2 3.9402780 62.6534924  
2 1.6219532 38.0999013
2 2.7176799 55.8070418
2 1.0508824 17.0209069
2 7.0190220 69.6015582
2 2.0843420 -4.9507776
2 6.1957061 31.7261100
2 0.6235521 -0.3333534
1 3.0075250 12.0
3 2.9861954 36.09030000
2 2.2847162 -6.9653015
2 1.7923131 -14.9372952

[KBdesign]
s

[Relativity]
nrl

[XC]
pbe

[Configs]
11

520  10.00 -
600  2.00 -
610  0.00 -

520  10.00 -
600  1.00 -
610  1.00 -

520  10.00 -
600  0.00 -
610  2.00 -

520  10.00 -
600  1.00 -
610  0.00 -

520  9.00 -
600  2.00 -
610  0.00 -

520  10.00 -
600  0.00 -
610  1.00 -

520  9.00 -
600  0.00 -
610  2.00 -

520  10.00 -
600  0.00 -
610  0.00 -

520  9.00 -
600  1.00 -
610  0.00 -

520  9.00 -
600  0.00 -
610  1.00 -

520  9.00 -
600  0.00 -
610  0.00 -
############################################################
  </PP_INFO>



<PP_HEADER>
   0         Version Number
   Hg        Element
   NC        Norm - Conserving pseudopotential
    F      Nonlinear Core Correction
SLA  PW   PBE  PBE     PBE  Exchange-Correlation functional
 12          Z valence
 0          Total energy
 0.000000   0.000000     Suggested cutoff for wfc and rho
 2           Max angular momentum component
 1189           Number of points in mesh
 3  2     Number of Wavefuncitons, Number of Projectors
 Wavefunctions         nl  l   occ
                      6S  0  1.000000
                      6P  1  0.500000
                      5D  2  9.500000
</PP_HEADER>
<PP_MESH>
  <PP_R>
 2.3207944168063882e-05  2.3511617039196853e-05  2.3819263429569367e-05  2.4130935332153635e-05 
 2.4446685420242996e-05  2.4766567056353879e-05  2.5090634301244082e-05  2.5418941923049337e-05 
 2.5751545406539130e-05  2.6088500962493793e-05  2.6429865537204270e-05  2.6775696822096180e-05 
 2.7126053263479772e-05  2.7480994072427518e-05  2.7840579234780956e-05  2.8204869521288315e-05 
 2.8573926497875099e-05  2.8947812536048725e-05  2.9326590823439543e-05  2.9710325374479640e-05 
 3.0099081041221478e-05  3.0492923524298006e-05  3.0891919384026239e-05  3.1296136051656167e-05 
 3.1705641840766627e-05  3.2120505958810673e-05  3.2540798518811671e-05  3.2966590551212589e-05 
 3.3397954015880338e-05  3.3834961814267135e-05  3.4277687801731026e-05  3.4726206800017621e-05 
 3.5180594609905183e-05  3.5640928024015006e-05  3.6107284839789747e-05  3.6579743872641236e-05 
 3.7058384969270536e-05  3.7543289021162176e-05  3.8034537978255065e-05  3.8532214862792153e-05 
 3.9036403783351451e-05  3.9547189949060583e-05  4.0064659683997222e-05  4.0588900441778213e-05 
 4.1120000820339374e-05  4.1658050576908757e-05  4.2203140643175826e-05  4.2755363140659144e-05 
 4.3314811396275139e-05  4.3881579958110584e-05  4.4455764611401321e-05  4.5037462394720396e-05 
 4.5626771616377706e-05  4.6223791871034302e-05  4.6828624056534211e-05  4.7441370390956325e-05 
 4.8062134429889558e-05  4.8691021083933975e-05  4.9328136636430915e-05  4.9973588761425204e-05 
 5.0627486541862092e-05  5.1289940488022879e-05  5.1961062556201158e-05  5.2640966167623795e-05 
 5.3329766227619348e-05  5.4027579145037364e-05  5.4734522851921760e-05  5.5450716823441648e-05 
 5.6176282098082719e-05  5.6911341298103350e-05  5.7656018650257850e-05  5.8410440006791153e-05 
 5.9174732866708095e-05  5.9949026397321108e-05  6.0733451456079744e-05  6.1528140612685948e-05 
 6.2333228171498623e-05  6.3148850194231408e-05  6.3975144522947425e-05  6.4812250803354812e-05 
 6.5660310508407389e-05  6.6519466962213774e-05  6.7389865364259540e-05  6.8271652813946276e-05 
 6.9164978335451691e-05  7.0069992902915210e-05  7.0986849465952618e-05  7.1915702975505340e-05 
 7.2856710410027254e-05  7.3810030802014476e-05  7.4775825264882244e-05  7.5754257020193492e-05 
 7.6745491425243609e-05  7.7749696001006290e-05  7.8767040460444931e-05  7.9797696737194572e-05 
 8.0841839014619100e-05  8.1899643755248432e-05  8.2971289730601465e-05  8.4056958051398668e-05 
 8.5156832198170261e-05  8.6271098052264836e-05  8.7399943927263794e-05  8.8543560600806874e-05 
 8.9702141346833654e-05  9.0875881968247810e-05  9.2064980830007997e-05  9.3269638892652017e-05 
 9.4490059746259655e-05  9.5726449644859891e-05  9.6979017541288335e-05  9.8247975122500673e-05 
 9.9533536845348433e-05  1.0083591997282247e-04  1.0215534461077128e-04  1.0349203374509879e-04 
 1.0484621327945030e-04  1.0621811207339015e-04  1.0760796198107980e-04  1.0901599789046160e-04 
 1.1044245776295552e-04  1.1188758267367520e-04  1.1335161685216992e-04  1.1483480772370046e-04 
 1.1633740595105426e-04  1.1785966547690806e-04  1.1940184356674485e-04  1.2096420085233240e-04 
 1.2254700137577046e-04  1.2415051263411475e-04  1.2577500562458446e-04  1.2742075489036137e-04 
 1.2908803856698860e-04  1.3077713842937557e-04  1.3248833993941933e-04  1.3422193229424795e-04 
 1.3597820847509545e-04  1.3775746529681653e-04  1.3956000345804887e-04  1.4138612759203206e-04 
 1.4323614631809084e-04  1.4511037229379326e-04  1.4700912226779005e-04  1.4893271713334604e-04 
 1.5088148198257184e-04  1.5285574616136520e-04  1.5485584332507131e-04  1.5688211149487123e-04 
 1.5893489311490840e-04  1.6101453511016241e-04  1.6312138894508034e-04  1.6525581068297456e-04 
 1.6741816104619899e-04  1.6960880547711165e-04  1.7182811419983533e-04  1.7407646228282644e-04 
 1.7635422970226203e-04  1.7866180140625743e-04  1.8099956737992285e-04  1.8336792271127195e-04 
 1.8576726765799268e-04  1.8819800771509166e-04  1.9066055368342397e-04  1.9315532173911932e-04 
 1.9568273350391692e-04  1.9824321611642054e-04  2.0083720230428589e-04  2.0346513045735258e-04 
 2.0612744470173330e-04  2.0882459497487206e-04  2.1155703710158411e-04  2.1432523287109252e-04 
 2.1712965011507095e-04  2.1997076278670860e-04  2.2284905104080869e-04  2.2576500131493699e-04 
 2.2871910641163008e-04  2.3171186558168018e-04  2.3474378460851053e-04  2.3781537589365244e-04 
 2.4092715854334403e-04  2.4407965845625934e-04  2.4727340841238714e-04  2.5050894816307110e-04 
 2.5378682452223015e-04  2.5710759145877065e-04  2.6047181019020867e-04  2.6388004927751705e-04 
 2.6733288472121324e-04  2.7083090005870542e-04  2.7437468646291133e-04  2.7796484284216781e-04 
 2.8160197594144775e-04  2.8528670044490173e-04  2.8901963907974085e-04  2.9280142272147911e-04 
 2.9663269050055318e-04  3.0051408991033622e-04  3.0444627691656671e-04  3.0842991606820771e-04 
 3.1246568060975735e-04  3.1655425259502848e-04  3.2069632300241798e-04  3.2489259185168308e-04 
 3.2914376832224692e-04  3.3345057087305141e-04  3.3781372736397793e-04  3.4223397517885824e-04 
 3.4671206135009378e-04  3.5124874268490589e-04  3.5584478589323760e-04  3.6050096771733024e-04 
 3.6521807506299434e-04  3.6999690513259836e-04  3.7483826555979844e-04  3.7974297454602929e-04 
 3.8471186099878348e-04  3.8974576467169786e-04  3.9484553630647450e-04  4.0001203777665744e-04 
 4.0524614223329188e-04  4.1054873425248883e-04  4.1592070998492015e-04  4.2136297730727064e-04 
 4.2687645597567049e-04  4.3246207778113754e-04  4.3812078670705113e-04  4.4385353908868832e-04 
 4.4966130377484563e-04  4.5554506229157833e-04  4.6150580900807952e-04  4.6754455130473165e-04 
 4.7366230974335566e-04  4.7986011823968825e-04  4.8613902423811690e-04  4.9250008888869967e-04 
 4.9894438722650268e-04  5.0547300835328268e-04  5.1208705562154908e-04  5.1878764682103222e-04 
 5.2557591436759284e-04  5.3245300549460337e-04  5.3942008244683200e-04  5.4647832267686600e-04 
 5.5362891904410375e-04  5.6087308001635057e-04  5.6821202987405203e-04  5.7564700891720192e-04 
 5.8317927367495430e-04  5.9081009711798086e-04  5.9854076887360590e-04  6.0637259544375516e-04 
 6.1430690042575979e-04  6.2234502473604628e-04  6.3048832683675483e-04  6.3873818296532174e-04 
 6.4709598736706841e-04  6.5556315253083113e-04  6.6414110942767540e-04  6.7283130775273327e-04 
 6.8163521617020466e-04  6.9055432256156656e-04  6.9959013427702747e-04  7.0874417839027367e-04 
 7.1801800195654718e-04  7.2741317227410372e-04  7.3693127714908832e-04  7.4657392516387882e-04 
 7.5634274594894055e-04  7.6623939045823621e-04  7.7626553124824315e-04  7.8642286276061810e-04 
 7.9671310160856249e-04  8.0713798686693255e-04  8.1769928036614975e-04  8.2839876698995207e-04 
 8.3923825497704497e-04  8.5021957622669758e-04  8.6134458660833710e-04  8.7261516627519672e-04 
 8.8403321998206544e-04  8.9560067740719596e-04  9.0731949347842432e-04  9.1919164870355873e-04 
 9.3121914950508881e-04  9.4340402855927713e-04  9.5574834513968525e-04  9.6825418546519506e-04 
 9.8092366305258709e-04  9.9375891907372811e-04  1.0067621227174356e-03  1.0199354715560731e-03 
 1.0332811919169485e-03  1.0468015392585673e-03  1.0604987985518095e-03  1.0743752846660974e-03 
 1.0884333427606102e-03  1.1026753486806265e-03  1.1171037093590437e-03  1.1317208632231580e-03 
 1.1465292806067616e-03  1.1615314641676383e-03  1.1767299493105168e-03  1.1921273046155596e-03 
 1.2077261322724615e-03  1.2235290685202219e-03  1.2395387840926798e-03  1.2557579846698714e-03 
 1.2721894113352978e-03  1.2888358410391737e-03  1.3057000870677405e-03  1.3227849995187130e-03 
 1.3400934657829605e-03  1.3576284110324772e-03  1.3753927987147456e-03  1.3933896310535645e-03 
 1.4116219495564338e-03  1.4300928355285747e-03  1.4488054105936793e-03  1.4677628372214728e-03 
 1.4869683192621727e-03  1.5064251024879565e-03  1.5261364751414982e-03  1.5461057684916912e-03 
 1.5663363573966405e-03  1.5868316608740221e-03  1.6075951426789044e-03  1.6286303118891309e-03 
 1.6499407234983662e-03  1.6715299790168894e-03  1.6934017270802703e-03  1.7155596640659871e-03 
 1.7380075347181289e-03  1.7607491327802645e-03  1.7837883016365932e-03  1.8071289349614870e-03 
 1.8307749773775310e-03  1.8547304251221753e-03  1.8789993267231010e-03  1.9035857836824433e-03 
 1.9284939511699461e-03  1.9537280387251993e-03  1.9792923109690583e-03  2.0051910883243781e-03 
 2.0314287477461741e-03  2.0580097234613355e-03  2.0849385077180262e-03  2.1122196515448747e-03 
 2.1398577655201219e-03  2.1678575205508100e-03  2.1962236486621819e-03  2.2249609437974024e-03 
 2.2540742626277468e-03  2.2835685253733903e-03  2.3134487166349359e-03  2.3437198862358267e-03 
 2.3743871500757690e-03  2.4054556909953459e-03  2.4369307596519177e-03  2.4688176754070019e-03 
 2.5011218272252547e-03  2.5338486745852202e-03  2.5670037484019958e-03  2.6005926519619684e-03 
 2.6346210618697873e-03  2.6690947290077130e-03  2.7040194795075441e-03  2.7394012157352403e-03 
 2.7752459172884357e-03  2.8115596420070065e-03  2.8483485269968608e-03  2.8856187896671220e-03 
 2.9233767287808890e-03  2.9616287255197419e-03  3.0003812445621681e-03  3.0396408351761233e-03 
 3.0794141323258620e-03  3.1197078577932672e-03  3.1605288213138460e-03  3.2018839217275914e-03 
 3.2437801481449021e-03  3.2862245811277600e-03  3.3292243938863640e-03  3.3727868534914073e-03 
 3.4169193221022507e-03  3.4616292582111269e-03  3.5069242179036537e-03  3.5528118561358258e-03 
 3.5992999280277196e-03  3.6463962901741322e-03  3.6941089019723607e-03  3.7424458269673623e-03 
 3.7914152342145013e-03  3.8410253996601579e-03  3.8912847075403684e-03  3.9422016517977870e-03 
 3.9937848375171817e-03  4.0460429823797103e-03  4.0989849181362354e-03  4.1526195920999053e-03 
 4.2069560686582809e-03  4.2620035308052178e-03  4.3177712816928424e-03  4.3742687462037860e-03 
 4.4315054725440209e-03  4.4894911338565274e-03  4.5482355298560786e-03  4.6077485884854167e-03 
 4.6680403675930949e-03  4.7291210566332894e-03  4.7910009783878162e-03  4.8536905907107363e-03 
 4.9172004882957390e-03  4.9815414044666780e-03  5.0467242129915209e-03  5.1127599299200521e-03 
 5.1796597154456026e-03  5.2474348757911545e-03  5.3160968651201224e-03  5.3856572874721158e-03 
 5.4561278987240776e-03  5.5275206085770362e-03  5.5998474825688770e-03  5.6731207441134517e-03 
 5.7473527765663579e-03  5.8225561253177583e-03  5.8987434999125858e-03  5.9759277761984829e-03 
 6.0541219985018385e-03  6.1333393818323373e-03  6.2135933141163066e-03  6.2948973584593159e-03 
 6.3772652554383675e-03  6.4607109254240973e-03  6.5452484709333418e-03  6.6308921790124969e-03 
 6.7176565236520772e-03  6.8055561682328191e-03  6.8946059680038765e-03  6.9848209725933558e-03 
 7.0762164285517511e-03  7.1688077819286530e-03  7.2626106808831564e-03  7.3576409783284464e-03 
 7.4539147346109683e-03  7.5514482202246862e-03  7.6502579185607931e-03  7.7503605286934896e-03 
 7.8517729682021434e-03  7.9545123760304016e-03  8.0585961153827202e-03  8.1640417766587758e-03 
 8.2708671804262966e-03  8.3790903804327709e-03  8.4887296666565949e-03  8.5998035683980713e-03 
 8.7123308574109729e-03  8.8263305510749672e-03  8.9418219156096133e-03  9.0588244693303992e-03 
 9.1773579859473799e-03  9.2974424979069860e-03  9.4190982997775508e-03  9.5423459516791511e-03 
 9.6672062827582832e-03  9.7937003947080898e-03  9.9218496653345530e-03  1.0051675752169423e-02 
 1.0183200596130367e-02  1.0316446425229064e-02  1.0451435758327760e-02  1.0588191408945045e-02 
 1.0726736489111370e-02  1.0867094413275016e-02  1.1009288902259242e-02  1.1153343987271122e-02 
 1.1299284013962890e-02  1.1447133646546403e-02  1.1596917871961470e-02  1.1748662004098687e-02 
 1.1902391688077546e-02  1.2058132904580545e-02  1.2215911974243930e-02  1.2375755562106015e-02 
 1.2537690682113592e-02  1.2701744701687362e-02  1.2867945346347099e-02  1.3036320704397322e-02 
 1.3206899231674294e-02  1.3379709756355117e-02  1.3554781483829778e-02  1.3732144001636887e-02 
 1.3911827284464103e-02  1.4093861699213889e-02  1.4278278010135596e-02  1.4465107384024697e-02 
 1.4654381395490057e-02  1.4846132032290096e-02  1.5040391700738825e-02  1.5237193231182580e-02 
 1.5436569883548384e-02  1.5638555352965038e-02  1.5843183775457619e-02  1.6050489733716557e-02 
 1.6260508262942217e-02  1.6473274856765897e-02  1.6688825473248355e-02  1.6907196540956813e-02 
 1.7128424965121469e-02  1.7352548133872527e-02  1.7579603924558949e-02  1.7809630710149783e-02 
 1.8042667365719276e-02  1.8278753275016869e-02  1.8517928337123138e-02  1.8760232973192844e-02 
 1.9005708133286191e-02  1.9254395303289498e-02  1.9506336511926372e-02  1.9761574337860729e-02 
 2.0020151916892645e-02  2.0282112949248414e-02  2.0547501706965992e-02  2.0816363041377094e-02 
 2.1088742390687143e-02  2.1364685787654467e-02  2.1644239867369942e-02  2.1927451875138372e-02 
 2.2214369674463153e-02  2.2505041755135267e-02  2.2799517241428178e-02  2.3097845900399944e-02 
 2.3400078150303986e-02  2.3706265069109882e-02  2.4016458403135658e-02  2.4330710575793078e-02 
 2.4649074696447237e-02  2.4971604569392274e-02  2.5298354702944375e-02  2.5629380318653805e-02 
 2.5964737360637490e-02  2.6304482505033710e-02  2.6648673169580493e-02  2.6997367523319354e-02 
 2.7350624496426029e-02  2.7708503790169710e-02  2.8071065887002849e-02  2.8438372060782740e-02 
 2.8810484387126984e-02  2.9187465753904390e-02  2.9569379871863193e-02  2.9956291285398333e-02 
 3.0348265383459576e-02  3.0745368410602457e-02  3.1147667478183656e-02  3.1555230575703128e-02 
 3.1968126582294393e-02  3.2386425278365299e-02  3.2810197357391074e-02  3.3239514437861696e-02 
 3.3674449075385575e-02  3.4115074774951640e-02  3.4561466003351880e-02  3.5013698201766294e-02 
 3.5471847798512784e-02  3.5935992221963656e-02  3.6406209913631186e-02  3.6882580341424415e-02 
 3.7365184013079457e-02  3.7854102489765458e-02  3.8349418399868655e-02  3.8851215452956792e-02 
 3.9359578453926097e-02  3.9874593317333715e-02  4.0396347081917354e-02  4.0924927925305055e-02 
 4.1460425178917418e-02  4.2002929343064842e-02  4.2552532102242274e-02  4.3109326340624129e-02 
 4.3673406157761961e-02  4.4244866884487345e-02  4.4823805099023270e-02  4.5410318643305921e-02 
 4.6004506639520243e-02  4.6606469506851822e-02  4.7216308978457966e-02  4.7834128118660849e-02 
 4.8460031340365639e-02  4.9094124422706553e-02  4.9736514528923630e-02  5.0387310224473812e-02 
 5.1046621495378607e-02  5.1714559766812010e-02  5.2391237921931663e-02  5.3076770320956333e-02 
 5.3771272820493099e-02  5.4474862793117362e-02  5.5187659147209148e-02  5.5909782347048728e-02 
 5.6641354433175660e-02  5.7382499043013693e-02  5.8133341431765906e-02  5.8894008493583047e-02 
 5.9664628783009058e-02  6.0445332536706975e-02  6.1236251695469333e-02  6.2037519926516481e-02 
 6.2849272646086460e-02  6.3671647042320978e-02  6.4504782098450328e-02  6.5348818616281945e-02 
 6.6203899239996214e-02  6.7070168480253725e-02  6.7947772738617893e-02  6.8836860332297162e-02 
 6.9737581519210973e-02  7.0650088523383711e-02  7.1574535560670963e-02  7.2511078864822276e-02 
 7.3459876713885250e-02  7.4421089456954373e-02  7.5394879541271095e-02  7.6381411539677410e-02 
 7.7380852178429077e-02  7.8393370365372819e-02  7.9419137218492114e-02  8.0458326094826546e-02 
 8.1511112619769621e-02  8.2577674716749774e-02  8.3658192637299900e-02  8.4752848991520330e-02 
 8.5861828778940288e-02  8.6985319419783352e-02  8.8123510786641851e-02  8.9276595236565753e-02 
 9.0444767643571580e-02  9.1628225431576477e-02  9.2827168607763494e-02  9.4041799796382705e-02 
 9.5272324272996103e-02  9.6518949999168963e-02  9.7781887657616140e-02  9.9061350687807789e-02 
 1.0035755532204130e-01  1.0167072062198490e-01  1.0300106851569976e-01  1.0434882383514629e-01 
 1.0571421435418130e-01  1.0709747082705216e-01  1.0849882702739518e-01  1.0991851978774350e-01 
 1.1135678903955266e-01  1.1281387785374945e-01  1.1429003248181147e-01  1.1578550239738424e-01 
 1.1730054033844306e-01  1.1883540235000553e-01  1.2039034782740490e-01  1.2196563956012776e-01 
 1.2356154377622633e-01  1.2517833018731148e-01  1.2681627203413484e-01  1.2847564613276694e-01 
 1.3015673292137997e-01  1.3185981650764231e-01  1.3358518471673358e-01  1.3533312913998763e-01 
 1.3710394518417229e-01  1.3889793212141371e-01  1.4071539313977416e-01  1.4255663539449148e-01 
 1.4442197005988908e-01  1.4631171238196503e-01  1.4822618173166985e-01  1.5016570165887971e-01 
 1.5213059994707881e-01  1.5412120866875451e-01  1.5613786424151860e-01  1.5818090748496275e-01 
 1.6025068367825773e-01  1.6234754261850642e-01  1.6447183867986054e-01  1.6662393087341043e-01 
 1.6880418290785898e-01  1.7101296325098927e-01  1.7325064519193639e-01  1.7551760690427420e-01 
 1.7781423150992776e-01  1.8014090714392153e-01  1.8249802701997542e-01  1.8488598949695864e-01 
 1.8730519814621374e-01  1.8975606181975968e-01  1.9223899471939096e-01  1.9475441646667724e-01 
 1.9730275217388071e-01  1.9988443251580124e-01  2.0249989380256120e-01  2.0514957805334313e-01 
 2.0783393307109194e-01  2.1055341251819457e-01  2.1330847599315034e-01  2.1609958910824370e-01 
 2.1892722356823432e-01  2.2179185725007594e-01  2.2469397428367888e-01  2.2763406513372914e-01 
 2.3061262668257815e-01  2.3363016231421682e-01  2.3668718199934946e-01  2.3978420238157794e-01 
 2.4292174686471851e-01  2.4610034570125644e-01  2.4932053608196053e-01  2.5258286222666948e-01 
 2.5588787547626635e-01  2.5923613438585663e-01  2.6262820481916521e-01  2.6606466004416879e-01 
 2.6954608082997938e-01  2.7307305554499606e-01  2.7664618025634014e-01  2.8026605883059214e-01 
 2.8393330303584685e-01  2.8764853264510337e-01  2.9141237554100829e-01  2.9522546782196923e-01 
 2.9908845390965783e-01  3.0300198665791606e-01  3.0696672746309350e-01  3.1098334637582276e-01 
 3.1505252221425994e-01  3.1917494267880681e-01  3.2335130446833371e-01  3.2758231339792310e-01 
 3.3186868451815432e-01  3.3621114223594867e-01  3.4061042043699591e-01  3.4506726260978282e-01 
 3.4958242197124423e-01  3.5415666159405879e-01  3.5879075453560982e-01  3.6348548396863406e-01 
 3.6824164331357967e-01  3.7306003637269597e-01  3.7794147746587892e-01  3.8288679156829020e-01 
 3.8789681444978413e-01  3.9297239281615204e-01  3.9811438445221814e-01  4.0332365836680745e-01 
 4.0860109493961005e-01  4.1394758606996762e-01  4.1936403532760630e-01  4.2485135810534230e-01 
 4.3041048177378538e-01  4.3604234583806695e-01  4.4174790209661802e-01  4.4752811480202614e-01 
 4.5338396082399612e-01  4.5931642981444298e-01  4.6532652437474598e-01  4.7141526022519048e-01 
 4.7758366637662786e-01  4.8383278530437729e-01  4.9016367312441200e-01  4.9657739977184179e-01 
 5.0307504918173529e-01  5.0965771947230765e-01  5.1632652313050564e-01  5.2308258720001954e-01 
 5.2992705347175761e-01  5.3686107867680999e-01  5.4388583468194007e-01  5.5100250868763223e-01 
 5.5821230342873196e-01  5.6551643737771040e-01  5.7291614495058962e-01  5.8041267671556118e-01 
 5.8800729960433595e-01  5.9570129712625830e-01  6.0349596958522267e-01  6.1139263429942470e-01 
 6.1939262582399679e-01  6.2749729617654770e-01  6.3570801506565666e-01  6.4402617012235830e-01 
 6.5245316713465518e-01  6.6099043028509941e-01  6.6963940239148312e-01  6.7840154515067741e-01 
 6.8727833938566352e-01  6.9627128529579474e-01  7.0538190271033407e-01  7.1461173134530853e-01 
 7.2396233106372532e-01  7.3343528213919229e-01  7.4303218552298778e-01  7.5275466311462513e-01 
 7.6260435803595916e-01  7.7258293490887198e-01  7.8269208013660663e-01  7.9293350218876713e-01 
 8.0330893189005592e-01  8.1382012271278725e-01  8.2446885107322765e-01  8.3525691663181489e-01 
 8.4618614259730529e-01  8.5725837603489963e-01  8.6847548817840159e-01  8.7983937474646134e-01 
 8.9135195626295616e-01  9.0301517838156331e-01  9.1483101221458030e-01  9.2680145466604791e-01 
 9.3892852876923139e-01  9.5121428402851738e-01  9.6366079676578786e-01  9.7627017047131626e-01 
 9.8904453615927168e-01  1.0019860527278595e+00  1.0150969073241822e+00  1.0283793157138716e+00 
 1.0418355226555587e+00  1.0554678022802439e+00  1.0692784584756301e+00  1.0832698252754849e+00 
 1.0974442672540980e+00  1.1118041799259009e+00  1.1263519901503125e+00  1.1410901565418865e+00 
 1.1560211698858207e+00  1.1711475535589080e+00  1.1864718639559910e+00  1.2019966909220008e+00 
 1.2177246581896468e+00  1.2336584238228270e+00  1.2498006806658597e+00  1.2661541567985717e+00 
 1.2827216159973518e+00  1.2995058582022372e+00  1.3165097199901081e+00  1.3337360750540781e+00 
 1.3511878346891533e+00  1.3688679482842483e+00  1.3867794038206416e+00  1.4049252283769498e+00 
 1.4233084886407117e+00  1.4419322914266657e+00  1.4607997842018092e+00  1.4799141556173274e+00 
 1.4992786360474839e+00  1.5188964981355608e+00  1.5387710573469460e+00  1.5589056725294437e+00 
 1.5793037464809454e+00  1.5999687265244982e+00  1.6209041050909139e+00  1.6421134203089984e+00 
 1.6636002566035040e+00  1.6853682453009053e+00  1.7074210652431017e+00  1.7297624434091514e+00 
 1.7523961555451397e+00  1.7753260268022870e+00  1.7985559323834117e+00  1.8220897981978463e+00 
 1.8459316015249265e+00  1.8700853716861601e+00  1.8945551907261926e+00  1.9193451941026827e+00 
 1.9444595713852066e+00  1.9699025669632930e+00  1.9956784807637553e+00  2.0217916689773743e+00 
 2.0482465447951101e+00  2.0750475791539413e+00  2.1021993014924636e+00  2.1297063005163759e+00 
 2.1575732249739823e+00  2.1858047844418422e+00  2.2144057501207000e+00  2.2433809556418276e+00 
 2.2727352978839224e+00  2.3024737378006899e+00  2.3326013012592557e+00  2.3631230798895513e+00 
 2.3940442319448092e+00  2.4253699831733231e+00  2.4571056277016128e+00  2.4892565289291286e+00 
 2.5218281204347051e+00  2.5548259068948296e+00  2.5882554650139524e+00  2.6221224444669611e+00 
 2.6564325688539894e+00  2.6911916366677207e+00  2.7264055222733452e+00  2.7620801769013430e+00 
 2.7982216296532547e+00  2.8348359885206165e+00  2.8719294414172216e+00  2.9095082572248971e+00 
 2.9475787868529535e+00  2.9861474643115118e+00  3.0252208077988580e+00  3.0648054208030402e+00 
 3.1049079932178776e+00  3.1455353024735446e+00  3.1866942146820074e+00  3.2283916857973920e+00 
 3.2706347627915617e+00  3.3134305848450700e+00  3.3567863845537018e+00  3.4007094891508003e+00 
 3.4452073217455825e+00  3.4902874025776662e+00  3.5359573502880073e+00  3.5822248832064680e+00 
 3.6290978206562321e+00  3.6765840842752917e+00  3.7246916993552182e+00  3.7734287961974631e+00 
 3.8228036114873909e+00  3.8728244896863027e+00  3.9234998844416751e+00  3.9748383600158208e+00 
 4.0268485927333089e+00  4.0795393724472575e+00  4.1329196040248481e+00  4.1869983088522691e+00 
 4.2417846263593457e+00  4.2972878155641343e+00  4.3535172566377147e+00  4.4104824524894592e+00 
 4.4681930303730493e+00  4.5266587435135035e+00  4.5858894727554977e+00  4.6458952282332486e+00 
 4.7066861510622502e+00  4.7682725150531500e+00  4.8306647284480437e+00  4.8938733356794941e+00 
 4.9579090191525754e+00  5.0227826010501877e+00  5.0885050451620861e+00  5.1550874587377518e+00 
 5.2225410943635504e+00  5.2908773518644487e+00  5.3601077802306127e+00  5.4302440795692117e+00 
 5.5012981030817629e+00  5.5732818590673565e+00  5.6462075129520830e+00  5.7200873893450188e+00 
 5.7949339741211148e+00  5.8707599165313402e+00  5.9475780313404369e+00  6.0254013009926410e+00 
 6.1042428778057509e+00  6.1841160861938977e+00  6.2650344249194179e+00  6.3470115693741258e+00 
 6.4300613738905597e+00  6.5141978740833490e+00  6.5994352892212804e+00  6.6857880246303836e+00 
 6.7732706741284714e+00  6.8618980224915278e+00  6.9516850479523651e+00  7.0426469247319901e+00 
 7.1347990256040745e+00  7.2281569244929997e+00  7.3227363991058754e+00  7.4185534335990209e+00 
 7.5156242212793218e+00  7.6139651673409290e+00  7.7135928916377923e+00  7.8145242314924372e+00 
 7.9167762445415448e+00  8.0203662116186578e+00  8.1253116396747824e+00  8.2316302647370385e+00 
 8.3393400549061134e+00  8.4484592133929031e+00  8.5590061815949063e+00  8.6709996422128608e+00 
 8.7844585224081690e+00  8.8994019970016218e+00  9.0158494917140093e+00  9.1338206864490878e+00 
 9.2533355186195543e+00  9.3744141865165016e+00  9.4970771527229836e+00  9.6213451475722369e+00 
 9.7472391726511614e+00  9.8747805043496371e+00  1.0003990697456299e+01  1.0134891588801278e+01 
 1.0267505300946786e+01  1.0401854245925811e+01  1.0537961129029817e+01  1.0675848952645996e+01 
 1.0815541020144725e+01  1.0957060939817893e+01  1.1100432628868756e+01  1.1245680317453999e+01 
 1.1392828552778701e+01  1.1541902203244856e+01  1.1692926462654203e+01  1.1845926854466033e+01 
 1.2000929236110721e+01  1.2157959803359685e+01  1.2317045094752537e+01  1.2478211996082161e+01 
 1.2641487744938496e+01  1.2806899935311668e+01  1.2974476522255568e+01  1.3144245826612240e+01 
 1.3316236539798183e+01  1.3490477728653286e+01  1.3666998840353173e+01  1.3845829707385857e+01 
 1.4027000552593506e+01  1.4210541994280160e+01  1.4396485051386312e+01  1.4584861148731175e+01 
 1.4775702122323557e+01  1.4969040224742210e+01  1.5164908130586607e+01  1.5363338941999023e+01 
 1.5564366194258870e+01  1.5768023861450271e+01  1.5974346362203653e+01  1.6183368565512733e+01 
 1.6395125796627372e+01  1.6609653843023626e+01  1.6826988960451935e+01  1.7047167879064418e+01 
 1.7270227809622373e+01  1.7496206449784967e+01  1.7725141990480239e+01  1.7957073122359454e+01 
 1.8192039042335921e+01  1.8430079460209353e+01  1.8671234605376934e+01  1.8915545233632169e+01 
 1.9163052634052715e+01  1.9413798635978331e+01  1.9667825616080151e+01  1.9925176505522451e+01 
 2.0185894797217994e+01  2.0450024553178654e+01  2.0717610411961836e+01  2.0988697596214553e+01 
 2.1263331920316165e+01  2.1541559798121096e+01  2.1823428250802905e+01  2.2108984914800971e+01 
 2.2398278049871159e+01  2.2691356547241845e+01  2.2988269937876645e+01  2.3289068400845245e+01 
 2.3593802771803826e+01  2.3902524551586374e+01  2.4215285914908460e+01  2.4532139719184890e+01 
 2.4853139513462729e+01  2.5178339547471261e+01  2.5507794780790157e+01  2.5841560892138027e+01 
 2.6179694288782080e+01  2.6522252116071144e+01  2.6869292267093350e+01  2.7220873392460213e+01 
 2.7577054910218710e+01  2.7937897015893093e+01  2.8303460692658057e+01  2.8673807721645055e+01 
 2.9049000692383451e+01  2.9429103013378288e+01  2.9814178922826507e+01  3.0204293499473305e+01 
 3.0599512673610654e+01  3.0999903238219645e+01  3.1405532860258667e+01  3.1816470092099330e+01 
 3.2232784383111785e+01  3.2654546091402125e+01  3.3081826495702892e+01  3.3514697807419381e+01 
 3.3953233182833550e+01  3.4397506735467594e+01  3.4847593548609325e+01  3.5303569688001417e+01 
 3.5765512214696692e+01  3.6233499198081624e+01  3.6707609729070278e+01  3.7187923933470799e+01 
 3.7674522985526934e+01  3.8167489121636628e+01  3.8666905654250193e+01  3.9172856985950311e+01 
 3.9685428623716241e+01  4.0204707193374809e+01  4.0730780454240076e+01  4.1263737313945313e+01 
 4.1803667843468290e+01  4.2350663292353588e+01  4.2904816104133971e+01  4.3466219931953567e+01 
 4.4034969654395461e+01  4.4611161391516447e+01  4.5194892521091475e+01  4.5786261695070785e+01 
 4.6385368856252292e+01  4.6992315255172166e+01  4.7607203467216429e+01  4.8230137409956399e+01 
 4.8861222360711039e+01  4.9500564974339078e+01  5.0148273301263920e+01  5.0804456805734503e+01 
 5.1469226384324692e+01  5.2142694384675551e+01  5.2824974624482103e+01  5.3516182410728732e+01 
 5.4216434559176456e+01  5.4925849414105052e+01  5.5644546868313469e+01  5.6372648383382021e+01 
 5.7110277010199731e+01  5.7857557409760147e+01  5.8614615874229386e+01  5.9381580348289845e+01 
 6.0158580450763068e+01  6.0945747496515693e+01  6.1743214518652017e+01  6.2551116290996823e+01 
 6.3369589350872502e+01  6.4198772022174353e+01  6.5038804438747121e+01  6.5889828568068694e+01 
 6.6751988235242422e+01  6.7625429147304118e+01  6.8510298917846754e+01  6.9406747091967645e+01 
 7.0314925171541859e+01  7.1234986640826378e+01  7.2167086992399362e+01  7.3111383753438716e+01 
 7.4068036512344548e+01  7.5037206945710082e+01  7.6019058845645233e+01  7.7013758147458020e+01 
 7.8021472957697924e+01  7.9042373582566341e+01  8.0076632556698684e+01  8.1124424672323400e+01 
 8.2185927008801571e+01  8.3261318962554697e+01  8.4350782277382478e+01  8.5454501075178158e+01 
 8.6572661887045527e+01  8.7705453684823112e+01  8.8853067913020908e+01  9.0015698521174883e+01 
 9.1193541996625015e+01  9.2386797397722034e+01  9.3595666387468782e+01  9.4820353267601746e+01 
 9.6061065013118551e+01  9.7318011307257194e+01  9.8591404576933058e+01  9.9881460028639509e+01 
 1.0118839568481832e+02  1.0251243242070623e+02  1.0385379400166255e+02  1.0521270712098723e+02 
 1.0658940143823179e+02  1.0798410961801251e+02  1.0939706736933128e+02  1.1082851348541108e+02 
 1.1227868988405248e+02  1.1374784164851845e+02  1.1523621706895388e+02  1.1674406768434730e+02 
 1.1827164832504157e+02 
  </PP_R>
  <PP_RAB>
 3.0170327418483045e-07  3.0565102150955907e-07  3.0965042458440178e-07  3.1370215931799724e-07 
 3.1780691046315891e-07  3.2196537173260039e-07  3.2617824591617308e-07  3.3044624499964137e-07 
 3.3477009028500867e-07  3.3915051251241927e-07  3.4358825198365547e-07  3.4808405868725033e-07 
 3.5263869242523704e-07  3.5725292294155771e-07  3.6192753005215240e-07  3.6666330377674805e-07 
 3.7146104447237629e-07  3.7632156296863339e-07  3.8124568070471405e-07  3.8623422986823532e-07 
 3.9128805353587919e-07  3.9640800581587405e-07  4.0159495199234108e-07  4.0684976867153018e-07 
 4.1217334392996612e-07  4.1756657746453873e-07  4.2303038074455170e-07  4.2856567716576363e-07 
 4.3417340220644436e-07  4.3985450358547271e-07  4.4560994142250335e-07  4.5144068840022903e-07 
 4.5734772992876736e-07  4.6333206431219504e-07  4.6939470291726670e-07  4.7553667034433602e-07 
 4.8175900460051696e-07  4.8806275727510829e-07  4.9444899371731582e-07  5.0091879321629794e-07 
 5.0747324918356883e-07  5.1411346933778755e-07  5.2084057589196388e-07  5.2765570574311671e-07 
 5.3456001066441182e-07  5.4155465749981379e-07  5.4864082836128571e-07  5.5581972082856890e-07 
 5.6309254815157678e-07  5.7046053945543753e-07  5.7792493994821712e-07  5.8548701113136512e-07 
 5.9314803101291010e-07  6.0090929432344586e-07  6.0877211273494471e-07  6.1673781508243220e-07 
 6.2480774758856421e-07  6.3298327409114160e-07  6.4126577627360186e-07  6.4965665389852756e-07 
 6.5815732504420718e-07  6.6676922634429738e-07  6.7549381323061503e-07  6.8433256017910926e-07 
 6.9328696095905149e-07  7.0235852888548565e-07  7.1154879707498282e-07  7.2085931870474134e-07 
 7.3029166727507529e-07  7.3984743687534356e-07  7.4952824245335198e-07  7.5933572008828493e-07 
 7.6927152726720516e-07  7.7933734316517432e-07  7.8953486892903662e-07  7.9986582796491725e-07 
 8.1033196622948210e-07  8.2093505252500832e-07  8.3167687879831648e-07  8.4255926044361255e-07 
 8.5358403660929597e-07  8.6475307050877900e-07  8.7606824973537398e-07  8.8753148658130150e-07 
 8.9914471836087193e-07  9.1090990773789770e-07  9.2282904305738403e-07  9.3490413868156942e-07 
 9.4713723533035426e-07  9.5953040042618805e-07  9.7208572844346906e-07  9.8480534126251529e-07 
 9.9769138852816685e-07  1.0107460480130817e-06  1.0239715259857841e-06  1.0373700575835294e-06 
 1.0509439071900483e-06  1.0646953688182295e-06  1.0786267664978191e-06  1.0927404546681827e-06 
 1.1070388185762134e-06  1.1215242746794428e-06  1.1361992710544293e-06  1.1510662878104893e-06 
 1.1661278375088375e-06  1.1813864655872214e-06  1.1968447507901039e-06  1.2125053056044761e-06 
 1.2283707767013755e-06  1.2444438453831785e-06  1.2607272280367483e-06  1.2772236765925086e-06 
 1.2939359789895296e-06  1.3108669596466920e-06  1.3280194799400264e-06  1.3453964386862842e-06 
 1.3630007726328538e-06  1.3808354569540719e-06  1.3989035057540374e-06  1.4172079725760007e-06 
 1.4357519509184218e-06  1.4545385747577774e-06  1.4735710190782089e-06  1.4928525004081060e-06 
 1.5123862773637054e-06  1.5321756511998047e-06  1.5522239663676829e-06  1.5725346110803210e-06 
 1.5931110178850159e-06  1.6139566642434915e-06  1.6350750731195980e-06  1.6564698135746977e-06 
 1.6781445013708518e-06  1.7001027995818823e-06  1.7223484192124511e-06  1.7448851198252233e-06 
 1.7677167101762407e-06  1.7908470488586147e-06  1.8142800449546351e-06  1.8380196586964167e-06 
 1.8620699021351810e-06  1.8864348398193122e-06  1.9111185894812708e-06  1.9361253227334985e-06 
 1.9614592657734340e-06  1.9871247000977474e-06  2.0131259632259271e-06  2.0394674494333261e-06 
 2.0661536104938091e-06  2.0931889564321112e-06  2.1205780562860444e-06  2.1483255388786691e-06 
 2.1764360936005866e-06  2.2049144712024514e-06  2.2337654845978594e-06  2.2629940096767437e-06 
 2.2926049861294063e-06  2.3226034182813466e-06  2.3529943759389968e-06  2.3837829952465355e-06 
 2.4149744795539045e-06  2.4465741002961914e-06  2.4785871978845115e-06  2.5110191826085509e-06 
 2.5438755355509197e-06  2.5771618095134671e-06  2.6108836299557162e-06  2.6450466959455833e-06 
 2.6796567811225328e-06  2.7147197346733364e-06  2.7502414823205934e-06  2.7862280273242025e-06 
 2.8226854514959221e-06  2.8596199162272119e-06  2.8970376635305127e-06  2.9349450170941805e-06 
 2.9733483833511907e-06  3.0122542525618420e-06  3.0516691999106368e-06  3.0915998866174815e-06 
 3.1320530610634723e-06  3.1730355599313715e-06  3.2145543093610328e-06  3.2566163261199242e-06 
 3.2992287187889920e-06  3.3423986889640182e-06  3.3861335324727127e-06  3.4304406406077214e-06 
 3.4753275013757719e-06  3.5208017007631704e-06  3.5668709240178471e-06  3.6135429569481816e-06 
 3.6608256872388204e-06  3.7087271057837224e-06  3.7572553080366309e-06  3.8064184953792280e-06 
 3.8562249765071910e-06  3.9066831688343708e-06  3.9578015999153673e-06  4.0095889088867000e-06 
 4.0620538479268451e-06  4.1152052837353701e-06  4.1690521990314338e-06  4.2236036940718798e-06 
 4.2788689881892098e-06  4.3348574213496681e-06  4.3915784557317127e-06  4.4490416773251569e-06 
 4.5072567975512193e-06  4.5662336549037764e-06  4.6259822166120890e-06  4.6865125803252931e-06 
 4.7478349758189259e-06  4.8099597667237783e-06  4.8728974522773796e-06  4.9366586690983808e-06 
 5.0012541929841851e-06  5.0666949407320719e-06  5.1329919719841680e-06  5.2001564910965470e-06 
 5.2681998490327942e-06  5.3371335452823543e-06  5.4069692298039615e-06  5.4777187049945185e-06 
 5.5493939276837160e-06  5.6220070111547875e-06  5.6955702271916648e-06  5.7700960081529478e-06 
 5.8455969490729925e-06  5.9220858097905182e-06  5.9995755171050331e-06  6.0780791669615115e-06 
 6.1576100266636231e-06  6.2381815371159470e-06  6.3198073150955195e-06  6.4025011555530957e-06 
 6.4862770339445341e-06  6.5711491085926744e-06  6.6571317230801380e-06  6.7442394086734187e-06 
 6.8324868867787065e-06  6.9218890714298434e-06  7.0124610718088158e-06  7.1042181947992580e-06 
 7.1971759475733485e-06  7.2913500402125572e-06  7.3867563883626757e-06  7.4834111159236250e-06 
 7.5813305577744053e-06  7.6805312625337507e-06  7.7810299953568764e-06  7.8828437407688162e-06 
 7.9859897055348764e-06  8.0904853215686017e-06  8.1963482488778119e-06  8.3035963785491821e-06 
 8.4122478357718889e-06  8.5223209829008041e-06  8.6338344225597803e-06  8.7468070007855314e-06 
 8.8612578102126606e-06  8.9772061933003648e-06  9.0946717456013568e-06  9.2136743190735573e-06 
 9.3342340254351128e-06  9.4563712395633474e-06  9.5801066029381483e-06  9.7054610271304234e-06 
 9.8324556973362263e-06  9.9611120759570711e-06  1.0091451906227161e-05  1.0223497215888035e-05 
 1.0357270320911312e-05  1.0492793829270122e-05  1.0630090644759946e-05  1.0769183970869376e-05 
 1.0910097314701584e-05  1.1052854490947069e-05  1.1197479625908381e-05  1.1343997161577557e-05 
 1.1492431859766849e-05  1.1642808806293547e-05  1.1795153415219515e-05  1.1949491433146263e-05 
 1.2105848943566155e-05  1.2264252371270601e-05  1.2424728486815908e-05  1.2587304411047535e-05 
 1.2752007619683631e-05  1.2918865947958465e-05  1.3087907595326663e-05  1.3259161130228949e-05 
 1.3432655494920331e-05  1.3608420010361374e-05  1.3786484381173522e-05  1.3966878700659266e-05 
 1.4149633455887933e-05  1.4334779532848144e-05  1.4522348221667566e-05  1.4712371221901054e-05 
 1.4904880647887901e-05  1.5099909034179298e-05  1.5297489341036719e-05  1.5497654960002273e-05 
 1.5700439719542000e-05  1.5905877890762883e-05  1.6114004193204837e-05  1.6324853800708327e-05 
 1.6538462347358871e-05  1.6754865933509257e-05  1.6974101131880624e-05  1.7196204993743269e-05 
 1.7421215055178487e-05  1.7649169343422203e-05  1.7880106383291694e-05  1.8114065203696337e-05 
 1.8351085344233638e-05  1.8591206861871469e-05  1.8834470337717832e-05  1.9080916883879144e-05 
 1.9330588150408245e-05  1.9583526332343434e-05  1.9839774176839475e-05  2.0099374990391984e-05 
 2.0362372646156326e-05  2.0628811591362288e-05  2.0898736854825754e-05  2.1172194054558701e-05 
 2.1449229405478759e-05  2.1729889727219561e-05  2.2014222452043514e-05  2.2302275632857831e-05 
 2.2594097951335676e-05  2.2889738726143435e-05  2.3189247921275710e-05  2.3492676154499329e-05 
 2.3800074705907902e-05  2.4111495526588278e-05  2.4426991247400310e-05  2.4746615187871761e-05 
 2.5070421365209298e-05  2.5398464503427590e-05  2.5730800042597759e-05  2.6067484148216915e-05 
 2.6408573720700263e-05  2.6754126404997362e-05  2.7104200600334341e-05  2.7458855470083369e-05 
 2.7818150951761582e-05  2.8182147767160530e-05  2.8550907432608363e-05  2.8924492269366230e-05 
 2.9302965414160708e-05  2.9686390829854072e-05  3.0074833316254166e-05  3.0468358521065744e-05 
 3.0867032950984993e-05  3.1270923982939494e-05  3.1680099875474930e-05  3.2094629780291022e-05 
 3.2514583753928308e-05  3.2940032769607862e-05  3.3371048729225946e-05  3.3807704475505590e-05 
 3.4250073804307235e-05  3.4698231477100270e-05  3.5152253233598070e-05  3.5612215804558120e-05 
 3.6078196924749662e-05  3.6550275346091082e-05  3.7028530850959191e-05  3.7513044265672587e-05 
 3.8003897474151557e-05  3.8501173431756643e-05  3.9004956179308184e-05  3.9515330857289601e-05 
 4.0032383720236201e-05  4.0556202151312470e-05  4.1086874677079998e-05  4.1624490982458683e-05 
 4.2169141925883727e-05  4.2720919554660875e-05  4.3279917120522731e-05  4.3846229095388297e-05 
 4.4419951187329255e-05  4.5001180356744647e-05  4.5590014832747493e-05  4.6186554129765736e-05 
 4.6790899064360352e-05  4.7403151772263716e-05  4.8023415725640684e-05  4.8651795750575709e-05 
 4.9288398044788516e-05  4.9933330195582049e-05  5.0586701198024788e-05  5.1248621473371227e-05 
 5.1919202887723361e-05  5.2598558770936232e-05  5.3286803935771061e-05  5.3984054697298764e-05 
 5.4690428892557652e-05  5.5406045900467832e-05  5.6131026662006948e-05  5.6865493700649215e-05 
 5.7609571143072266e-05  5.8363384740134856e-05  5.9127061888129019e-05  5.9900731650310411e-05 
 6.0684524778710230e-05  6.1478573736232754e-05  6.2283012719041613e-05  6.3097977679239564e-05 
 6.3923606347844605e-05  6.4760038258066809e-05  6.5607414768889763e-05  6.6465879088960678e-05 
 6.7335576300792832e-05  6.8216653385285003e-05  6.9109259246561588e-05  7.0013544737137500e-05 
 7.0929662683413011e-05  7.1857767911501463e-05  7.2798017273395405e-05  7.3750569673474873e-05 
 7.4715586095362650e-05  7.5693229629130850e-05  7.6683665498863615e-05  7.7687061090580270e-05 
 7.8703585980523892e-05  7.9733411963820374e-05  8.0776713083511984e-05  8.1833665659971101e-05 
 8.2904448320698780e-05  8.3989242030513265e-05  8.5088230122133435e-05  8.6201598327162457e-05 
 8.7329534807476994e-05  8.8472230187026642e-05  8.9629877584050397e-05  9.0802672643713626e-05 
 9.1990813571172757e-05  9.3194501165072484e-05  9.4413938851481034e-05  9.5649332718269797e-05 
 9.6900891549942580e-05  9.8168826862920919e-05  9.9453352941290300e-05  1.0075468687301537e-04 
 1.0207304858662785e-04  1.0340866088839522e-04  1.0476174949997536e-04  1.0613254309656408e-04 
 1.0752127334554186e-04  1.0892817494562602e-04  1.1035348566653573e-04  1.1179744638917492e-04 
 1.1326030114634264e-04  1.1474229716397457e-04  1.1624368490292496e-04  1.1776471810129519e-04 
 1.1930565381731593e-04  1.2086675247279081e-04  1.2244827789710815e-04  1.2405049737182895e-04 
 1.2567368167585766e-04  1.2731810513120516e-04  1.2898404564934919e-04  1.3067178477820250e-04 
 1.3238160774969477e-04  1.3411380352797782e-04  1.3586866485826087e-04  1.3764648831628558e-04 
 1.3944757435844780e-04  1.4127222737257521e-04  1.4312075572937014e-04  1.4499347183452458e-04 
 1.4689069218151756e-04  1.4881273740510324e-04  1.5075993233549910e-04  1.5273260605328293e-04 
 1.5473109194500811e-04  1.5675572775954708e-04  1.5880685566517107e-04  1.6088482230737820e-04 
 1.6298997886747668e-04  1.6512268112193570e-04  1.6728328950251227e-04  1.6947216915716518e-04 
 1.7168969001176581e-04  1.7393622683261652e-04  1.7621215928978712e-04  1.7851787202127951e-04 
 1.8085375469803334e-04  1.8322020208978056e-04  1.8561761413176273e-04  1.8804639599232106e-04 
 1.9050695814137072e-04  1.9299971641977123e-04  1.9552509210960472e-04  1.9808351200537353e-04 
 2.0067540848612899e-04  2.0330121958854548e-04  2.0596138908094902e-04  2.0865636653831523e-04 
 2.1138660741824879e-04  2.1415257313795667e-04  2.1695473115222860e-04  2.1979355503243858e-04 
 2.2266952454657907e-04  2.2558312574034285e-04  2.2853485101926633e-04  2.3152519923194716e-04 
 2.3455467575435058e-04  2.3762379257521928e-04  2.4073306838260077e-04  2.4388302865150697e-04 
 2.4707420573272048e-04  2.5030713894276345e-04  2.5358237465504280e-04  2.5690046639218947e-04 
 2.6026197491960438e-04  2.6366746834022937e-04  2.6711752219055787e-04  2.7061271953790218e-04 
 2.7415365107893286e-04  2.7774091523950805e-04  2.8137511827580923e-04  2.8505687437679883e-04 
 2.8878680576802096e-04  2.9256554281675845e-04  2.9639372413856632e-04  3.0027199670519929e-04 
 3.0420101595395179e-04  3.0818144589842846e-04  3.1221395924076352e-04  3.1629923748530998e-04 
 3.2043797105381404e-04  3.2463085940209957e-04  3.2887861113827687e-04  3.3318194414249947e-04 
 3.3754158568828738e-04  3.4195827256543822e-04  3.4643275120454641e-04  3.5096577780315160e-04 
 3.5555811845353839e-04  3.6021054927220619e-04  3.6492385653103703e-04  3.6969883679017563e-04 
 3.7453629703265077e-04  3.7943705480075702e-04  3.8440193833422150e-04  3.8943178671017832e-04 
 3.9452744998497445e-04  3.9968978933783191e-04  4.0491967721638752e-04  4.1021799748414063e-04 
 4.1558564556982709e-04  4.2102352861874890e-04  4.2653256564608393e-04  4.3211368769220204e-04 
 4.3776783798001246e-04  4.4349597207437132e-04  4.4929905804357440e-04  4.5517807662296181e-04 
 4.6113402138066615e-04  4.6716789888552753e-04  4.7328072887720541e-04  4.7947354443851739e-04 
 4.8574739217003291e-04  4.9210333236695094e-04  4.9854243919829247e-04  5.0506580088843821e-04 
 5.1167451990103926e-04  5.1836971312533826e-04  5.2515251206492559e-04  5.3202406302896570e-04 
 5.3898552732592638e-04  5.4603808145984288e-04  5.5318291732914953e-04  5.6042124242811368e-04 
 5.6775428005090549e-04  5.7518326949833548e-04  5.8270946628730244e-04  5.9033414236297696e-04 
 5.9805858631376311e-04  6.0588410358907363e-04  6.1381201671995348e-04  6.2184366554259105e-04 
 6.2998040742475326e-04  6.3822361749518513e-04  6.4657468887600715e-04  6.5503503291815951e-04 
 6.6360607943992183e-04  6.7228927696855612e-04  6.8108609298511160e-04  6.8999801417243226e-04 
 6.9902654666641022e-04  7.0817321631052568e-04  7.1743956891371892e-04  7.2682717051163344e-04 
 7.3633760763128350e-04  7.4597248755917795e-04  7.5573343861295669e-04  7.6562211041657962e-04 
 7.7564017417911771e-04  7.8578932297719063e-04  7.9607127204110132e-04  8.0648775904471417e-04 
 8.1704054439912398e-04  8.2773141155017269e-04  8.3856216727985419e-04  8.4953464201166528e-04 
 8.6065069011995079e-04  8.7191219024329841e-04  8.8332104560203252e-04  8.9487918431986309e-04 
 9.0658855974974260e-04  9.1845115080398825e-04  9.3046896228872250e-04  9.4264402524268953e-04 
 9.5497839728050818e-04  9.6747416294040679e-04  9.8013343403652417e-04  9.9295835001580622e-04 
 1.0059510783195780e-03  1.0191138147498467e-03  1.0324487838403974e-03  1.0459582392327450e-03 
 1.0596444640570051e-03  1.0735097713177469e-03  1.0875565042848987e-03  1.1017870368897642e-03 
 1.1162037741262237e-03  1.1308091524571836e-03  1.1456056402263440e-03  1.1605957380753547e-03 
 1.1757819793664305e-03  1.1911669306104941e-03  1.2067531919009254e-03  1.2225433973529752e-03 
 1.2385402155489493e-03  1.2547463499891964e-03  1.2711645395490098e-03  1.2877975589415012e-03 
 1.3046482191865368e-03  1.3217193680858037e-03  1.3390138907040969e-03  1.3565347098569017e-03 
 1.3742847866043569e-03  1.3922671207516780e-03  1.4104847513561373e-03  1.4289407572406654e-03 
 1.4476382575141847e-03  1.4665804120987428e-03  1.4857704222635490e-03  1.5052115311659951e-03 
 1.5249070243997598e-03  1.5448602305500718e-03  1.5650745217562637e-03  1.5855533142816608e-03 
 1.6063000690909421e-03  1.6273182924350490e-03  1.6486115364437528e-03  1.6701833997259700e-03 
 1.6920375279779395e-03  1.7141776145993498e-03  1.7366074013175365e-03  1.7593306788198390e-03 
 1.7823512873942396e-03  1.8056731175783783e-03  1.8293001108170639e-03  1.8532362601283892e-03 
 1.8774856107785579e-03  1.9020522609655452e-03  1.9269403625117080e-03  1.9521541215654361e-03 
 1.9776977993120246e-03  2.0035757126938085e-03  2.0297922351397418e-03  2.0563517973045155e-03 
 2.0832588878173506e-03  2.1105180540405832e-03  2.1381339028381870e-03  2.1661111013543356e-03 
 2.1944543778021665e-03  2.2231685222628603e-03  2.2522583874951731e-03  2.2817288897555646e-03 
 2.3115850096290607e-03  2.3418317928709798e-03  2.3724743512596805e-03  2.4035178634604624e-03 
 2.4349675759007786e-03  2.4668288036568758e-03  2.4991069313520823e-03  2.5318074140668039e-03 
 2.5649357782604491e-03  2.5984976227054158e-03  2.6324986194332955e-03  2.6669445146934607e-03 
 2.7018411299241951e-03  2.7371943627365293e-03  2.7730101879109544e-03  2.8092946584071681e-03 
 2.8460539063870460e-03  2.8832941442509872e-03  2.9210216656878254e-03  2.9592428467384788e-03 
 2.9979641468735156e-03  3.0371921100848186e-03  3.0769333659915426e-03  3.1171946309605132e-03 
 3.1579827092413407e-03  3.1993044941163334e-03  3.2411669690654869e-03  3.2835772089467030e-03 
 3.3265423811914626e-03  3.3700697470161359e-03  3.4141666626491475e-03  3.4588405805741941e-03 
 3.5040990507897319e-03  3.5499497220849484e-03  3.5964003433324216e-03  3.6434587647976974e-03 
 3.6911329394660091e-03  3.7394309243863437e-03  3.7883608820331077e-03  3.8379310816855998e-03 
 3.8881499008255513e-03  3.9390258265529082e-03  3.9905674570202155e-03  4.0427835028856952e-03 
 4.0956827887853788e-03  4.1492742548244884e-03  4.2035669580883384e-03  4.2585700741729999e-03 
 4.3142928987360057e-03  4.3707448490673323e-03  4.4279354656809470e-03  4.4858744139271763e-03 
 4.5445714856261745e-03  4.6040366007227638e-03  4.6642798089629274e-03  4.7253112915922428e-03 
 4.7871413630765358e-03  4.8497804728450476e-03  4.9132392070564256e-03  4.9775282903877721e-03 
 5.0426585878471939e-03  5.1086411066099766e-03  5.1754869978788360e-03  5.2432075587684965e-03 
 5.3118142342149302e-03  5.3813186189095785e-03  5.4517324592588817e-03  5.5230676553694501e-03 
 5.5953362630592101e-03  5.6685504958948699e-03  5.7427227272560336e-03  5.8178654924263395e-03 
 5.8939914907119497e-03  5.9711135875877581e-03  6.0492448168716975e-03  6.1283983829274764e-03 
 6.2085876628961622e-03  6.2898262089569048e-03  6.3721277506173556e-03  6.4555061970339427e-03 
 6.5399756393625585e-03  6.6255503531399990e-03  6.7122448006965733e-03  6.8000736336002541e-03 
 6.8890516951328491e-03  6.9791940227985298e-03  7.0705158508652206e-03  7.1630326129392191e-03 
 7.2567599445735155e-03  7.3517136859102350e-03  7.4479098843576652e-03  7.5453647973022951e-03 
 7.6440948948563667e-03  7.7441168626413573e-03  7.8454476046078952e-03  7.9481042458925209e-03 
 8.0521041357119582e-03  8.1574648502951205e-03  8.2642041958535355e-03  8.3723402115906571e-03 
 8.4818911727505171e-03  8.5928755937062923e-03  8.7053122310892794e-03  8.8192200869588056e-03 
 8.9346184120136247e-03  9.0515267088453304e-03  9.1699647352343431e-03  9.2899525074890098e-03 
 9.4115103038284291e-03  9.5346586678095001e-03  9.6594184117988410e-03  9.7858106204901270e-03 
 9.9138566544674685e-03  1.0043578153815335e-02  1.0174997041775886e-02  1.0308135528453973e-02 
 1.0443016114570727e-02  1.0579661595266234e-02  1.0718095063951959e-02  1.0858339916213593e-02 
 1.1000419853764968e-02  1.1144358888453694e-02  1.1290181346319220e-02  1.1437911871703997e-02 
 1.1587575431418430e-02  1.1739197318960323e-02  1.1892803158789543e-02  1.2048418910658621e-02 
 1.2206070874000007e-02  1.2365785692370726e-02  1.2527590357955242e-02  1.2691512216127111e-02 
 1.2857578970070531e-02  1.3025818685462173e-02  1.3196259795214368e-02  1.3368931104280331e-02 
 1.3543861794522263e-02  1.3721081429643171e-02  1.3900619960183191e-02  1.4082507728581302e-02 
 1.4266775474303274e-02  1.4453454339036711e-02  1.4642575871954062e-02  1.4834172035044524e-02 
 1.5028275208515669e-02  1.5224918196265803e-02  1.5424134231427883e-02  1.5625956981986010e-02 
 1.5830420556465406e-02  1.6037559509696750e-02  1.6247408848656174e-02  1.6460004038381430e-02 
 1.6675381007965572e-02  1.6893576156629082e-02  1.7114626359871404e-02  1.7338568975703014e-02 
 1.7565441850958992e-02  1.7795283327695227e-02  1.8028132249668340e-02  1.8264027968900347e-02 
 1.8503010352329249e-02  1.8745119788546653e-02  1.8990397194623518e-02  1.9238884023025257e-02 
 1.9490622268617291e-02  1.9745654475762289e-02  2.0004023745510295e-02  2.0265773742882767e-02 
 2.0530948704252289e-02  2.0799593444818475e-02  2.1071753366181879e-02  2.1347474464016979e-02 
 2.1626803335845549e-02  2.1909787188911768e-02  2.2196473848160321e-02  2.2486911764318968e-02 
 2.2781150022086815e-02  2.3079238348429731e-02  2.3381227120984352e-02  2.3687167376572001e-02 
 2.3997110819824044e-02  2.4311109831920079e-02  2.4629217479440503e-02  2.4951487523334873e-02 
 2.5277974428007687e-02  2.5608733370522808e-02  2.5943820249928817e-02  2.6283291696705863e-02 
 2.6627205082336430e-02  2.6975618529001235e-02  2.7328590919402027e-02  2.7686181906712886e-02 
 2.8048451924661769e-02  2.8415462197743949e-02  2.8787274751569097e-02  2.9163952423343756e-02 
 2.9545558872490989e-02  2.9932158591408967e-02  3.0323816916370323e-02  3.0720600038564166e-02 
 3.1122575015282518e-02  3.1529809781253200e-02  3.1942373160120968e-02  3.2360334876078672e-02 
 3.2783765565651164e-02  3.3212736789632782e-02  3.3647321045181380e-02  3.4087591778070490e-02 
 3.4533623395101860e-02  3.4985491276680367e-02  3.5443271789553484e-02  3.5907042299717459e-02 
 3.6376881185492309e-02  3.6852867850768009e-02  3.7335082738423876e-02  3.7823607343923663e-02 
 3.8318524229088394e-02  3.8819917036049652e-02  3.9327870501385150e-02  3.9842470470439519e-02 
 4.0363803911832405e-02  4.0891958932156081e-02  4.1427024790866095e-02  4.1969091915366095e-02 
 4.2518251916290301e-02  4.3074597602985910e-02  4.3638222999198124e-02  4.4209223358960402e-02 
 4.4787695182692572e-02  4.5373736233509661e-02  4.5967445553744095e-02  4.6568923481684080e-02 
 4.7178271668531016e-02  4.7795593095578792e-02  4.8420992091617834e-02  4.9054574350567016e-02 
 4.9696446949336080e-02  5.0346718365921930e-02  5.1005498497741775e-02  5.1672898680205671e-02 
 5.2349031705533011e-02  5.3034011841814346e-02  5.3727954852323026e-02  5.4430978015079498e-02 
 5.5143200142671489e-02  5.5864741602333741e-02  5.6595724336290287e-02  5.7336271882362969e-02 
 5.8086509394849641e-02  5.8846563665675540e-02  5.9616563145821470e-02  6.0396637967032228e-02 
 6.1186919963809247e-02  6.1987542695690949e-02  6.2798641469824570e-02  6.3620353363833426e-02 
 6.4452817248983482e-02  6.5296173813652436e-02  6.6150565587107121e-02  6.7016136963590767e-02 
 6.7893034226726157e-02  6.8781405574237828e-02  6.9681401142997965e-02  7.0593173034399756e-02 
 7.1516875340062916e-02  7.2452664167875630e-02  7.3400697668377077e-02  7.4361136061485242e-02 
 7.5334141663574494e-02  7.6319878914907421e-02  7.7318514407425681e-02  7.8330216912904330e-02 
 7.9355157411474753e-02  8.0393509120520665e-02  8.1445447523952427e-02  8.2511150401863631e-02 
 8.3590797860577271e-02  8.4684572363083535e-02  8.5792658759876642e-02  8.6915244320194984e-02 
 8.8052518763670123e-02  8.9204674292389860e-02  9.0371905623380738e-02  9.1554410021515861e-02 
 9.2752387332852959e-02  9.3966040018408997e-02  9.5195573188376376e-02  9.6441194636787270e-02 
 9.7703114876631178e-02  9.8981547175432075e-02  1.0027670759129130e-01  1.0158881500940167e-01 
 1.0291809117904008e-01  1.0426476075104255e-01  1.0562905131577216e-01  1.0701119344158150e-01 
 1.0841142071377947e-01  1.0982996977410774e-01  1.1126708036073378e-01  1.1272299534876719e-01 
 1.1419796079130619e-01  1.1569222596102108e-01  1.1720604339228212e-01  1.1873966892383814e-01 
 1.2029336174205420e-01  1.2186738442471451e-01  1.2346200298539878e-01  1.2507748691843906e-01 
 1.2671410924446508e-01  1.2837214655654527e-01  1.3005187906693189e-01  1.3175359065441661e-01 
 1.3347756891230822e-01  1.3522410519703554e-01  1.3699349467738761e-01  1.3878603638439793e-01 
 1.4060203326188142e-01  1.4244179221763259e-01  1.4430562417529383e-01  1.4619384412690198e-01 
 1.4810677118612312e-01  1.5004472864218313e-01  1.5200804401450463e-01  1.5399704910805842e-01 
 1.5601208006943937e-01  1.5805347744367590e-01  1.6012158623178296e-01  1.6221675594906809e-01 
 1.6433934068420045e-01  1.6648969915905168e-01  1.6866819478932238e-01  1.7087519574595911e-01 
 1.7311107501737638e-01  1.7537621047249272e-01  1.7767098492459124e-01  1.7999578619601614e-01 
 1.8235100718371558e-01  1.8473704592564208e-01  1.8715430566802205e-01  1.8960319493350528e-01 
 1.9208412759020624e-01  1.9459752292164872e-01  1.9714380569762588e-01  1.9972340624598731e-01 
 2.0233676052536531e-01  2.0498431019885352e-01  2.0766650270864748e-01  2.1038379135166552e-01 
 2.1313663535615582e-01  2.1592549995930713e-01  2.1875085648587514e-01  2.2161318242783742e-01 
 2.2451296152509084e-01  2.2745068384720457e-01  2.3042684587624310e-01  2.3344195059067288e-01 
 2.3649650755036697e-01  2.3959103298272158e-01  2.4272604986990012e-01  2.4590208803721819e-01 
 2.4911968424268527e-01  2.5237938226771828e-01  2.5568173300904196e-01  2.5902729457179186e-01 
 2.6241663236383389e-01  2.6585031919132251e-01  2.6932893535550384e-01  2.7285306875078918e-01 
 2.7642331496411016e-01  2.8004027737557424e-01  2.8370456726043775e-01  2.8741680389241259e-01 
 2.9117761464832503e-01  2.9498763511414400e-01  2.9884750919239639e-01  3.0275788921098817e-01 
 3.0671943603344975e-01  3.1073281917062284e-01  3.1479871689380995e-01  3.1891781634940358e-01 
 3.2309081367501546e-01  3.2731841411712637e-01  3.3160133215027204e-01  3.3594029159779432e-01 
 3.4033602575416705e-01  3.4478927750892485e-01  3.4930079947221354e-01  3.5387135410198273e-01 
 3.5850171383284318e-01  3.6319266120661020e-01  3.6794498900455475e-01  3.7275950038138572e-01 
 3.7763700900098485e-01  3.8257833917391770e-01  3.8758432599674458e-01  3.9265581549315293e-01 
 3.9779366475693850e-01  4.0299874209685538e-01  4.0827192718336264e-01  4.1361411119729125e-01 
 4.1902619698045318e-01  4.2450909918822760e-01  4.3006374444413759e-01  4.3569107149645192e-01 
 4.4139203137683614e-01  4.4716758756107872e-01  4.5301871613192118e-01  4.5894640594401842e-01 
 4.6495165879105699e-01  4.7103548957506108e-01  4.7719892647791357e-01  4.8344301113512034e-01 
 4.8976879881185015e-01  4.9617735858127615e-01  5.0266977350525244e-01  5.0924714081735400e-01 
 5.1591057210831115e-01  5.2266119351387252e-01  5.2950014590512096e-01  5.3642858508128910e-01 
 5.4344768196508775e-01  5.5055862280059664e-01  5.5776260935374156e-01  5.6506085911539639e-01 
 5.7245460550714100e-01  5.7994509808971373e-01  5.8753360277418920e-01  5.9522140203592022e-01 
 6.0300979513127972e-01  6.1090009831723813e-01  6.1889364507381350e-01  6.2699178632943320e-01 
 6.3519589068924354e-01  6.4350734466640802e-01  6.5192755291643090e-01  6.6045793847454848e-01 
 6.6909994299622100e-01  6.7785502700078215e-01  6.8672467011826732e-01  6.9571037133947344e-01 
 7.0481364926929391e-01  7.1403604238336560e-01  7.2337910928807503e-01  7.3284442898396629e-01 
 7.4243360113259649e-01  7.5214824632688193e-01  7.6199000636498204e-01  7.7196054452776797e-01 
 7.8206154585991983e-01  7.9229471745470392e-01  8.0266178874247618e-01  8.1316451178295868e-01 
 8.2380466156134247e-01  8.3458403628826650e-01  8.4550445770371252e-01  8.5656777138489293e-01 
 8.6777584705815147e-01  8.7913057891495350e-01  8.9063388593200776e-01  9.0228771219557935e-01 
 9.1409402723004407e-01  9.2605482633074288e-01  9.3817213090119167e-01  9.5044798879470327e-01 
 9.6288447466047911e-01  9.7548369029423099e-01  9.8824776499338796e-01  1.0011788559169543e+00 
 1.0142791484500731e+00  1.0275508565733624e+00  1.0409962232370829e+00  1.0546175207402042e+00 
 1.0684170511144204e+00  1.0823971465132110e+00  1.0965601696059721e+00  1.1109085139773160e+00 
 1.1254446045315918e+00  1.1401708979027003e+00  1.1550898828692717e+00  1.1702040807752734e+00 
 1.1855160459561251e+00  1.2010283661703864e+00  1.2167436630370940e+00  1.2326645924788227e+00 
 1.2487938451705412e+00  1.2651341469943436e+00  1.2816882595001298e+00  1.2984589803723137e+00 
 1.3154491439026381e+00  1.3326616214691809e+00  1.3500993220216131e+00  1.3677651925728340e+00 
 1.3856622186970131e+00  1.4037934250341626e+00  1.4221618758013066e+00  1.4407706753103440e+00 
 1.4596229684926822e+00  1.4787219414307398e+00  1.4980708218964003e+00  1.5176728798965149e+00 
 1.5375314282255403e+00 
  </PP_RAB>
</PP_MESH>


<PP_LOCAL>
1.5770159371341140e+02 1.5770159370592407e+02 1.5770159369811327e+02 1.5770159369038336e+02 
1.5770159368215880e+02 1.5770159367377730e+02 1.5770159366504444e+02 1.5770159365633594e+02 
1.5770159364719939e+02 1.5770159363785373e+02 1.5770159362822287e+02 1.5770159361870628e+02 
1.5770159360847430e+02 1.5770159359810549e+02 1.5770159358775936e+02 1.5770159357669891e+02 
1.5770159356566450e+02 1.5770159355423874e+02 1.5770159354249091e+02 1.5770159353042877e+02 
1.5770159351804864e+02 1.5770159350523608e+02 1.5770159349222220e+02 1.5770159347895964e+02 
1.5770159346531057e+02 1.5770159345109016e+02 1.5770159343664045e+02 1.5770159342194478e+02 
1.5770159340654584e+02 1.5770159339103844e+02 1.5770159337502457e+02 1.5770159335849601e+02 
1.5770159334159891e+02 1.5770159332432084e+02 1.5770159330650228e+02 1.5770159328814850e+02 
1.5770159326934663e+02 1.5770159325020151e+02 1.5770159323041995e+02 1.5770159321014503e+02 
1.5770159318938212e+02 1.5770159316785151e+02 1.5770159314621012e+02 1.5770159312352928e+02 
1.5770159310044085e+02 1.5770159307678824e+02 1.5770159305252119e+02 1.5770159302756292e+02 
1.5770159300197321e+02 1.5770159297565402e+02 1.5770159294868117e+02 1.5770159292102431e+02 
1.5770159289257040e+02 1.5770159286334817e+02 1.5770159283348409e+02 1.5770159280269050e+02 
1.5770159277125333e+02 1.5770159273881259e+02 1.5770159270560004e+02 1.5770159267151087e+02 
1.5770159263643262e+02 1.5770159260061203e+02 1.5770159256362669e+02 1.5770159252593209e+02 
1.5770159248709666e+02 1.5770159244720236e+02 1.5770159240626515e+02 1.5770159236428685e+02 
1.5770159232125414e+02 1.5770159227702734e+02 1.5770159223156639e+02 1.5770159218509821e+02 
1.5770159213721413e+02 1.5770159208819561e+02 1.5770159203775083e+02 1.5770159198607229e+02 
1.5770159193307910e+02 1.5770159187859517e+02 1.5770159182277376e+02 1.5770159176537615e+02 
1.5770159170655421e+02 1.5770159164606673e+02 1.5770159158407762e+02 1.5770159152048268e+02 
1.5770159145510809e+02 1.5770159138809649e+02 1.5770159131931680e+02 1.5770159124861382e+02 
1.5770159117624374e+02 1.5770159110184213e+02 1.5770159102552716e+02 1.5770159094715277e+02 
1.5770159086679402e+02 1.5770159078421048e+02 1.5770159069954650e+02 1.5770159061257868e+02 
1.5770159052336632e+02 1.5770159043175497e+02 1.5770159033771972e+02 1.5770159024129475e+02 
1.5770159014229370e+02 1.5770159004070848e+02 1.5770158993638620e+02 1.5770158982933532e+02 
1.5770158971949974e+02 1.5770158960671293e+02 1.5770158949101432e+02 1.5770158937223059e+02 
1.5770158925035585e+02 1.5770158912521615e+02 1.5770158899683818e+02 1.5770158886501781e+02 
1.5770158872976700e+02 1.5770158859090776e+02 1.5770158844849257e+02 1.5770158830226282e+02 
1.5770158815216459e+02 1.5770158799805924e+02 1.5770158783998977e+02 1.5770158767774925e+02 
1.5770158751116873e+02 1.5770158734026930e+02 1.5770158716485312e+02 1.5770158698482402e+02 
1.5770158680001535e+02 1.5770158661038548e+02 1.5770158641571635e+02 1.5770158621589167e+02 
1.5770158601086399e+02 1.5770158580039885e+02 1.5770158558446457e+02 1.5770158536276480e+02 
1.5770158513528051e+02 1.5770158490172480e+02 1.5770158466209949e+02 1.5770158441614305e+02 
1.5770158416367727e+02 1.5770158390453696e+02 1.5770158363865826e+02 1.5770158336568417e+02 
1.5770158308554886e+02 1.5770158279806844e+02 1.5770158250300929e+02 1.5770158220013948e+02 
1.5770158188933797e+02 1.5770158157031830e+02 1.5770158124292010e+02 1.5770158090683535e+02 
1.5770158056198281e+02 1.5770158020797626e+02 1.5770157984468631e+02 1.5770157947182284e+02 
1.5770157908913498e+02 1.5770157869637995e+02 1.5770157829327033e+02 1.5770157787952698e+02 
1.5770157745488868e+02 1.5770157701906669e+02 1.5770157657172899e+02 1.5770157611266967e+02 
1.5770157564146157e+02 1.5770157515790424e+02 1.5770157466156144e+02 1.5770157415216138e+02 
1.5770157362933588e+02 1.5770157309274248e+02 1.5770157254199319e+02 1.5770157197680822e+02 
1.5770157139665457e+02 1.5770157080126302e+02 1.5770157019016628e+02 1.5770156956300627e+02 
1.5770156891928491e+02 1.5770156825859590e+02 1.5770156758054813e+02 1.5770156688461401e+02 
1.5770156617034922e+02 1.5770156543726165e+02 1.5770156468487843e+02 1.5770156391266843e+02 
1.5770156312012861e+02 1.5770156230670392e+02 1.5770156147185901e+02 1.5770156061502149e+02 
1.5770155973560685e+02 1.5770155883302397e+02 1.5770155790665106e+02 1.5770155695589617e+02 
1.5770155598011053e+02 1.5770155497859383e+02 1.5770155395069847e+02 1.5770155289574669e+02 
1.5770155181297932e+02 1.5770155070171288e+02 1.5770154956114649e+02 1.5770154839055709e+02 
1.5770154718913150e+02 1.5770154595603887e+02 1.5770154469047904e+02 1.5770154339159578e+02 
1.5770154205847609e+02 1.5770154069022789e+02 1.5770153928595744e+02 1.5770153784468823e+02 
1.5770153636546812e+02 1.5770153484725583e+02 1.5770153328907278e+02 1.5770153168983657e+02 
1.5770153004846293e+02 1.5770152836385867e+02 1.5770152663487971e+02 1.5770152486034715e+02 
1.5770152303909055e+02 1.5770152116983556e+02 1.5770151925135104e+02 1.5770151728232983e+02 
1.5770151526143533e+02 1.5770151318729290e+02 1.5770151105853193e+02 1.5770150887369033e+02 
1.5770150663129513e+02 1.5770150432981865e+02 1.5770150196771482e+02 1.5770149954340161e+02 
1.5770149705520694e+02 1.5770149450148975e+02 1.5770149188049183e+02 1.5770148919045303e+02 
1.5770148642954098e+02 1.5770148359590388e+02 1.5770148068761472e+02 1.5770147770273113e+02 
1.5770147463919440e+02 1.5770147149497600e+02 1.5770146826790486e+02 1.5770146495584771e+02 
1.5770146155653092e+02 1.5770145806766953e+02 1.5770145448689564e+02 1.5770145081179822e+02 
1.5770144703989294e+02 1.5770144316861121e+02 1.5770143919536028e+02 1.5770143511742569e+02 
1.5770143093208299e+02 1.5770142663648039e+02 1.5770142222771460e+02 1.5770141770280725e+02 
1.5770141305870419e+02 1.5770140829224880e+02 1.5770140340024753e+02 1.5770139837935335e+02 
1.5770139322620676e+02 1.5770138793730098e+02 1.5770138250907229e+02 1.5770137693784631e+02 
1.5770137121985519e+02 1.5770136535122774e+02 1.5770135932800227e+02 1.5770135314610894e+02 
1.5770134680135774e+02 1.5770134028945122e+02 1.5770133360602074e+02 1.5770132674651228e+02 
1.5770131970628867e+02 1.5770131248061469e+02 1.5770130506458059e+02 1.5770129745317763e+02 
1.5770128964126042e+02 1.5770128162355272e+02 1.5770127339461800e+02 1.5770126494891264e+02 
1.5770125628071264e+02 1.5770124738414307e+02 1.5770123825320792e+02 1.5770122888172517e+02 
1.5770121926335872e+02 1.5770120939160876e+02 1.5770119925978693e+02 1.5770118886105348e+02 
1.5770117818836476e+02 1.5770116723452097e+02 1.5770115599209873e+02 1.5770114445349552e+02 
1.5770113261091748e+02 1.5770112045635224e+02 1.5770110798157933e+02 1.5770109517815817e+02 
1.5770108203744249e+02 1.5770106855053137e+02 1.5770105470830302e+02 1.5770104050141143e+02 
1.5770102592023881e+02 1.5770101095492046e+02 1.5770099559534381e+02 1.5770097983112069e+02 
1.5770096365158165e+02 1.5770094704579262e+02 1.5770093000251808e+02 1.5770091251023567e+02 
1.5770089455710647e+02 1.5770087613100111e+02 1.5770085721944685e+02 1.5770083780965984e+02 
1.5770081788850581e+02 1.5770079744251751e+02 1.5770077645786435e+02 1.5770075492035585e+02 
1.5770073281542369e+02 1.5770071012811661e+02 1.5770068684309155e+02 1.5770066294459946e+02 
1.5770063841647328e+02 1.5770061324211946e+02 1.5770058740452347e+02 1.5770056088619890e+02 
1.5770053366921863e+02 1.5770050573516488e+02 1.5770047706514225e+02 1.5770044763976850e+02 
1.5770041743913094e+02 1.5770038644281081e+02 1.5770035462983051e+02 1.5770032197868380e+02 
1.5770028846727715e+02 1.5770025407294679e+02 1.5770021877242434e+02 1.5770018254183461e+02 
1.5770014535666786e+02 1.5770010719177134e+02 1.5770006802133298e+02 1.5770002781884966e+02 
1.5769998655712692e+02 1.5769994420825549e+02 1.5769990074358918e+02 1.5769985613372384e+02 
1.5769981034848368e+02 1.5769976335689310e+02 1.5769971512716293e+02 1.5769966562667224e+02 
1.5769961482193077e+02 1.5769956267856597e+02 1.5769950916130304e+02 1.5769945423394239e+02 
1.5769939785932186e+02 1.5769933999930424e+02 1.5769928061474269e+02 1.5769921966546292e+02 
1.5769915711022787e+02 1.5769909290671956e+02 1.5769902701150295e+02 1.5769895937999067e+02 
1.5769888996642811e+02 1.5769881872385139e+02 1.5769874560406146e+02 1.5769867055758371e+02 
1.5769859353364498e+02 1.5769851448013063e+02 1.5769843334355267e+02 1.5769835006900871e+02 
1.5769826460016179e+02 1.5769817687917399e+02 1.5769808684669732e+02 1.5769799444180546e+02 
1.5769789960197866e+02 1.5769780226304053e+02 1.5769770235912389e+02 1.5769759982263301e+02 
1.5769749458417709e+02 1.5769738657254845e+02 1.5769727571465268e+02 1.5769716193547498e+02 
1.5769704515801826e+02 1.5769692530325875e+02 1.5769680229008580e+02 1.5769667603525707e+02 
1.5769654645332679e+02 1.5769641345660420e+02 1.5769627695507955e+02 1.5769613685637668e+02 
1.5769599306567889e+02 1.5769584548567190e+02 1.5769569401647468e+02 1.5769553855557555e+02 
1.5769537899775216e+02 1.5769521523501945e+02 1.5769504715653324e+02 1.5769487464853734e+02 
1.5769469759426715e+02 1.5769451587388474e+02 1.5769432936438920e+02 1.5769413793953913e+02 
1.5769394146976236e+02 1.5769373982206770e+02 1.5769353285996417e+02 1.5769332044335408e+02 
1.5769310242844992e+02 1.5769287866767053e+02 1.5769264900954033e+02 1.5769241329859645e+02 
1.5769217137527005e+02 1.5769192307578655e+02 1.5769166823205279e+02 1.5769140667153812e+02 
1.5769113821716925e+02 1.5769086268719536e+02 1.5769057989508107e+02 1.5769028964936149e+02 
1.5768999175352849e+02 1.5768968600589167e+02 1.5768937219943672e+02 1.5768905012169202e+02 
1.5768871955458323e+02 1.5768838027428060e+02 1.5768803205105522e+02 1.5768767464911426e+02 
1.5768730782644872e+02 1.5768693133466365e+02 1.5768654491881637e+02 1.5768614831723420e+02 
1.5768574126134817e+02 1.5768532347549751e+02 1.5768489467675550e+02 1.5768445457473118e+02 
1.5768400287137104e+02 1.5768353926076364e+02 1.5768306342892322e+02 1.5768257505358221e+02 
1.5768207380397325e+02 1.5768155934060132e+02 1.5768103131501533e+02 1.5768048936957211e+02 
1.5767993313719390e+02 1.5767936224111676e+02 1.5767877629463862e+02 1.5767817490085392e+02 
1.5767755765238675e+02 1.5767692413111180e+02 1.5767627390787368e+02 1.5767560654219312e+02 
1.5767492158196805e+02 1.5767421856317273e+02 1.5767349700953091e+02 1.5767275643220535e+02 
1.5767199632945727e+02 1.5767121618631080e+02 1.5767041547420339e+02 1.5766959365062002e+02 
1.5766875015873796e+02 1.5766788442703466e+02 1.5766699586891210e+02 1.5766608388228994e+02 
1.5766514784920085e+02 1.5766418713537132e+02 1.5766320108979048e+02 1.5766218904426748e+02 
1.5766115031297804e+02 1.5766008419200213e+02 1.5765898995883995e+02 1.5765786687192895e+02 
1.5765671417013408e+02 1.5765553107223542e+02 1.5765431677639634e+02 1.5765307045961828e+02 
1.5765179127718454e+02 1.5765047836208592e+02 1.5764913082443007e+02 1.5764774775084027e+02 
1.5764632820383716e+02 1.5764487122119499e+02 1.5764337581529756e+02 1.5764184097246161e+02 
1.5764026565225225e+02 1.5763864878677467e+02 1.5763698927995165e+02 1.5763528600677614e+02 
1.5763353781255256e+02 1.5763174351210785e+02 1.5762990188899161e+02 1.5762801169464873e+02 
1.5762607164757097e+02 1.5762408043243047e+02 1.5762203669918338e+02 1.5761993906215747e+02 
1.5761778609910959e+02 1.5761557635026054e+02 1.5761330831730641e+02 1.5761098046240193e+02 
1.5760859120711498e+02 1.5760613893135670e+02 1.5760362197228591e+02 1.5760103862317635e+02 
1.5759838713226227e+02 1.5759566570154789e+02 1.5759287248559150e+02 1.5759000559025102e+02 
1.5758706307140156e+02 1.5758404293361536e+02 1.5758094312881204e+02 1.5757776155486701e+02 
1.5757449605418878e+02 1.5757114441225553e+02 1.5756770435611574e+02 1.5756417355284646e+02 
1.5756054960797351e+02 1.5755683006384876e+02 1.5755301239798803e+02 1.5754909402135769e+02 
1.5754507227662643e+02 1.5754094443636356e+02 1.5753670770119234e+02 1.5753235919789628e+02 
1.5752789597747395e+02 1.5752331501314441e+02 1.5751861319829749e+02 1.5751378734439493e+02 
1.5750883417881255e+02 1.5750375034262805e+02 1.5749853238834913e+02 1.5749317677758506e+02 
1.5748767987865523e+02 1.5748203796413532e+02 1.5747624720833960e+02 1.5747030368473827e+02 
1.5746420336330746e+02 1.5745794210780733e+02 1.5745151567299408e+02 1.5744491970175392e+02 
1.5743814972216686e+02 1.5743120114449195e+02 1.5742406925807344e+02 1.5741674922816964e+02 
1.5740923609269410e+02 1.5740152475887766e+02 1.5739360999984046e+02 1.5738548645107673e+02 
1.5737714860684656e+02 1.5736859081647634e+02 1.5735980728056202e+02 1.5735079204707486e+02 
1.5734153900736649e+02 1.5733204189206961e+02 1.5732229426689460e+02 1.5731228952831748e+02 
1.5730202089915491e+02 1.5729148142402809e+02 1.5728066396470777e+02 1.5726956119534037e+02 
1.5725816559755191e+02 1.5724646945542611e+02 1.5723446485035410e+02 1.5722214365575127e+02 
1.5720949753164081e+02 1.5719651791909720e+02 1.5718319603454987e+02 1.5716952286393916e+02 
1.5715548915672662e+02 1.5714108541975085e+02 1.5712630191092813e+02 1.5711112863279402e+02 
1.5709555532588072e+02 1.5707957146192771e+02 1.5706316623692052e+02 1.5704632856395418e+02 
1.5702904706591821e+02 1.5701131006799696e+02 1.5699310558998138e+02 1.5697442133839070e+02 
1.5695524469839540e+02 1.5693556272553872e+02 1.5691536213725377e+02 1.5689462930416934e+02 
1.5687335024119932e+02 1.5685151059841374e+02 1.5682909565168265e+02 1.5680609029309156e+02 
1.5678247902111997e+02 1.5675824593058158e+02 1.5673337470231579e+02 1.5670784859263023e+02 
1.5668165042248694e+02 1.5665476256642484e+02 1.5662716694121670e+02 1.5659884499425129e+02 
1.5656977769163731e+02 1.5653994550602314e+02 1.5650932840412531e+02 1.5647790583396093e+02 
1.5644565671177756e+02 1.5641255940867646e+02 1.5637859173691788e+02 1.5634373093591032e+02 
1.5630795365786921e+02 1.5627123595314580e+02 1.5623355325521587e+02 1.5619488036532277e+02 
1.5615519143677020e+02 1.5611445995885700e+02 1.5607265874044771e+02 1.5602975989317372e+02 
1.5598573481425726e+02 1.5594055416895438e+02 1.5589418787260755e+02 1.5584660507230524e+02 
1.5579777412813985e+02 1.5574766259405970e+02 1.5569623719830756e+02 1.5564346382344263e+02 
1.5558930748593730e+02 1.5553373231534505e+02 1.5547670153303460e+02 1.5541817743048327e+02 
1.5535812134712651e+02 1.5529649364775796e+02 1.5523325369947540e+02 1.5516835984816976e+02 
1.5510176939455167e+02 1.5503343856971262e+02 1.5496332251021832e+02 1.5489137523273016e+02 
1.5481754960815354e+02 1.5474179733531074e+02 1.5466406891413627e+02 1.5458431361839564e+02 
1.5450247946792499e+02 1.5441851320039407e+02 1.5433236024259236e+02 1.5424396468123993e+02 
1.5415326923332717e+02 1.5406021521598456e+02 1.5396474251588913e+02 1.5386678955821077e+02 
1.5376629327510551e+02 1.5366318907376427e+02 1.5355741080402379e+02 1.5344889072555009e+02 
1.5333755947460611e+02 1.5322334603041625e+02 1.5310617768113977e+02 1.5298597998947193e+02 
1.5286267675788687e+02 1.5273618999354329e+02 1.5260643987287338e+02 1.5247334470587799e+02 
1.5233682090015208e+02 1.5219678292466978e+02 1.5205314327335657e+02 1.5190581242848225e+02 
1.5175469882390854e+02 1.5159970880822939e+02 1.5144074660784383e+02 1.5127771429000623e+02 
1.5111051172589896e+02 1.5093903655377906e+02 1.5076318414225156e+02 1.5058284755372884e+02 
1.5039791750813504e+02 1.5020828234692269e+02 1.5001382799747194e+02 1.4981443793794560e+02 
1.4960999316267998e+02 1.4940037214819623e+02 1.4918545081992099e+02 1.4896510251971162e+02 
1.4873919797428675e+02 1.4850760526466911e+02 1.4827018979675236e+02 1.4802681427311239e+02 
1.4777733866618883e+02 1.4752162019296907e+02 1.4725951329131604e+02 1.4699086959808676e+02 
1.4671553792919818e+02 1.4643336426180346e+02 1.4614419171875062e+02 1.4584786055550597e+02 
1.4554420814973071e+02 1.4523306899370985e+02 1.4491427468984429e+02 1.4458765394942216e+02 
1.4425303259490033e+02 1.4391023356593365e+02 1.4355907692940329e+02 1.4319937989370467e+02 
1.4283095682756692e+02 1.4245361928368723e+02 1.4206717602747682e+02 1.4167143307122373e+02 
1.4126619371399312e+02 1.4085125858759613e+02 1.4042642570897044e+02 1.3999149053932999e+02 
1.3954624605045112e+02 1.3909048279847775e+02 1.3862398900563747e+02 1.3814655065027668e+02 
1.3765795156563138e+02 1.3715797354776475e+02 1.3664639647311384e+02 1.3612299842609789e+02 
1.3558755583725514e+02 1.3503984363238072e+02 1.3447963539315279e+02 1.3390670352974095e+02 
1.3332081946589892e+02 1.3272175383705340e+02 1.3210927670190486e+02 1.3148315776806291e+02 
1.3084316663224263e+02 1.3018907303554985e+02 1.2952064713438520e+02 1.2883765978749580e+02 
1.2813988285969791e+02 1.2742708954279290e+02 1.2669905469418718e+02 1.2595555519371847e+02 
1.2519637031917631e+02 1.2442128214098963e+02 1.2363007593653323e+02 1.2282254062448122e+02 
1.2199846921961040e+02 1.2115765930842076e+02 1.2029991354590906e+02 1.1942504017378617e+02 
1.1853285356038522e+02 1.1762317476245546e+02 1.1669583210897892e+02 1.1575066180708423e+02 
1.1478750857006179e+02 1.1380622626740819e+02 1.1280667859674324e+02 1.1178873977735398e+02 
1.1075229526501988e+02 1.0969724248766678e+02 1.0862349160128404e+02 1.0753096626541451e+02 
1.0641960443739634e+02 1.0528935918439461e+02 1.0414019951211102e+02 1.0297211120890205e+02 
1.0178509770386751e+02 1.0057918093729521e+02 9.9354402241661731e+01 9.8110823231194487e+01 
9.6848526697797325e+01 9.5567617510931797e+01 9.4268223518823987e+01 9.2950496448146012e+01 
9.1614612799081016e+01 9.0260774732450827e+01 8.8889210945334440e+01 8.7500177531363590e+01 
8.6093958821630721e+01 8.4670868201894166e+01 8.3231248901517574e+01 8.1775474749332474e+01 
8.0303950891371045e+01 7.8817114465181007e+01 7.7315435225208333e+01 7.5799416113518021e+01 
7.4269593769925891e+01 7.2726538975429548e+01 7.1170857022667846e+01 6.9603188007001009e+01 
6.8024207031695170e+01 6.6434624320619932e+01 6.4835185231822877e+01 6.3226670165352282e+01 
6.1609894358734259e+01 5.9985707563608663e+01 5.8354993597170434e+01 5.6718669762265300e+01 
5.5077686130251415e+01 5.3433024681066982e+01 5.1785698295339962e+01 5.0136749593846631e+01 
4.8487249620169273e+01 4.6838296363028427e+01 4.5191013115468053e+01 4.3546546668858738e+01 
4.1906065340553482e+01 4.0270756834982933e+01 3.8641825939011156e+01 3.7020492053488994e+01 
3.5407986564129935e+01 3.3805550056103492e+01 3.2214429378067244e+01 3.0635874562751351e+01 
2.9071135612651833e+01 2.7521459160870982e+01 2.5988085018655553e+01 2.4472242622711672e+01 
2.2975147396902091e+01 2.1497997044445970e+01 2.0041967788218599e+01 1.8608210578173367e+01 
1.7197847286259805e+01 1.5811966910465548e+01 1.4451621810746943e+01 1.3117824000605969e+01 
1.1811541518901286e+01 1.0533694907121474e+01 9.2851538177737645e+00 8.0667337797432435e+00 
6.8791931464118603e+00 5.7232302520001994e+00 4.5994808009733417e+00 3.5085155144323901e+00 
2.4508380561809151e+00 1.4268832596084731e+00 4.3701567466827146e-01 -5.1847154795123995e-01 
-1.4393574208409221e+00 -2.3254935202199247e+00 -3.1768040138005511e+00 -3.9932853106225412e+00 
-4.7750053307868496e+00 -5.5221023966607463e+00 -6.2347837508870692e+00 -6.9133237103603129e+00 
-7.5580614691792283e+00 -8.1693985673815916e+00 -8.7477960459647779e+00 -9.2937713122179186e+00 
-9.8078947426843861e+00 -1.0290786054069256e+01 -1.0743110475048267e+01 -1.1165574754163661e+01 
-1.1558923040760209e+01 -1.1923932677176587e+01 -1.2261409941127766e+01 -1.2572185777369159e+01 
-1.2857111557306263e+01 -1.3117054904203169e+01 -1.3352895620057636e+01 -1.3565521748071975e+01 
-1.3755825801991456e+01 -1.3924701190452302e+01 -1.4073038860937441e+01 -1.4201724184046631e+01 
-1.4311634094627687e+01 -1.4403634501968281e+01 -1.4478577976803994e+01 -1.4537301718447859e+01 
-1.4580625800982672e+01 -1.4609351693268366e+01 -1.4624261043589076e+01 -1.4626114716176424e+01 
-1.4615652063666516e+01 -1.4593590416838239e+01 -1.4560624770785866e+01 -1.4517427645033997e+01 
-1.4464649094027136e+01 -1.4402916843924819e+01 -1.4332836531697277e+01 -1.4254992023123405e+01 
-1.4169945787406073e+01 -1.4078239307692682e+01 -1.3980393508762152e+01 -1.3876909185448030e+01 
-1.3768267417936661e+01 -1.3654929962831934e+01 -1.3537339611732925e+01 -1.3415920511946572e+01 
-1.3291078446774462e+01 -1.3163201075494451e+01 -1.3032658135633259e+01 -1.2899801612331956e+01 
-1.2764965881487232e+01 -1.2628467834863580e+01 -1.2490606996482271e+01 -1.2351665640282054e+01 
-1.2211908919307385e+01 -1.2071585016519577e+01 -1.1930925326764173e+01 -1.1790144678499036e+01 
-1.1649441602634658e+01 -1.1508998654318853e+01 -1.1368982791774583e+01 -1.1229545814442558e+01 
-1.1090824860762496e+01 -1.0952942964022144e+01 -1.0816009662882626e+01 -1.0680121661517980e+01 
-1.0545363532843821e+01 -1.0411808457102374e+01 -1.0279518987153766e+01 -1.0148547831218734e+01 
-1.0018938643533875e+01 -9.8907268134114918e+00 -9.7639402435241092e+00 -9.6386001088288449e+00 
-9.5147215883697296e+00 -9.3923145632021114e+00 -9.2713842748197841e+00 -9.1519319396828873e+00 
-9.0339553166900242e+00 -8.9174492256644928e+00 -8.8024060160889892e+00 -8.6888159863902761e+00 
-8.5766677550168477e+00 -8.4659485853493326e+00 -8.3566446671243106e+00 -8.2487413575339534e+00 
-8.1422233854909880e+00 -8.0370750227307468e+00 -7.9332802254746024e+00 -7.8308227503199426e+00 
-7.7296862478714097e+00 -7.6298543374072105e+00 -7.5313106656027342e+00 -7.4340389520318357e+00 
-7.3380230238486881e+00 -7.2432468417362941e+00 -7.1496945189017733e+00 -7.0573503346123765e+00 
-6.9661987435057684e+00 -6.8762243816766064e+00 -6.7874120703405785e+00 -6.6997468177061021e+00 
-6.6132138195416381e+00 -6.5277984588102962e+00 -6.4434863046503130e+00 -6.3602631109067627e+00 
-6.2781148143634002e+00 -6.1970275327807736e+00 -6.1169875628149049e+00 -6.0379813778677818e+00 
-5.9599956259040185e+00 -5.8830171272567586e+00 -5.8070328724375004e+00 -5.7320300199592822e+00 
-5.6579958941790061e+00 -5.5849179831623061e+00 -5.5127839365729283e+00 -5.4415815635876372e+00 
-5.3712988308370688e+00 -5.3019238603726544e+00 -5.2334449276595247e+00 -5.1658504595951804e+00 
-5.0991290325536918e+00 -5.0332693704551081e+00 -4.9682603428597929e+00 -4.9040909630873593e+00 
-4.8407503863598871e+00 -4.7782279079691730e+00 -4.7165129614675498e+00 -4.6555951168821714e+00 
-4.5954640789523138e+00 -4.5361096853894480e+00 -4.4775219051597928e+00 -4.4196908367890435e+00 
-4.3626067066890046e+00 -4.3062598675058226e+00 -4.2506407964895638e+00 -4.1957400938848473e+00 
-4.1415484813422649e+00 -4.0880568003503166e+00 -4.0352560106875961e+00 -3.9831371888949829e+00 
-3.9316915267675441e+00 -3.8809103298659360e+00 -3.8307850160470096e+00 -3.7813071140134413e+00 
-3.7324682618820182e+00 -3.6842602057704887e+00 -3.6366747984026295e+00 -3.5897039977313390e+00 
-3.5433398655795076e+00 -3.4975745662984505e+00 -3.4524003654436641e+00 -3.4078096284676840e+00 
-3.3637948194298319e+00 -3.3203484997226203e+00 -3.2774633268146127e+00 -3.2351320530095169e+00 
-3.1933475242213056e+00 -3.1521026787651651e+00 -3.1113905461640443e+00 -3.0712042459706366e+00 
-3.0315369866045550e+00 -2.9923820642045666e+00 -2.9537328614955878e+00 -2.9155828466703717e+00 
-2.8779255722856116e+00 -2.8407546741723091e+00 -2.8040638703602130e+00 -2.7678469600161510e+00 
-2.7320978223960748e+00 -2.6968104158106416e+00 -2.6619787766041494e+00 -2.6275970181466706e+00 
-2.5936593298391935e+00 -2.5601599761316192e+00 -2.5270932955534393e+00 -2.4944536997569351e+00 
-2.4622356725727306e+00 -2.4304337690775499e+00 -2.3990426146740069e+00 -2.3680569041823016e+00 
-2.3374714009436075e+00 -2.3072809359350810e+00 -2.2774804068962791e+00 -2.2480647774668663e+00 
-2.2190290763354574e+00 -2.1903683963994527e+00 -2.1620778939357281e+00 -2.1341527877820337e+00 
-2.1065883585289642e+00 -2.0793799477223702e+00 -2.0525229570760670e+00 -2.0260128476947128e+00 
-1.9998451393067254e+00 -1.9740154095071059e+00 -1.9485192930100406e+00 -1.9233524809111582e+00 
-1.8985107199593116e+00 -1.8739898118377809e+00 -1.8497856124547276e+00 -1.8258940312428478e+00 
-1.8023110304680527e+00 -1.7790326245470811e+00 -1.7560548793739277e+00 -1.7333739116549691e+00 
-1.7109858882526776e+00 -1.6888870255378130e+00 -1.6670735887499786e+00 -1.6455418913664395e+00 
-1.6242882944790900e+00 -1.6033092061794707e+00 -1.5826010809517272e+00 -1.5621604190734077e+00 
-1.5419837660240048e+00 -1.5220677119011279e+00 -1.5024088908442332e+00 -1.4830039804657700e+00 
-1.4638497012896980e+00 -1.4449428161972480e+00 -1.4262801298798389e+00 -1.4078584882990646e+00 
-1.3896747781536518e+00 -1.3717259263533077e+00 -1.3540088994993575e+00 -1.3365207033720952e+00 
-1.3192583824247508e+00 -1.3022190192839991e+00 -1.2853997342569137e+00 -1.2687976848442930e+00 
-1.2524100652602725e+00 -1.2362341059581385e+00 -1.2202670731622676e+00 -1.2045062684061130e+00 
-1.1889490280761625e+00 -1.1735927229617704e+00 -1.1584347578108234e+00 -1.1434725708911331e+00 
-1.1287036335574987e+00 -1.1141254498243593e+00 -1.0997355559439665e+00 -1.0855315199900055e+00 
-1.0715109414465929e+00 -1.0576714508025842e+00 -1.0440107091511213e+00 -1.0305264077943519e+00 
-1.0172162678532519e+00 -1.0040780398824924e+00 -9.9110950349027616e-01 -9.7830846696308593e-01 
-9.6567276689528136e-01 -9.5320026782347511e-01 -9.4088886186564147e-01 -9.2873646836486956e-01 
-9.1674103353773417e-01 -9.0490053012719884e-01 -8.9321295706000592e-01 -8.8167633910848919e-01 
-8.7028872655675682e-01 -8.5904819487118400e-01 -8.4795284437516227e-01 -8.3700079992804977e-01 
-8.2619021060826781e-01 -8.1551924940049136e-01 -8.0498611288687805e-01 -7.9458902094228778e-01 
-7.8432621643343536e-01 -7.7419596492193254e-01 -7.6419655437116274e-01 -7.5432629485694214e-01 
-7.4458351828192315e-01 -7.3496657809367472e-01 -7.2547384900641565e-01 -7.1610372672633660e-01 
-7.0685462768047036e-01 -6.9772498874906452e-01 -6.8871326700141033e-01 -6.7981793943508362e-01 
-6.7103750271855378e-01 -6.6237047293711770e-01 -6.5381538534211359e-01 -6.4537079410337628e-01 
-6.3703527206488730e-01 -6.2880741050358291e-01 -6.2068581889127628e-01 -6.1266912465965429e-01 
-6.0475597296831163e-01 -5.9694502647577730e-01 -5.8923496511350548e-01 -5.8162448586277382e-01 
-5.7411230253447565e-01 -5.6669714555174866e-01 -5.5937776173541387e-01 -5.5215291409218548e-01 
-5.4502138160561631e-01 -5.3798195902974177e-01 -5.3103345668539248e-01 -5.2417470025913404e-01 
-5.1740453060480596e-01 -5.1072180354762287e-01 -5.0412538969080656e-01 -4.9761417422471527e-01 
-4.9118705673843782e-01 -4.8484295103382186e-01 -4.7858078494190370e-01 -4.7239950014170851e-01 
-4.6629805198139457e-01 -4.6027540930170013e-01 -4.5433055426167746e-01 -4.4846248216667572e-01 
-4.4267020129854440e-01 -4.3695273274803026e-01 -4.3130911024934032e-01 -4.2573838001684006e-01 
-4.2023960058386112e-01 -4.1481184264359172e-01 -4.0945418889202151e-01 -4.0416573387291443e-01 
-3.9894558382478551e-01 -3.9379285652985213e-01 -3.8870668116493734e-01 -3.8368619815429889e-01 
-3.7873055902435887e-01 -3.7383892626030857e-01 -3.6901047316456981e-01 -3.6424438371707646e-01 
-3.5953985243736825e-01 -3.5489608424846142e-01 -3.5031229434247968e-01 -3.4578770804801900e-01 
-3.4132156069922659e-01 -3.3691309750657072e-01 -3.3256157342927922e-01 -3.2826625304942592e-01 
-3.2402641044764352e-01 -3.1984132908044083e-01 -3.1571030165910619e-01 -3.1163263003017289e-01 
-3.0760762505743056e-01 -3.0363460650545876e-01 -2.9971290292466624e-01 -2.9584185153781306e-01 
-2.9202079812800258e-01 -2.8824909692811346e-01 -2.8452611051166593e-01 -2.8085120968509458e-01 
-2.7722377338141302e-01 -2.7364318855525233e-01 -2.7010885007925467e-01 -2.6662016064180571e-01 
-2.6317653064608693e-01 -2.5977737811043294e-01 -2.5642212856997493e-01 -2.5311021497955472e-01 
-2.4984107761789281e-01 -2.4661416399299430e-01 -2.4342892874877614e-01 -2.4028483357290092e-01 
-2.3718134710580072e-01 -2.3411794485087548e-01 -2.3109410908585384e-01 -2.2810932877529408e-01 
-2.2516309948421956e-01 -2.2225492329286781e-01 -2.1938430871254083e-01 -2.1655077060254210e-01 
-2.1375383008818705e-01 -2.1099301447987165e-01 -2.0826785719318713e-01 -2.0557789767006593e-01 
-2.0292268130094623e-01 
</PP_LOCAL>


<PP_NONLOCAL>
  <PP_BETA>
  1  1      Beta    L
  1189  
 -4.5537329818155556e-11  -4.6736826281096239e-11  -4.7967918618816728e-11  -4.9231439096639742e-11 
 -5.0528241902546665e-11  -5.1859203724641237e-11  -5.3225224343824313e-11  -5.4627227242079768e-11 
 -5.6066160226783617e-11  -5.7542996071458233e-11  -5.9058733173404043e-11  -6.0614396228654334e-11 
 -6.2211036924708891e-11  -6.3849734651514947e-11  -6.5531597231175723e-11  -6.7257761666880780e-11 
 -6.9029394911563354e-11  -7.0847694656805052e-11  -7.2713890142521342e-11  -7.4629242987974501e-11 
 -7.6595048044676203e-11  -7.8612634271756887e-11  -8.0683365634392739e-11  -8.2808642025898108e-11 
 -8.4989900214107497e-11  -8.7228614812684253e-11  -8.9526299278017061e-11  -9.1884506932373184e-11 
 -9.4304832014004760e-11  -9.6788910754913397e-11  -9.9338422487006718e-11  -1.0195509077739041e-10 
 -1.0464068459356517e-10  -1.0739701949931715e-10  -1.1022595888210772e-10  -1.1312941521279464e-10 
 -1.1610935133853591e-10  -1.1916778180974940e-10  -1.2230677424202550e-10  -1.2552845071391493e-10 
 -1.2883498920153458e-10  -1.3222862505096262e-10  -1.3571165248941848e-10  -1.3928642617624785e-10 
 -1.4295536279476223e-10  -1.4672094268600978e-10  -1.5058571152558067e-10  -1.5455228204458075e-10 
 -1.5862333579593863e-10  -1.6280162496723773e-10  -1.6708997424129992e-10  -1.7149128270578053e-10 
 -1.7600852581306133e-10  -1.8064475739177092e-10  -1.8540311171129004e-10  -1.9028680560063767e-10 
 -1.9529914062317043e-10  -2.0044350530856632e-10  -2.0572337744360062e-10  -2.1114232642326232e-10 
 -2.1670401566380428e-10  -2.2241220507935054e-10  -2.2827075362374318e-10  -2.3428362189934492e-10 
 -2.4045487483455611e-10  -2.4678868443186311e-10  -2.5328933258827308e-10  -2.5996121399003949e-10 
 -2.6680883908364036e-10  -2.7383683712501078e-10  -2.8104995930910138e-10  -2.8845308198186565e-10 
 -2.9605120993685871e-10  -3.0384947979867060e-10  -3.1185316349548109e-10  -3.2006767182308660e-10 
 -3.2849855810280662e-10  -3.3715152193574146e-10  -3.4603241305592471e-10  -3.5514723528496532e-10 
 -3.6450215059086571e-10  -3.7410348325374743e-10  -3.8395772414130932e-10  -3.9407153509690346e-10 
 -4.0445175344320059e-10  -4.1510539660448191e-10  -4.2603966685068956e-10  -4.3726195616643920e-10 
 -4.4877985124828749e-10  -4.6060113863363262e-10  -4.7273380996471361e-10  -4.8518606739126986e-10 
 -4.9796632911551394e-10  -5.1108323508315832e-10  -5.2454565282435606e-10  -5.3836268344849554e-10 
 -5.5254366779690034e-10  -5.6709819275760245e-10  -5.8203609774645115e-10  -5.9736748135893741e-10 
 -6.1310270819723839e-10  -6.2925241587709236e-10  -6.4582752221923971e-10  -6.6283923263029212e-10 
 -6.8029904767802908e-10  -6.9821877086622374e-10  -7.1661051661427625e-10  -7.3548671844703021e-10 
 -7.5486013740032211e-10  -7.7474387064794094e-10  -7.9515136035582720e-10  -8.1609640276950388e-10 
 -8.3759315754087953e-10  -8.5965615730072320e-10  -8.8230031748329432e-10  -9.0554094640976684e-10 
 -9.2939375563724465e-10  -9.5387487058039657e-10  -9.7900084141287231e-10  -1.0047886542558668e-09 
 -1.0312557426614092e-09  -1.0584199993981303e-09  -1.0862997885474797e-09  -1.1149139579185707e-09 
 -1.1442818517900384e-09  -1.1744233239875468e-09  -1.2053587513057512e-09  -1.2371090472838271e-09 
 -1.2696956763438415e-09  -1.3031406683015678e-09  -1.3374666332595067e-09  -1.3726967768922152e-09 
 -1.4088549161342754e-09  -1.4459654952814846e-09  -1.4840536025161779e-09  -1.5231449868678404e-09 
 -1.5632660756204850e-09  -1.6044439921785504e-09  -1.6467065744034211e-09  -1.6900823934329254e-09 
 -1.7346007729965917e-09  -1.7802918092396550e-09  -1.8271863910692737e-09  -1.8753162210366780e-09 
 -1.9247138367693826e-09  -1.9754126329679330e-09  -2.0274468839820800e-09  -2.0808517669816458e-09 
 -2.1356633857377059e-09  -2.1919187950302270e-09  -2.2496560256986122e-09  -2.3089141103520861e-09 
 -2.3697331097573687e-09  -2.4321541399213810e-09  -2.4962193998873613e-09  -2.5619722002631699e-09 
 -2.6294569925010428e-09  -2.6987193989486135e-09  -2.7698062436915236e-09  -2.8427655842084413e-09 
 -2.9176467438599338e-09  -2.9945003452331112e-09  -3.0733783443646252e-09  -3.1543340658651230e-09 
 -3.2374222389689436e-09  -3.3226990345333643e-09  -3.4102221030125100e-09  -3.5000506134314899e-09 
 -3.5922452933871712e-09  -3.6868684701026330e-09  -3.7839841125630389e-09  -3.8836578747614105e-09 
 -3.9859571400835542e-09  -4.0909510668621332e-09  -4.1987106351307143e-09  -4.3093086946093226e-09 
 -4.4228200139540603e-09  -4.5393213313039695e-09  -4.6588914061593769e-09  -4.7816110726267972e-09 
 -4.9075632940663603e-09  -5.0368332191787066e-09  -5.1695082395693142e-09  -5.3056780488291288e-09 
 -5.4454347031714334e-09  -5.5888726836660346e-09  -5.7360889601126985e-09  -5.8871830565971464e-09 
 -6.0422571187739010e-09  -6.2014159829214077e-09  -6.3647672468161575e-09  -6.5324213424738092e-09 
 -6.7044916108063202e-09  -6.8810943782456892e-09  -7.0623490353860986e-09  -7.2483781176975792e-09 
 -7.4393073883657411e-09  -7.6352659233137404e-09  -7.8363861984637326e-09  -8.0428041792969746e-09 
 -8.2546594127730855e-09  -8.4720951216705226e-09  -8.6952583014122627e-09  -8.9242998194418817e-09 
 -9.1593745172174168e-09  -9.4006413148918839e-09  -9.6482633187513417e-09  -9.9024079314828557e-09 
 -1.0163246965347297e-08  -1.0430956758333103e-08  -1.0705718293369919e-08  -1.0987717320682366e-08 
 -1.1277144483366894e-08  -1.1574195446276500e-08  -1.1879071028300499e-08  -1.2191977338128831e-08 
 -1.2513125913592529e-08  -1.2842733864674745e-08  -1.3181024020288952e-08  -1.3528225078923408e-08 
 -1.3884571763254125e-08  -1.4250304978830324e-08  -1.4625671976940262e-08  -1.5010926521767029e-08 
 -1.5406329061947630e-08  -1.5812146906651305e-08  -1.6228654406296007e-08  -1.6656133138025415e-08 
 -1.7094872096071702e-08  -1.7545167887132846e-08  -1.8007324930896651e-08  -1.8481655665846941e-08 
 -1.8968480760491034e-08  -1.9468129330151616e-08  -1.9980939159469082e-08  -2.0507256930765398e-08 
 -2.1047438458423311e-08  -2.1601848929439620e-08  -2.2170863150315489e-08  -2.2754865800449934e-08 
 -2.3354251692208621e-08  -2.3969426037843465e-08  -2.4600804723443121e-08  -2.5248814590100670e-08 
 -2.5913893722487180e-08  -2.6596491745027595e-08  -2.7297070125878306e-08  -2.8016102488912232e-08 
 -2.8754074933922690e-08  -2.9511486365261953e-08  -3.0288848829136920e-08  -3.1086687859790602e-08 
 -3.1905542834802375e-08  -3.2745967339748105e-08  -3.3608529542466573e-08  -3.4493812577184930e-08 
 -3.5402414938763513e-08  -3.6334950887325939e-08  -3.7292050863548796e-08  -3.8274361914891419e-08 
 -3.9282548133053937e-08  -4.0317291102959693e-08  -4.1379290363565635e-08  -4.2469263880812220e-08 
 -4.3587948533032827e-08  -4.4736100609151132e-08  -4.5914496320003161e-08  -4.7123932323130209e-08 
 -4.8365226261397222e-08  -4.9639217315801310e-08  -5.0946766772844631e-08  -5.2288758606854487e-08 
 -5.3666100077645443e-08  -5.5079722343927549e-08  -5.6530581092875204e-08  -5.8019657186283164e-08 
 -5.9547957323745973e-08  -6.1116514723309797e-08  -6.2726389820057089e-08  -6.4378670983096142e-08 
 -6.6074475251440052e-08  -6.7814949089273980e-08  -6.9601269161119602e-08  -7.1434643127421555e-08 
 -7.3316310461094580e-08  -7.5247543285581231e-08  -7.7229647234988870e-08  -7.9263962336885605e-08 
 -8.1351863918353471e-08  -8.3494763535909919e-08  -8.5694109929926633e-08  -8.7951390004173506e-08 
 -9.0268129831120470e-08  -9.2645895683777456e-08  -9.5086295094738948e-08  -9.7590977943130396e-08 
 -1.0016163757019366e-07  -1.0280001192426644e-07  -1.0550788473592762e-07  -1.0828708672410694e-07 
 -1.1113949683397210e-07  -1.1406704350743385e-07  -1.1707170598712495e-07  -1.2015551565473915e-07 
 -1.2332055740463325e-07  -1.2656897105362187e-07  -1.2990295278792075e-07  -1.3332475664821520e-07 
 -1.3683669605386074e-07  -1.4044114536724511e-07  -1.4414054149937393e-07  -1.4793738555776236e-07 
 -1.5183424453775051e-07  -1.5583375305838688e-07  -1.5993861514405568e-07  -1.6415160605305071e-07 
 -1.6847557415433668e-07  -1.7291344285376776e-07  -1.7746821257106523e-07  -1.8214296276889547e-07 
 -1.8694085403541866e-07  -1.9186513022172048e-07  -1.9691912063557393e-07  -2.0210624229301337e-07 
 -2.0743000222924900e-07  -2.1289399987048414e-07  -2.1850192946824292e-07  -2.2425758259785326e-07 
 -2.3016485072278220e-07  -2.3622772782655577e-07  -2.4245031311404798e-07  -2.4883681378396724e-07 
 -2.5539154787441838e-07  -2.6211894718346899e-07  -2.6902356026669447e-07  -2.7611005551373617e-07 
 -2.8338322430595681e-07  -2.9084798425732695e-07  -2.9850938254074612e-07  -3.0637259930204492e-07 
 -3.1444295116398591e-07  -3.2272589482263677e-07  -3.3122703073855053e-07  -3.3995210692525770e-07 
 -3.4890702283763402e-07  -3.5809783336278515e-07  -3.6753075291614431e-07  -3.7721215964556994e-07 
 -3.8714859974628528e-07  -3.9734679188958820e-07  -4.0781363176833521e-07  -4.1855619676228103e-07 
 -4.2958175072643473e-07  -4.4089774890568333e-07  -4.5251184297901416e-07  -4.6443188623675936e-07 
 -4.7666593889437206e-07  -4.8922227354633754e-07  -5.0210938076393093e-07  -5.1533597484059625e-07 
 -5.2891099968887740e-07  -5.4284363489287385e-07  -5.5714330192034575e-07  -5.7181967049868076e-07 
 -5.8688266515905273e-07  -6.0234247195320911e-07  -6.1820954534745966e-07  -6.3449461529853207e-07 
 -6.5120869451612216e-07  -6.6836308591704610e-07  -6.8596939027608023e-07  -7.0403951407867754e-07 
 -7.2258567758089350e-07  -7.4162042308201184e-07  -7.6115662341547040e-07  -7.8120749066389573e-07 
 -8.0178658510412548e-07  -8.2290782438834607e-07  -8.4458549296755464e-07  -8.6683425176378459e-07 
 -8.8966914809764673e-07  -9.1310562587796867e-07  -9.3715953606044434e-07  -9.6184714738242635e-07 
 -9.8718515738116768e-07  -1.0131907037030108e-06  -1.0398813757112289e-06  -1.0672752264004260e-06 
 -1.0953907846256187e-06  -1.1242470676543242e-06  -1.1538635940502159e-06  -1.1842603968971324e-06 
 -1.2154580373724474e-06  -1.2474776186790763e-06  -1.2803408003455996e-06  -1.3140698129042850e-06 
 -1.3486874729570155e-06  -1.3842171986394052e-06  -1.4206830254936704e-06  -1.4581096227611030e-06 
 -1.4965223101052625e-06  -1.5359470747773302e-06  -1.5764105892353513e-06  -1.6179402292294283e-06 
 -1.6605640923652156e-06  -1.7043110171584337e-06  -1.7492106025934396e-06  -1.7952932281992384e-06 
 -1.8425900746567272e-06  -1.8911331449511980e-06  -1.9409552860847164e-06  -1.9920902113631630e-06 
 -2.0445725232732925e-06  -2.0984377369654543e-06  -2.1537223043581419e-06  -2.2104636388808807e-06 
 -2.2687001408724919e-06  -2.3284712236521439e-06  -2.3898173402811618e-06  -2.4527800110339614e-06 
 -2.5174018515970492e-06  -2.5837266020154754e-06  -2.6517991564066826e-06  -2.7216655934622447e-06 
 -2.7933732077584957e-06  -2.8669705418976978e-06  -2.9425074195018599e-06  -3.0200349790820519e-06 
 -3.0996057088065984e-06  -3.1812734821921809e-06  -3.2650935947425215e-06  -3.3511228015600582e-06 
 -3.4394193559566086e-06  -3.5300430490897921e-06  -3.6230552506527259e-06  -3.7185189506451718e-06 
 -3.8164988022552046e-06  -3.9170611658811190e-06  -4.0202741543242776e-06  -4.1262076791842669e-06 
 -4.2349334984886957e-06  -4.3465252655908286e-06  -4.4610585793691803e-06  -4.5786110357640407e-06 
 -4.6992622806870187e-06  -4.8230940643405158e-06  -4.9501902969851917e-06  -5.0806371061944337e-06 
 -5.2145228956360179e-06  -5.3519384054221356e-06  -5.4929767740702491e-06  -5.6377336021182305e-06 
 -5.7863070174386550e-06  -5.9387977422981754e-06  -6.0953091622092941e-06  -6.2559473966231123e-06 
 -6.4208213715130615e-06  -6.5900428939008772e-06  -6.7637267283776917e-06  -6.9419906756744330e-06 
 -7.1249556533373100e-06  -7.3127457785658258e-06  -7.5054884532721423e-06  -7.7033144514224717e-06 
 -7.9063580087228193e-06  -8.1147569147131806e-06  -8.3286526073360494e-06  -8.5481902700469953e-06 
 -8.7735189315370207e-06  -9.0047915681383616e-06  -9.2421652089874467e-06  -9.4858010440207539e-06 
 -9.7358645348816407e-06  -9.9925255288182574e-06  -1.0255958375655197e-05  -1.0526342047923502e-05 
 -1.0803860264236726e-05  -1.1088701616002463e-05  -1.1381059697562191e-05  -1.1681133239854246e-05 
 -1.1989126247697993e-05  -1.2305248140799898e-05  -1.2629713898585030e-05  -1.2962744208960918e-05 
 -1.3304565621123474e-05  -1.3655410702517968e-05  -1.4015518200071622e-05  -1.4385133205817401e-05 
 -1.4764507327032689e-05  -1.5153898861019554e-05  -1.5553572974657576e-05  -1.5963801888863883e-05 
 -1.6384865068099163e-05  -1.6817049415062596e-05  -1.7260649470722656e-05  -1.7715967619835686e-05 
 -1.8183314302108223e-05  -1.8663008229164191e-05  -1.9155376607482703e-05  -1.9660755367477245e-05 
 -2.0179489398892581e-05  -2.0711932792700685e-05  -2.1258449089683120e-05  -2.1819411535892104e-05 
 -2.2395203345189806e-05  -2.2986217969070632e-05  -2.3592859373977660e-05  -2.4215542326331566e-05 
 -2.4854692685496845e-05  -2.5510747704917198e-05  -2.6184156341659205e-05  -2.6875379574611626e-05 
 -2.7584890731594334e-05  -2.8313175825640273e-05  -2.9060733900721427e-05  -2.9828077387198883e-05 
 -3.0615732467285695e-05  -3.1424239450821533e-05  -3.2254153161666245e-05  -3.3106043335031511e-05 
 -3.3980495026078163e-05  -3.4878109030119067e-05  -3.5799502314777867e-05  -3.6745308464465974e-05 
 -3.7716178137551499e-05  -3.8712779536607382e-05  -3.9735798892137927e-05  -4.0785940960196991e-05 
 -4.1863929534325314e-05  -4.2970507972247541e-05  -4.4106439737786563e-05  -4.5272508958466914e-05 
 -4.6469520999295781e-05  -4.7698303053226804e-05  -4.8959704748829630e-05  -5.0254598775706538e-05 
 -5.1583881528215039e-05  -5.2948473768077505e-05  -5.4349321306476282e-05  -5.5787395706256776e-05 
 -5.7263695004880826e-05  -5.8779244458797329e-05  -6.0335097309920000e-05  -6.1932335574927197e-05 
 -6.3572070858124443e-05  -6.5255445188638203e-05  -6.6983631882735825e-05  -6.8757836432096808e-05 
 -7.0579297418890829e-05  -7.2449287458548769e-05  -7.4369114171148154e-05  -7.6340121182363966e-05 
 -7.8363689154978128e-05  -8.0441236851971817e-05  -8.2574222232267730e-05  -8.4764143580227667e-05 
 -8.7012540670054476e-05  -8.9320995966289427e-05  -9.1691135861643089e-05  -9.4124631953446735e-05 
 -9.6623202360056676e-05  -9.9188613078601679e-05  -1.0182267938551359e-04  -1.0452726728133806e-04 
 -1.0730429498138448e-04  -1.1015573445383150e-04  -1.1308361300697105e-04  -1.1609001492734158e-04 
 -1.1917708317056805e-04  -1.2234702110680256e-04  -1.2560209432273422e-04  -1.2894463248221613e-04 
 -1.3237703124764047e-04  -1.3590175426428285e-04  -1.3952133520992070e-04  -1.4323837991213269e-04 
 -1.4705556853578233e-04  -1.5097565784328963e-04  -1.5500148353040673e-04  -1.5913596264032609e-04 
 -1.6338209605906462e-04  -1.6774297109519394e-04  -1.7222176414711428e-04  -1.7682174346120652e-04 
 -1.8154627198433215e-04  -1.8639881031430795e-04  -1.9138291975212549e-04  -1.9650226545985550e-04 
 -2.0176061972834098e-04  -2.0716186535895903e-04  -2.1270999916391914e-04  -2.1840913558975484e-04 
 -2.2426351046886809e-04  -2.3027748490419826e-04  -2.3645554929230508e-04  -2.4280232749038832e-04 
 -2.4932258113300647e-04  -2.5602121410451010e-04  -2.6290327717346624e-04  -2.6997397279563242e-04 
 -2.7723866009231969e-04  -2.8470286001129348e-04  -2.9237226067766890e-04  -3.0025272294259732e-04 
 -3.0835028613787331e-04  -3.1667117404496787e-04  -3.2522180108735378e-04  -3.3400877875540169e-04 
 -3.4303892227352409e-04  -3.5231925751968366e-04  -3.6185702820783108e-04  -3.7165970334431030e-04 
 -3.8173498496976287e-04  -3.9209081619857172e-04  -4.0273538956843782e-04  -4.1367715571322702e-04 
 -4.2492483237282846e-04  -4.3648741375436903e-04  -4.4837418025977567e-04  -4.6059470859534537e-04 
 -4.7315888227967830e-04  -4.8607690256706313e-04  -4.9935929980416500e-04  -5.1301694523865854e-04 
 -5.2706106329927522e-04  -5.4150324436760193e-04  -5.5635545806286956e-04  -5.7163006706189700e-04 
 -5.8733984147735360e-04  -6.0349797381849442e-04  -6.2011809455961276e-04  -6.3721428834252422e-04 
 -6.5480111084056903e-04  -6.7289360631279916e-04  -6.9150732587825402e-04  -7.1065834654151898e-04 
 -7.3036329100208315e-04  -7.5063934828142464e-04  -7.7150429520313993e-04  -7.9297651876296935e-04 
 -8.1507503942706574e-04  -8.3781953539846293e-04  -8.6123036789333856e-04  -8.8532860747036004e-04 
 -9.1013606145812621e-04  -9.3567530252755679e-04  -9.6196969845788150e-04  -9.8904344314681048e-04 
 -1.0169215889173897e-03  -1.0456300801760538e-03  -1.0751957884783934e-03  -1.1056465490612590e-03 
 -1.1370111989018991e-03  -1.1693196163669768e-03  -1.2026027625164771e-03  -1.2368927241296868e-03 
 -1.2722227585226138e-03  -1.3086273402284009e-03  -1.3461422096144955e-03  -1.3848044235124268e-03 
 -1.4246524079382489e-03  -1.4657260129836837e-03  -1.5080665699600986e-03  -1.5517169508792554e-03 
 -1.5967216303566499e-03  -1.6431267500248859e-03  -1.6909801855460079e-03  -1.7403316163130272e-03 
 -1.7912325979319473e-03  -1.8437366375763419e-03  -1.8978992723070068e-03  -1.9537781504493485e-03 
 -2.0114331161207458e-03  -2.0709262969993737e-03  -2.1323221954245501e-03  -2.1956877829166538e-03 
 -2.2610925982019369e-03  -2.3286088488239684e-03  -2.3983115164190271e-03  -2.4702784657271832e-03 
 -2.5445905574042510e-03  -2.6213317646917090e-03  -2.7005892939924148e-03  -2.7824537093888040e-03 
 -2.8670190611275069e-03  -2.9543830180794486e-03  -3.0446470041674855e-03  -3.1379163387340466e-03 
 -3.2343003807990323e-03  -3.3339126771329496e-03  -3.4368711140415828e-03  -3.5432980727262754e-03 
 -3.6533205880474309e-03  -3.7670705104780895e-03  -3.8846846709886303e-03  -4.0063050485525543e-03 
 -4.1320789399061832e-03  -4.2621591311316504e-03  -4.3967040705618996e-03  -4.5358780424280378e-03 
 -4.6798513405827196e-03  -4.8288004415370294e-03  -4.9829081759425369e-03  -5.1423638975332418e-03 
 -5.3073636484134087e-03  -5.4781103194358697e-03  -5.6548138042601453e-03  -5.8376911455093666e-03 
 -6.0269666712588193e-03  -6.2228721198851625e-03  -6.4256467510832548e-03  -6.6355374406152886e-03 
 -6.8527987560933522e-03  -7.0776930108106678e-03  -7.3104902923259198e-03  -7.5514684621695062e-03 
 -7.8009131226770435e-03  -8.0591175465639237e-03  -8.3263825644330509e-03  -8.6030164049544396e-03 
 -8.8893344819701656e-03  -9.1856591222579526e-03  -9.4923192271328932e-03  -9.8096498604765599e-03 
 -1.0137991755157125e-02  -1.0477690729141523e-02  -1.0829097001903260e-02  -1.1192564400995501e-02 
 -1.1568449447892393e-02  -1.1957110311402015e-02  -1.2358905616126388e-02  -1.2774193092590251e-02 
 -1.3203328054785593e-02  -1.3646661689990082e-02  -1.4104539144820273e-02  -1.4577297390585036e-02 
 -1.5065262850120147e-02  -1.5568748767423906e-02  -1.6088052300590440e-02  -1.6623451317767480e-02 
 -1.7175200875166670e-02  -1.7743529355549036e-02  -1.8328634245116375e-02  -1.8930677526388200e-02 
 -1.9549780664459497e-02  -2.0186019164047577e-02  -2.0839416674974562e-02  -2.1509938624236311e-02 
 -2.2197485353602203e-02  -2.2901884742821604e-02  -2.3622884300005947e-02  -2.4360142702658471e-02 
 -2.5113220775165493e-02  -2.5881571891386498e-02  -2.6664531794323144e-02  -2.7461307828749924e-02 
 -2.8270967587195092e-02  -2.9092426974825426e-02  -2.9924437704666882e-02  -3.0765574241265817e-02 
 -3.1614220218459735e-02  -3.2468554365499940e-02  -3.3326535985519205e-02  -3.4185890041459312e-02 
 -3.5044091917310879e-02  -3.5898351937171967e-02  -3.6745599741520509e-02  -3.7582468639606056e-02 
 -3.8405280079339389e-02  -3.9210028401860234e-02  -3.9992366077336979e-02  -4.0747589651633574e-02 
 -4.1470626670164934e-02  -4.2156023885186189e-02  -4.2797937095147801e-02  -4.3390123008394253e-02 
 -4.3925933566636002e-02  -4.4398313203975470e-02  -4.4799799551884581e-02  -4.5122528125946630e-02 
 -4.5358241542416550e-02  -4.5498303807490419e-02  -4.5533720195408085e-02  -4.5455163179488486e-02 
 -4.5253004800362519e-02  -4.4917355747384202e-02  -4.4438111294204170e-02  -4.3805004072360473e-02 
 -4.3007663494623566e-02  -4.2035681461448864e-02  -4.0878683808119723e-02  -3.9526406784040020e-02 
 -3.7968777702912175e-02  -3.6195998763014665e-02  -3.4198632907035377e-02  -3.1967690466147787e-02 
 -2.9494715209769335e-02  -2.6771868300949245e-02  -2.3792008543510622e-02  -2.0548767212950719e-02 
 -1.7036615706728864e-02  -1.3250924253218001e-02  -9.1880100061781274e-03  -4.8451730445299148e-03 
 -2.2071910806823857e-04  4.6860316743662696e-03  9.8747502921504478e-03  1.5344118267843191e-02 
 2.1091860124631320e-02  2.7114787622129651e-02  3.3408854195089065e-02  3.9969217900912221e-02 
 4.6790311157098939e-02  5.3865915537095958e-02  6.1189239787133733e-02  6.8752999067488926e-02 
 7.6549493628313453e-02  8.4570679315529126e-02  9.2808231610687186e-02  1.0125359858480282e-01 
 1.0989803209316221e-01  1.1873259563361767e-01  1.2774814285625097e-01  1.3693526169557510e-01 
 1.4628418006069122e-01  1.5578463021895239e-01  1.6542567051802520e-01  1.7519546485193974e-01 
 1.8508102222330067e-01  1.9506790081561015e-01  2.0513988309173223e-01  2.1527863049876839e-01 
 2.2546332830465268e-01  2.3567033283481406e-01  2.4587283483572192e-01  2.5604055378671381e-01 
 2.6613947863934823e-01  2.7613167062210525e-01  2.8597514335887902e-01  2.9562383458087005e-01 
 3.0502768215180259e-01  3.1413281498653811e-01  3.2288186675685748e-01  3.3121441710267829e-01 
 3.3906756148159184e-01  3.4637660689423605e-01  3.5307588663494383e-01  3.5909968306732437e-01 
 3.6438324335327227e-01  3.6886386921612713e-01  3.7248205833820730e-01  3.7518267201763827e-01 
 3.7691610136566134e-01  3.7763940272376662e-01  3.7731737220913997e-01  3.7592352942135654e-01 
 3.7344098140263893e-01  3.6986313993590947e-01  3.6519426816699130e-01  3.5944983630330934e-01 
 3.5265667065822881e-01  3.4485288546457610e-01  3.3608759253336384e-01  3.2642038980072646e-01 
 3.1592063590180502e-01  3.0466652393267674e-01  2.9274397330452140e-01  2.8024536385563892e-01 
 2.6726814097638463e-01  2.5391332424927421e-01  2.4028395486918280e-01  2.2648351877908132e-01 
 2.1261438296806059e-01  1.9877628170766751e-01  1.8506488767297957e-01  1.7157049997594867e-01 
 1.5837687724264338e-01  1.4556023914466482e-01  1.3318845443130456e-01  1.2132042770972161e-01 
 1.1000569120645390e-01  9.9284201739551603e-02  8.9186337354809950e-02  7.9733082734166100e-02 
 7.0936387746447810e-02  6.2799679525614799e-02  5.5318505337221796e-02  4.8481281297167778e-02 
 4.2270120763569369e-02  3.6661715917686168e-02  3.1628246630734123e-02  2.7138292094915393e-02 
 2.3157722767004407e-02  1.9650552799787526e-02  1.6579736176405197e-02  1.3907893066459736e-02 
 1.1597956344076527e-02  9.6137316089518112e-03  7.9203673079547912e-03  6.4847345615962372e-03 
 5.2757189720452615e-03  4.2644289659829505e-03  3.4243270678814288e-03  2.7312918913194274e-03 
 2.1636195819167113e-03  1.7019739680326771e-03  1.3292948113210262e-03  1.0306733470823563e-03 
 7.9320381994011128e-04  6.0581901364380750e-04  4.5911690554547685e-04  3.4518460500694429e-04 
 2.5742471489058431e-04  1.9038823389193685e-04  1.3961713512163117e-04  1.0149884462675083e-04 
 7.3134026019905856e-05  5.2218369038447655e-05  3.6938488501441207e-05  2.5881566714283531e-05 
 1.7958012578992535e-05  1.2336155827937283e-05  8.3878331988404844e-06  5.6436415820069151e-06 
 3.7566166556404765e-06  2.4731302106642180e-06  1.6098715208454539e-06  1.0358757224344366e-06 
 6.5867454628036498e-07  4.1376326317501829e-07  2.5669546767879705e-07  1.5722926819330944e-07 
 9.5051158738961442e-08  5.6695202331083345e-08  3.3354324590595059e-08  1.9347416050041388e-08 
 1.1061210659975665e-08  6.2306139493443782e-09  3.4565500905640530e-09  1.8878591878179733e-09 
 1.0146989921280612e-09  5.3649740928035690e-10  2.7891857971610167e-10  1.4252094208720870e-10 
 7.1544648471181723e-11  3.5267806648151475e-11  1.7063750428570499e-11  8.0995095075119287e-12 
 3.7696991132707327e-12  1.7196019239135857e-12  7.6838053594155084e-13  3.3614430815244627e-13 
 1.4388824911434238e-13  6.0243785706006072e-14  2.4705503227561729e-14  9.8529138967408443e-15 
 3.8131002375211982e-15  1.3959118459193845e-15  5.3100577882061626e-16  2.5227476068291539e-16 
 1.1974758223312115e-16  0.0000000000000000e+00  0.0000000000000000e+00  0.0000000000000000e+00 
 0.0000000000000000e+00  0.0000000000000000e+00  0.0000000000000000e+00  0.0000000000000000e+00 
 0.0000000000000000e+00  0.0000000000000000e+00  0.0000000000000000e+00  0.0000000000000000e+00 
 0.0000000000000000e+00  0.0000000000000000e+00  0.0000000000000000e+00  0.0000000000000000e+00 
 0.0000000000000000e+00  0.0000000000000000e+00  0.0000000000000000e+00  0.0000000000000000e+00 
 0.0000000000000000e+00  0.0000000000000000e+00  0.0000000000000000e+00  0.0000000000000000e+00 
 0.0000000000000000e+00  0.0000000000000000e+00  0.0000000000000000e+00  0.0000000000000000e+00 
 0.0000000000000000e+00  0.0000000000000000e+00  0.0000000000000000e+00  0.0000000000000000e+00 
 0.0000000000000000e+00  0.0000000000000000e+00  0.0000000000000000e+00  0.0000000000000000e+00 
 0.0000000000000000e+00  0.0000000000000000e+00  0.0000000000000000e+00  0.0000000000000000e+00 
 0.0000000000000000e+00  0.0000000000000000e+00  0.0000000000000000e+00  0.0000000000000000e+00 
 0.0000000000000000e+00  0.0000000000000000e+00  0.0000000000000000e+00  0.0000000000000000e+00 
 0.0000000000000000e+00  0.0000000000000000e+00  0.0000000000000000e+00  0.0000000000000000e+00 
 0.0000000000000000e+00  0.0000000000000000e+00  0.0000000000000000e+00  0.0000000000000000e+00 
 0.0000000000000000e+00  0.0000000000000000e+00  0.0000000000000000e+00  0.0000000000000000e+00 
 0.0000000000000000e+00  0.0000000000000000e+00  0.0000000000000000e+00  0.0000000000000000e+00 
 0.0000000000000000e+00  0.0000000000000000e+00  0.0000000000000000e+00  0.0000000000000000e+00 
 0.0000000000000000e+00  0.0000000000000000e+00  0.0000000000000000e+00  0.0000000000000000e+00 
 0.0000000000000000e+00  0.0000000000000000e+00  0.0000000000000000e+00  0.0000000000000000e+00 
 0.0000000000000000e+00  0.0000000000000000e+00  0.0000000000000000e+00  0.0000000000000000e+00 
 0.0000000000000000e+00  0.0000000000000000e+00  0.0000000000000000e+00  0.0000000000000000e+00 
 0.0000000000000000e+00  0.0000000000000000e+00  0.0000000000000000e+00  0.0000000000000000e+00 
 0.0000000000000000e+00  0.0000000000000000e+00  0.0000000000000000e+00  0.0000000000000000e+00 
 0.0000000000000000e+00  0.0000000000000000e+00  0.0000000000000000e+00  0.0000000000000000e+00 
 0.0000000000000000e+00  0.0000000000000000e+00  0.0000000000000000e+00  0.0000000000000000e+00 
 0.0000000000000000e+00  0.0000000000000000e+00  0.0000000000000000e+00  0.0000000000000000e+00 
 0.0000000000000000e+00  0.0000000000000000e+00  0.0000000000000000e+00  0.0000000000000000e+00 
 0.0000000000000000e+00  0.0000000000000000e+00  0.0000000000000000e+00  0.0000000000000000e+00 
 0.0000000000000000e+00  0.0000000000000000e+00  0.0000000000000000e+00  0.0000000000000000e+00 
 0.0000000000000000e+00  0.0000000000000000e+00  0.0000000000000000e+00  0.0000000000000000e+00 
 0.0000000000000000e+00  0.0000000000000000e+00  0.0000000000000000e+00  0.0000000000000000e+00 
 0.0000000000000000e+00  0.0000000000000000e+00  0.0000000000000000e+00  0.0000000000000000e+00 
 0.0000000000000000e+00  0.0000000000000000e+00  0.0000000000000000e+00  0.0000000000000000e+00 
 0.0000000000000000e+00  0.0000000000000000e+00  0.0000000000000000e+00  0.0000000000000000e+00 
 0.0000000000000000e+00  0.0000000000000000e+00  0.0000000000000000e+00  0.0000000000000000e+00 
 0.0000000000000000e+00  0.0000000000000000e+00  0.0000000000000000e+00  0.0000000000000000e+00 
 0.0000000000000000e+00  0.0000000000000000e+00  0.0000000000000000e+00  0.0000000000000000e+00 
 0.0000000000000000e+00  0.0000000000000000e+00  0.0000000000000000e+00  0.0000000000000000e+00 
 0.0000000000000000e+00  0.0000000000000000e+00  0.0000000000000000e+00  0.0000000000000000e+00 
 0.0000000000000000e+00  0.0000000000000000e+00  0.0000000000000000e+00  0.0000000000000000e+00 
 0.0000000000000000e+00  0.0000000000000000e+00  0.0000000000000000e+00  0.0000000000000000e+00 
 0.0000000000000000e+00  0.0000000000000000e+00  0.0000000000000000e+00  0.0000000000000000e+00 
 0.0000000000000000e+00  0.0000000000000000e+00  0.0000000000000000e+00  0.0000000000000000e+00 
 0.0000000000000000e+00  0.0000000000000000e+00  0.0000000000000000e+00  0.0000000000000000e+00 
 0.0000000000000000e+00  0.0000000000000000e+00  0.0000000000000000e+00  0.0000000000000000e+00 
 0.0000000000000000e+00  0.0000000000000000e+00  0.0000000000000000e+00  0.0000000000000000e+00 
 0.0000000000000000e+00  0.0000000000000000e+00  0.0000000000000000e+00  0.0000000000000000e+00 
 0.0000000000000000e+00  0.0000000000000000e+00  0.0000000000000000e+00  0.0000000000000000e+00 
 0.0000000000000000e+00  0.0000000000000000e+00  0.0000000000000000e+00  0.0000000000000000e+00 
 0.0000000000000000e+00  0.0000000000000000e+00  0.0000000000000000e+00  0.0000000000000000e+00 
 0.0000000000000000e+00  0.0000000000000000e+00  0.0000000000000000e+00  0.0000000000000000e+00 
 0.0000000000000000e+00  0.0000000000000000e+00  0.0000000000000000e+00  0.0000000000000000e+00 
 0.0000000000000000e+00  0.0000000000000000e+00  0.0000000000000000e+00  0.0000000000000000e+00 
 0.0000000000000000e+00  0.0000000000000000e+00  0.0000000000000000e+00  0.0000000000000000e+00 
 0.0000000000000000e+00  0.0000000000000000e+00  0.0000000000000000e+00  0.0000000000000000e+00 
 0.0000000000000000e+00  0.0000000000000000e+00  0.0000000000000000e+00  0.0000000000000000e+00 
 0.0000000000000000e+00  0.0000000000000000e+00  0.0000000000000000e+00  0.0000000000000000e+00 
 0.0000000000000000e+00 
  </PP_BETA>
  <PP_BETA>
  2  2      Beta    L
  1189  
 -6.7449012635415551e-13  -7.0131492501702009e-13  -7.2920655890808382e-13  -7.5820745658094081e-13 
 -7.8836173399332055e-13  -8.1971526161597128e-13  -8.5231573421049860e-13  -8.8621274338229023e-13 
 -9.2145785301891476e-13  -9.5810467772874888e-13  -9.9620896439913081e-13  -1.0358286769981336e-12 
 -1.0770240847489406e-12  -1.1198578538109623e-12  -1.1643951426071534e-12  -1.2107037009425446e-12 
 -1.2588539730647636e-12  -1.3089192048233261e-12  -1.3609755550907102e-12  -1.4151022116146881e-12 
 -1.4713815114781680e-12  -1.5298990663497869e-12  -1.5907438927157750e-12  -1.6540085472912011e-12 
 -1.7197892678166104e-12  -1.7881861194541719e-12  -1.8593031470061205e-12  -1.9332485331869656e-12 
 -2.0101347631902826e-12  -2.0900787958003839e-12  -2.1732022413092170e-12  -2.2596315465090755e-12 
 -2.3494981870425717e-12  -2.4429388674024691e-12  -2.5400957288855917e-12  -2.6411165658171655e-12 
 -2.7461550503745210e-12  -2.8553709663521247e-12  -2.9689304522235800e-12  -3.0870062538703014e-12 
 -3.2097779873613533e-12  -3.3374324121841467e-12  -3.4701637153416961e-12  -3.6081738067485079e-12 
 -3.7516726263745563e-12  -3.9008784636044939e-12  -4.0560182892979580e-12  -4.2173281010560648e-12 
 -4.3850532822193186e-12  -4.5594489751430604e-12  -4.7407804693182460e-12  -4.9293236049279898e-12 
 -5.1253651924537509e-12  -5.3292034489694492e-12  -5.5411484517872392e-12  -5.7615226101449701e-12 
 -5.9906611556529245e-12  -6.2289126522458203e-12  -6.4766395264158920e-12  -6.7342186185335789e-12 
 -7.0020417560945707e-12  -7.2805163497650408e-12  -7.5700660131320322e-12  -7.8711312071015472e-12 
 -8.1841699099246982e-12  -8.5096583138710803e-12  -8.8480915496092741e-12  -9.1999844393962363e-12 
 -9.5658722802214807e-12  -9.9463116580972019e-12  -1.0341881294733206e-11  -1.0753182927884487e-11 
 -1.1180842226710675e-11  -1.1625509743539751e-11  -1.2087861903483940e-11  -1.2568602033413068e-11 
 -1.3068461431850734e-11  -1.3588200481420738e-11  -1.4128609805536185e-11  -1.4690511471090497e-11 
 -1.5274760238980231e-11  -1.5882244864361713e-11  -1.6513889448619537e-11  -1.7170654845103603e-11 
 -1.7853540120772961e-11  -1.8563584075969931e-11  -1.9301866824636501e-11  -2.0069511437376628e-11 
 -2.0867685649864076e-11  -2.1697603639194363e-11  -2.2560527870883154e-11  -2.3457771019320824e-11 
 -2.4390697964604407e-11  -2.5360727868784437e-11  -2.6369336334685383e-11  -2.7418057650583381e-11 
 -2.8508487124155900e-11  -2.9642283509253835e-11  -3.0821171529187621e-11  -3.2046944500365516e-11 
 -3.3321467060275509e-11  -3.4646678003960566e-11  -3.6024593233301565e-11  -3.7457308823595104e-11 
 -3.8947004212090596e-11  -4.0495945513337006e-11  -4.2106488966382707e-11  -4.3781084519072367e-11 
 -4.5522279554892929e-11  -4.7332722768038628e-11  -4.9215168192588767e-11  -5.1172479391928507e-11 
 -5.3207633814784910e-11  -5.5323727324504695e-11  -5.7523978908463846e-11  -5.9811735574773400e-11 
 -6.2190477443728675e-11  -6.4663823041749049e-11  -6.7235534805860445e-11  -6.9909524807093698e-11 
 -7.2689860701505427e-11  -7.5580771917874800e-11  -7.8586656091487525e-11  -8.1712085753795401e-11 
 -8.4961815288126915e-11  -8.8340788162030560e-11  -9.1854144447251955e-11  -9.5507228638784649e-11 
 -9.9305597784888808e-11  -1.0325502994044570e-10  -1.0736153295650554e-10  -1.1163135361940120e-10 
 -1.1607098715332991e-10  -1.2068718710085706e-10  -1.2548697559637330e-10  -1.3047765404813271e-10 
 -1.3566681424512235e-10  -1.4106234990565659e-10  -1.4667246868526700e-10  -1.5250570466215239e-10 
 -1.5857093131918152e-10  -1.6487737504219843e-10  -1.7143462915516166e-10  -1.7825266851347096e-10 
 -1.8534186467767730e-10  -1.9271300169066073e-10  -2.0037729248227488e-10  -2.0834639592641551e-10 
 -2.1663243457645669e-10  -2.2524801310603647e-10  -2.3420623748324432e-10  -2.4352073490737435e-10 
 -2.5320567453857939e-10  -2.6327578905195161e-10  -2.7374639704882430e-10  -2.8463342635938504e-10 
 -2.9595343827204479e-10  -3.0772365272642698e-10  -3.1996197450829619e-10  -3.3268702048627397e-10 
 -3.4591814793177794e-10  -3.5967548396525975e-10  -3.7397995617354160e-10  -3.8885332444482008e-10 
 -4.0431821406977172e-10  -4.2039815015910607e-10  -4.3711759342993285e-10  -4.5450197741537115e-10 
 -4.7257774715401029e-10  -4.9137239941807644e-10  -5.1091452454150055e-10  -5.3123384991151413e-10 
 -5.5236128518993626e-10  -5.7432896933294148e-10  -5.9717031948083673e-10  -6.2092008179221367e-10 
 -6.4561438429981787e-10  -6.7129079186852394e-10  -6.9798836333903430e-10  -7.2574771094421978e-10 
 -7.5461106208849333e-10  -7.8462232358418706e-10  -8.1582714844266570e-10  -8.4827300532176163e-10 
 -8.8200925073519369e-10  -9.1708720413380587e-10  -9.5356022597283619e-10  -9.9148379888398978e-10 
 -1.0309156120757832e-09  -1.0719156490905524e-09  -1.1145462790516273e-09  -1.1588723515394839e-09 
 -1.2049612952411852e-09  -1.2528832205231963e-09  -1.3027110260836025e-09  -1.3545205098459748e-09 
 -1.4083904842635726e-09  -1.4644028962092888e-09  -1.5226429516337340e-09  -1.5831992451810547e-09 
 -1.6461638949597108e-09  -1.7116326826731791e-09  -1.7797051993238034e-09  -1.8504849967114030e-09 
 -1.9240797449571171e-09  -2.0006013962921173e-09  -2.0801663553603681e-09  -2.1628956562944527e-09 
 -2.2489151468339114e-09  -2.3383556797661093e-09  -2.4313533119809197e-09  -2.5280495114419990e-09 
 -2.6285913723895197e-09  -2.7331318391017273e-09  -2.8418299385557311e-09  -2.9548510223414621e-09 
 -3.0723670181967977e-09  -3.1945566915465086e-09  -3.3216059174429052e-09  -3.4537079633218346e-09 
 -3.5910637830042589e-09  -3.7338823223905263e-09  -3.8823808373125485e-09  -4.0367852240272586e-09 
 -4.1973303628542202e-09  -4.3642604754801247e-09  -4.5378294964736894e-09  -4.7183014595762284e-09 
 -4.9059508993554165e-09  -5.1010632688333888e-09  -5.3039353737244382e-09  -5.5148758239429167e-09 
 -5.7342055030682110e-09  -5.9622580564810009e-09  -6.1993803989133397e-09  -6.4459332421847683e-09 
 -6.7022916439272036e-09  -6.9688455781333993e-09  -7.2460005283970610e-09  -7.5341781047469120e-09 
 -7.8338166850132016e-09  -8.1453720817024478e-09  -8.4693182353947177e-09  -8.8061479357185377e-09 
 -9.1563735710000860e-09  -9.5205279077272282e-09  -9.8991649010141163e-09  -1.0292860537299389e-08 
 -1.0702213710559964e-08  -1.1127847133373427e-08  -1.1570408284214950e-08  -1.2030570392430119e-08 
 -1.2509033462381856e-08  -1.3006525338329718e-08  -1.3523802811661563e-08  -1.4061652772161995e-08 
 -1.4620893405069227e-08  -1.5202375435741293e-08  -1.5806983423825450e-08  -1.6435637108899574e-08 
 -1.7089292809632620e-08  -1.7768944878593141e-08  -1.8475627214918970e-08  -1.9210414837149470e-08 
 -1.9974425518613293e-08  -2.0768821487859917e-08  -2.1594811196721700e-08  -2.2453651158696802e-08 
 -2.3346647860449728e-08  -2.4275159749337820e-08  -2.5240599299987781e-08  -2.6244435163066160e-08 
 -2.7288194399513272e-08  -2.8373464803639986e-08  -2.9501897318621643e-08  -3.0675208548064504e-08 
 -3.1895183367465939e-08  -3.3163677639541419e-08  -3.4482621037550241e-08  -3.5854019980914969e-08 
 -3.7279960687601290e-08  -3.8762612347902878e-08  -4.0304230424459362e-08  -4.1907160083528782e-08 
 -4.3573839762735099e-08  -4.5306804880718793e-08  -4.7108691694335028e-08  -4.8982241309267415e-08 
 -5.0930303850160657e-08  -5.2955842796615710e-08  -5.5061939491644807e-08  -5.7251797829435362e-08 
 -5.9528749129534749e-08  -6.1896257204937193e-08  -6.4357923631764419e-08  -6.6917493228547890e-08 
 -6.9578859753449712e-08  -7.2346071828092812e-08  -7.5223339097012255e-08  -7.8215038632102951e-08 
 -8.1325721591806823e-08  -8.4560120145175342e-08  -8.7923154671342024e-08  -9.1419941245361402e-08 
 -9.5055799421806208e-08  -9.8836260327967097e-08  -1.0276707507897152e-07  -1.0685422352762781e-07 
 -1.1110392336230981e-07  -1.1552263956672692e-07  -1.2011709425597864e-07  -1.2489427690385843e-07 
 -1.2986145497697585e-07  -1.3502618499187776e-07  -1.4039632401199964e-07  -1.4598004160194198e-07 
 -1.5178583225726699e-07  -1.5782252832873431e-07  -1.6409931346064404e-07  -1.7062573656374395e-07 
 -1.7741172634396408e-07  -1.8446760640909604e-07  -1.9180411097640970e-07  -1.9943240120511372e-07 
 -2.0736408217852491e-07  -2.1561122056179012e-07  -2.2418636296204452e-07  -2.3310255501895111e-07 
 -2.4237336125468188e-07  -2.5201288571356001e-07  -2.6203579342277963e-07  -2.7245733270687589e-07 
 -2.8329335838991425e-07  -2.9456035592072278e-07  -3.0627546645789519e-07  -3.1845651295275495e-07 
 -3.3112202726999452e-07  -3.4429127838727643e-07  -3.5798430171673389e-07  -3.7222192959301766e-07 
 -3.8702582297430757e-07  -4.0241850440455956e-07  -4.1842339228718020e-07  -4.3506483652232011e-07 
 -4.5236815556204908e-07  -4.7035967493985025e-07  -4.8906676733309671e-07  -5.0851789421953367e-07 
 -5.2874264919119729e-07  -5.4977180299174673e-07  -5.7163735034579413e-07  -5.9437255865156502e-07 
 -6.1801201861105129e-07  -6.4259169687478031e-07  -6.6814899078138498e-07  -6.9472278527536899e-07 
 -7.2235351208976430e-07  -7.5108321128384548e-07  -7.8095559522965751e-07  -8.1201611514482414e-07 
 -8.4431203027303517e-07  -8.7789247981759138e-07  -9.1280855773763355e-07  -9.4911339052101846e-07 
 -9.8686221805236695e-07  -1.0261124776995114e-06  -1.0669238917464982e-06  -1.1093585583063933e-06 
 -1.1534810458524671e-06  -1.1993584915118298e-06  -1.2470607032713611e-06  -1.2966602662517345e-06 
 -1.3482326532115366e-06  -1.4018563394499761e-06  -1.4576129222833333e-06  -1.5155872452773687e-06 
 -1.5758675274250711e-06  -1.6385454974667844e-06  -1.7037165335575146e-06  -1.7714798084944524e-06 
 -1.8419384407262100e-06  -1.9151996513741150e-06  -1.9913749275050835e-06  -2.0705801919051605e-06 
 -2.1529359796127584e-06  -2.2385676214809227e-06  -2.3276054350487500e-06  -2.4201849230132177e-06 
 -2.5164469796043457e-06  -2.6165381051786629e-06  -2.7206106293585526e-06  -2.8288229430581131e-06 
 -2.9413397397497605e-06  -3.0583322663399892e-06  -3.1799785840373134e-06  -3.3064638396108554e-06 
 -3.4379805474538159e-06  -3.5747288828827098e-06  -3.7169169871204022e-06  -3.8647612844289337e-06 
 -4.0184868118766557e-06  -4.1783275622436652e-06  -4.3445268405896065e-06  -4.5173376350288527e-06 
 -4.6970230022798888e-06  -4.8838564685783863e-06  -5.0781224465669954e-06  -5.2801166687994233e-06 
 -5.4901466385219436e-06  -5.7085320984217553e-06  -5.9356055180595848e-06  -6.1717126007322444e-06 
 -6.4172128105410218e-06  -6.6724799204725360e-06  -6.9379025823313436e-06  -7.2138849193967533e-06 
 -7.5008471427117562e-06  -7.7992261919478058e-06  -8.1094764018274786e-06  -8.4320701951260636e-06 
 -8.7674988033142496e-06  -9.1162730159464987e-06  -9.4789239599441633e-06  -9.8560039099683406e-06 
 -1.0248087131125480e-05  -1.0655770755298613e-05  -1.1079675692448911e-05  -1.1520447578286291e-05 
 -1.1978757759764098e-05  -1.2455304319910980e-05  -1.2950813143574192e-05  -1.3466039025711705e-05 
 -1.4001766823936230e-05  -1.4558812657082842e-05  -1.5138025151643097e-05  -1.5740286737982647e-05 
 -1.6366514998336628e-05  -1.7017664068656997e-05  -1.7694726096470161e-05  -1.8398732756989423e-05 
 -1.9130756829817717e-05  -1.9891913838669998e-05  -2.0683363756642824e-05  -2.1506312779660083e-05 
 -2.2362015170830799e-05  -2.3251775178564118e-05  -2.4176949031402791e-05  -2.5138947012654868e-05 
 -2.6139235618028816e-05  -2.7179339799605834e-05  -2.8260845299618910e-05  -2.9385401077647620e-05 
 -3.0554721834984640e-05  -3.1770590640081097e-05  -3.3034861659137009e-05  -3.4349462996067374e-05 
 -3.5716399646246057e-05  -3.7137756568608178e-05  -3.8615701880878242e-05  -4.0152490182883675e-05 
 -4.1750466013115912e-05  -4.3412067443910994e-05  -4.5139829820839487e-05  -4.6936389652123378e-05 
 -4.8804488654134953e-05  -5.0746977959278729e-05  -5.2766822492814819e-05  -5.4867105525449024e-05 
 -5.7051033408794814e-05  -5.9321940501101251e-05  -6.1683294290944179e-05  -6.4138700726891864e-05 
 -6.6691909761485129e-05  -6.9346821118213418e-05  -7.2107490290523668e-05  -7.4978134782269438e-05 
 -7.7963140599395528e-05  -8.1067069003053219e-05  -8.4294663534762945e-05  -8.7650857324676640e-05 
 -9.1140780694447184e-05  -9.4769769066688466e-05  -9.8543371193500628e-05  -1.0246735771705470e-04 
 -1.0654773007576362e-04  -1.1079072977012916e-04  -1.1520284800293625e-04  -1.1979083570907515e-04 
 -1.2456171399090592e-04  -1.2952278497574022e-04  -1.3468164311270436e-04  -1.4004618692696765e-04 
 -1.4562463125006740e-04  -1.5142551994584645e-04  -1.5745773915232898e-04  -1.6373053106071562e-04 
 -1.7025350825356338e-04  -1.7703666862514000e-04  -1.8409041090790642e-04  -1.9142555083009232e-04 
 -1.9905333793037287e-04  -2.0698547305675669e-04  -2.1523412657793511e-04  -2.2381195733653598e-04 
 -2.3273213237497492e-04  -2.4200834746589185e-04  -2.5165484848051862e-04  -2.6168645362974430e-04 
 -2.7211857661412143e-04  -2.8296725072059583e-04  -2.9424915390536594e-04  -3.0598163490395486e-04 
 -3.1818274041133665e-04  -3.3087124337679951e-04  -3.4406667246015003e-04  -3.5778934269786196e-04 
 -3.7206038742987075e-04  -3.8690179153991227e-04  -4.0233642606457841e-04  -4.1838808422866859e-04 
 -4.3508151896690784e-04  -4.5244248199471774e-04  -4.7049776449346198e-04  -4.8927523947844343e-04 
 -5.0880390592091972e-04  -5.2911393469852951e-04  -5.5023671645178913e-04  -5.7220491142774760e-04 
 -5.9505250139545705e-04  -6.1881484372166456e-04  -6.4352872769905659e-04  -6.6923243322347659e-04 
 -6.9596579192084812e-04  -7.2377025082900697e-04  -7.5268893874438805e-04  -7.8276673534840528e-04 
 -8.1405034323355169e-04  -8.4658836295464952e-04  -8.8043137123634016e-04  -9.1563200247384415e-04 
 -9.5224503367025701e-04  -9.9032747296013486e-04  -1.0299386518760024e-03  -1.0711403215215478e-03 
 -1.1139967528227903e-03  -1.1585748410364127e-03  -1.2049442147026770e-03  -1.2531773492390392e-03 
 -1.3033496853796698e-03  -1.3555397526756228e-03  -1.4098292982804364e-03  -1.4663034212564258e-03 
 -1.5250507126480296e-03  -1.5861634015800717e-03  -1.6497375076510808e-03  -1.7158729999045001e-03 
 -1.7846739626741059e-03  -1.8562487686140435e-03  -1.9307102592387008e-03  -2.0081759333132991e-03 
 -2.0887681434523051e-03  -2.1726143013001786e-03  -2.2598470916869290e-03  -2.3506046961700596e-03 
 -2.4450310263945080e-03  -2.5432759677232412e-03  -2.6454956336133253e-03  -2.7518526312356874e-03 
 -2.8625163388612089e-03  -2.9776631955617792e-03  -3.0974770038020719e-03  -3.2221492455264647e-03 
 -3.3518794123756947e-03  -3.4868753506997448e-03  -3.6273536220667014e-03  -3.7735398800029085e-03 
 -3.9256692637367023e-03  -4.0839868097573171e-03  -4.2487478820418473e-03  -4.4202186218467209e-03 
 -4.5986764180060771e-03  -4.7844103987278947e-03  -4.9777219459298310e-03  -5.1789252332106574e-03 
 -5.3883477886100322e-03  -5.6063310833694858e-03  -5.8332311479706916e-03  -6.0694192167942444e-03 
 -6.3152824028124823e-03  -6.5712244038047722e-03  -6.8376662416621495e-03  -7.1150470364316192e-03 
 -7.4038248168380874e-03  -7.7044773691148935e-03  -8.0175031260718253e-03  -8.3434220984332803e-03 
 -8.6827768505887536e-03  -9.0361335230135145e-03  -9.4040829037398254e-03  -9.7872415513885220e-03 
 -1.0186252972407406e-02  -1.0601788855307850e-02  -1.1034550364843734e-02  -1.1485269499239063e-02 
 -1.1954710513741426e-02  -1.2443671413959911e-02  -1.2952985522637487e-02  -1.3483523123710808e-02 
 -1.4036193187724602e-02  -1.4611945182895367e-02  -1.5211770976358898e-02  -1.5836706830390481e-02 
 -1.6487835498656352e-02  -1.7166288427838901e-02  -1.7873248070280751e-02  -1.8609950313611186e-02 
 -1.9377687033656978e-02  -2.0177808777297166e-02  -2.1011727582299966e-02  -2.1880919941581499e-02 
 -2.2786929919749819e-02  -2.3731372430247887e-02  -2.4715936681884279e-02  -2.5742389804044852e-02 
 -2.6812580660410867e-02  -2.7928443861574587e-02  -2.9092003987540346e-02  -3.0305380031730972e-02 
 -3.1570790078790420e-02  -3.2890556229179892e-02  -3.4267109784316060e-02  -3.5702996706792091e-02 
 -3.7200883371061672e-02  -3.8763562620854446e-02  -4.0393960150529117e-02  -4.2095141228564288e-02 
 -4.3870317782436122e-02  -4.5722855865242711e-02  -4.7656283525605928e-02  -4.9674299103623053e-02 
 -5.1780779976947876e-02  -5.3979791782463163e-02  -5.6275598140467870e-02  -5.8672670909839596e-02 
 -6.1175701004260619e-02  -6.3789609801307726e-02  -6.6519561178013012e-02  -6.9370974208406447e-02 
 -7.2349536560555386e-02  -7.5461218632726840e-02  -7.8712288470516686e-02  -8.2109327509127375e-02 
 -8.5659247187424237e-02  -8.9369306482977154e-02  -9.3247130419997673e-02  -9.7300729604910180e-02 
 -1.0153852084726475e-01  -1.0596934892680090e-01  -1.1060250957071929e-01  -1.1544777370859993e-01 
 -1.2051541307594364e-01  -1.2581622724098748e-01  -1.3136157213327415e-01  -1.3716339015642176e-01 
 -1.4323424197166176e-01  -1.4958734004296695e-01  -1.5623658403898760e-01  -1.6319659819153881e-01 
 -1.7048277071503326e-01  -1.7811129539601137e-01  -1.8609921546678038e-01  -1.9446446988212268e-01 
 -2.0322594212302955e-01  -2.1240351165647076e-01  -2.2201810818526341e-01  -2.3209176882714028e-01 
 -2.4264769836709918e-01  -2.5371033273198129e-01  -2.6530540584095658e-01  -2.7746001999008885e-01 
 -2.9020271993339247e-01  -3.0356357082664059e-01  -3.1757424020363034e-01  -3.3226808415746700e-01 
 -3.4768023790166697e-01  -3.6384771088730988e-01  -3.8080948665299763e-01  -3.9860662758380516e-01 
 -4.1728238475359808e-01  -4.3688231302181330e-01  -4.5745439155085571e-01  -4.7904914990340763e-01 
 -5.0171979986990645e-01  -5.2552237316493178e-01  -5.5051586511693640e-01  -5.7676238445827988e-01 
 -6.0432730930152023e-01  -6.3327944936294034e-01  -6.6369121446488577e-01  -6.9563878931415857e-01 
 -7.2920231451392181e-01  -7.6446607372072328e-01  -8.0151868680573302e-01  -8.4045330881945657e-01 
 -8.8136783449126133e-01  -9.2436510791838744e-01  -9.6955313701282320e-01  -1.0170453121777083e+00 
 -1.0669606285769699e+00  -1.1194239112417093e+00  -1.1745660421236124e+00  -1.2325241880583850e+00 
 -1.2934420284399701e+00  -1.3574699812282047e+00  -1.4247654257176754e+00  -1.4954929202830498e+00 
 -1.5698244130852010e+00  -1.6479394434724426e+00  -1.7300253315414946e+00  -1.8162773530330214e+00 
 -1.9068988964265472e+00  -2.0021015987692263e+00  -2.1021054564227755e+00  -2.2071389065434315e+00 
 -2.3174388747222281e+00  -2.4332507838088668e+00  -2.5548285185239834e+00  -2.6824343400346180e+00 
 -2.8163387442296530e+00  -2.9568202569901665e+00  -3.1041651593095794e+00  -3.2586671346859055e+00 
 -3.4206268307913694e+00  -3.5903513270311160e+00  -3.7681534992428394e+00  -3.9543512724740246e+00 
 -4.1492667525156683e+00  -4.3532252266847582e+00  -4.5665540242481351e+00  -4.7895812268841542e+00 
 -5.0226342197041944e+00  -5.2660380736227737e+00  -5.5201137502931106e+00  -5.7851761214353159e+00 
 -6.0615317951984364e+00  -6.3494767432360444e+00  -6.6492937234582232e+00  -6.9612494949695636e+00 
 -7.2855918235287795e+00  -7.6225462779839530e+00  -7.9723128205563221e+00  -8.3350621965674208e+00 
 -8.7109321322247695e+00  -9.1000233523876624e+00  -9.5023954338050274e+00  -9.9180625131196951e+00 
 -1.0346988872925094e+01  -1.0789084433287815e+01  -1.1244200180349829e+01  -1.1712123567824795e+01 
 -1.2192573931327944e+01  -1.2685197959448137e+01  -1.3189565269209064e+01  -1.3705164137006900e+01 
 -1.4231397439204283e+01  -1.4767578859275925e+01  -1.5312929420741616e+01  -1.5866574407119668e+01 
 -1.6427540731855800e+01  -1.6994754822726343e+01  -1.7567041086700048e+01  -1.8143121022797207e+01 
 -1.8721613052222462e+01  -1.9301033137045643e+01  -1.9879796260967748e+01  -2.0456218848142925e+01 
 -2.1028522198396644e+01  -2.1594837019082647e+01  -2.2153209134651302e+01  -2.2701606453937853e+01 
 -2.3237927271173984e+01  -2.3760009968541979e+01  -2.4265644174373264e+01  -2.4752583410521389e+01 
 -2.5218559233956622e+01  -2.5661296840755167e+01  -2.6078532055823896e+01  -2.6468029580557157e+01 
 -2.6827602316125976e+01  -2.7155131526338966e+01  -2.7448587555652686e+01  -2.7706050779347589e+01 
 -2.7925732437327994e+01  -2.8105994991746279e+01  -2.8245371650816345e+01  -2.8342584714037628e+01 
 -2.8396562413782007e+01  -2.8406453950861035e+01  -2.8371642444113810e+01  -2.8291755534444590e+01 
 -2.8166673402048655e+01  -2.7996533973673650e+01  -2.7781735118543580e+01  -2.7522933662796614e+01 
 -2.7221041100039223e+01  -2.6877215946968619e+01  -2.6492852792561745e+01  -2.6069568216069442e+01 
 -2.5609183893532574e+01  -2.5113707356050174e+01  -2.4585310980428954e+01  -2.4026309859105549e+01 
 -2.3439139194842856e+01  -2.2826331795231809e+01  -2.2190496117643129e+01  -2.1534295202194450e+01 
 -2.0860426850627888e+01  -2.0171603797357566e+01  -1.9470535821972831e+01  -1.8759913176340277e+01 
 -1.8042390028154589e+01  -1.7320568991267141e+01  -1.6596986543973252e+01  -1.5874099359261061e+01 
 -1.5154271632761525e+01  -1.4439763508730477e+01  -1.3732720703900354e+01  -1.3035165415830582e+01 
 -1.2348988580156901e+01  -1.1675943513891895e+01  -1.1017640953260143e+01  -1.0375545467280100e+01 
 -9.7509732043609283e+00  -9.1450909096584780e+00  -8.5589161362388637e+00  -7.9933185631243528e+00 
 -7.4490223275952534e+00  -6.9266092770365963e+00  -6.4265230463980121e+00  -5.9490738702177985e+00 
 -5.4944440424166743e+00  -5.0626939420577974e+00  -4.6537685484512235e+00  -4.2675043739306489e+00 
 -3.9036367470415136e+00  -3.5618073825620300e+00  -3.2415721776489637e+00  -2.9424091754690656e+00 
 -2.6637266390333245e+00  -2.4048711787441399e+00  -2.1651358775856062e+00  -1.9437683581479315e+00 
 -1.7399787359977168e+00  -1.5529474044957012e+00  -1.3818325972079979e+00  -1.2257776757077601e+00 
 -1.0839180925722007e+00  -9.5538798483536547e-01  -8.3932635115660614e-01  -7.3488277895507437e-01 
 -6.4122268686108830e-01  -5.5753205655972671e-01  -4.8302163425913985e-01  -4.1693058896517643e-01 
 -3.5852962188341975e-01  -3.0712352843009139e-01  -2.6205322134710646e-01  -2.2269723012371950e-01 
 -1.8847269818019233e-01  -1.5883590493722952e-01  -1.3328234486854076e-01  -1.1134639982606317e-01 
 -9.2600644275472682e-02  -7.6654825546191546e-02  -6.3154562772772982e-02  -5.1779808894278447e-02 
 -4.2243119918450388e-02  -3.4287774701568553e-02  -2.7685786813348788e-02  -2.2235847734329833e-02 
 -1.7761237766992340e-02  -1.4107737735529863e-02  -1.1141570911155146e-02  -8.7474007395635777e-03 
 -6.8264059721981759e-03  -5.2944508153556467e-03  -4.0803638054425330e-03  -3.1243353793239123e-03 
 -2.3764406080356575e-03  -1.7952903596390344e-03  -1.3468112979631377e-03  -1.0031526394844467e-03 
 -7.4171549781722169e-04  -5.4429894801838637e-04  -3.9635563298003968e-04  -2.8634879276424571e-04 
 -2.0520199717850740e-04  -1.4583256779618931e-04  -1.0275964860579549e-04  -7.1778082428397281e-05 
 -4.9689630053333323e-05  -3.4083588371718756e-05  -2.3159482532947860e-05  -1.5585188581051742e-05 
 -1.0384554743490205e-05  -6.8493039118896896e-06  -4.4706944064765006e-06  -2.8870734285215606e-06 
 -1.8440651373757215e-06  -1.1646849394113990e-06  -7.2715912260997294e-07  -4.4865345940762326e-07 
 -2.7347749408315185e-07  -1.6463652738036819e-07  -9.7855753224829706e-08  -5.7406362900238846e-08 
 -3.3227790389681601e-08  -1.8969729728320807e-08  -1.0677896151375623e-08  -5.9240369427362466e-09 
 -3.2381422295903933e-09  -1.7432295318133372e-09  -9.2389761103035156e-10  -4.8186944294546112e-10 
 -2.4722509679378123e-10  -1.2471818458126281e-10  -6.1837627812522245e-11  -3.0120932025367203e-11 
 -1.4407223414980454e-11  -6.7636696791542729e-12  -3.1150507962238129e-12  -1.4067769786616966e-12 
 -6.2264267434362702e-13  -2.6991952795087177e-13  -1.1455480446354410e-13  -4.7573900899787507e-14 
 -1.9315777719374162e-14  -7.6791306614362606e-15  -2.9752068117859877e-15  -1.1209886022335837e-15 
 -4.1435339719081415e-16  -1.5177429773184978e-16  -5.5534803444954326e-17  -1.2686608656744911e-17 
 -1.1580107446697931e-17  0.0000000000000000e+00  0.0000000000000000e+00  0.0000000000000000e+00 
 0.0000000000000000e+00  0.0000000000000000e+00  0.0000000000000000e+00  0.0000000000000000e+00 
 0.0000000000000000e+00  0.0000000000000000e+00  0.0000000000000000e+00  0.0000000000000000e+00 
 0.0000000000000000e+00  0.0000000000000000e+00  0.0000000000000000e+00  0.0000000000000000e+00 
 0.0000000000000000e+00  0.0000000000000000e+00  0.0000000000000000e+00  0.0000000000000000e+00 
 0.0000000000000000e+00  0.0000000000000000e+00  0.0000000000000000e+00  0.0000000000000000e+00 
 0.0000000000000000e+00  0.0000000000000000e+00  0.0000000000000000e+00  0.0000000000000000e+00 
 0.0000000000000000e+00  0.0000000000000000e+00  0.0000000000000000e+00  0.0000000000000000e+00 
 0.0000000000000000e+00  0.0000000000000000e+00  0.0000000000000000e+00  0.0000000000000000e+00 
 0.0000000000000000e+00  0.0000000000000000e+00  0.0000000000000000e+00  0.0000000000000000e+00 
 0.0000000000000000e+00  0.0000000000000000e+00  0.0000000000000000e+00  0.0000000000000000e+00 
 0.0000000000000000e+00  0.0000000000000000e+00  0.0000000000000000e+00  0.0000000000000000e+00 
 0.0000000000000000e+00  0.0000000000000000e+00  0.0000000000000000e+00  0.0000000000000000e+00 
 0.0000000000000000e+00  0.0000000000000000e+00  0.0000000000000000e+00  0.0000000000000000e+00 
 0.0000000000000000e+00  0.0000000000000000e+00  0.0000000000000000e+00  0.0000000000000000e+00 
 0.0000000000000000e+00  0.0000000000000000e+00  0.0000000000000000e+00  0.0000000000000000e+00 
 0.0000000000000000e+00  0.0000000000000000e+00  0.0000000000000000e+00  0.0000000000000000e+00 
 0.0000000000000000e+00  0.0000000000000000e+00  0.0000000000000000e+00  0.0000000000000000e+00 
 0.0000000000000000e+00  0.0000000000000000e+00  0.0000000000000000e+00  0.0000000000000000e+00 
 0.0000000000000000e+00  0.0000000000000000e+00  0.0000000000000000e+00  0.0000000000000000e+00 
 0.0000000000000000e+00  0.0000000000000000e+00  0.0000000000000000e+00  0.0000000000000000e+00 
 0.0000000000000000e+00  0.0000000000000000e+00  0.0000000000000000e+00  0.0000000000000000e+00 
 0.0000000000000000e+00  0.0000000000000000e+00  0.0000000000000000e+00  0.0000000000000000e+00 
 0.0000000000000000e+00  0.0000000000000000e+00  0.0000000000000000e+00  0.0000000000000000e+00 
 0.0000000000000000e+00  0.0000000000000000e+00  0.0000000000000000e+00  0.0000000000000000e+00 
 0.0000000000000000e+00  0.0000000000000000e+00  0.0000000000000000e+00  0.0000000000000000e+00 
 0.0000000000000000e+00  0.0000000000000000e+00  0.0000000000000000e+00  0.0000000000000000e+00 
 0.0000000000000000e+00  0.0000000000000000e+00  0.0000000000000000e+00  0.0000000000000000e+00 
 0.0000000000000000e+00  0.0000000000000000e+00  0.0000000000000000e+00  0.0000000000000000e+00 
 0.0000000000000000e+00  0.0000000000000000e+00  0.0000000000000000e+00  0.0000000000000000e+00 
 0.0000000000000000e+00  0.0000000000000000e+00  0.0000000000000000e+00  0.0000000000000000e+00 
 0.0000000000000000e+00  0.0000000000000000e+00  0.0000000000000000e+00  0.0000000000000000e+00 
 0.0000000000000000e+00  0.0000000000000000e+00  0.0000000000000000e+00  0.0000000000000000e+00 
 0.0000000000000000e+00  0.0000000000000000e+00  0.0000000000000000e+00  0.0000000000000000e+00 
 0.0000000000000000e+00  0.0000000000000000e+00  0.0000000000000000e+00  0.0000000000000000e+00 
 0.0000000000000000e+00  0.0000000000000000e+00  0.0000000000000000e+00  0.0000000000000000e+00 
 0.0000000000000000e+00  0.0000000000000000e+00  0.0000000000000000e+00  0.0000000000000000e+00 
 0.0000000000000000e+00  0.0000000000000000e+00  0.0000000000000000e+00  0.0000000000000000e+00 
 0.0000000000000000e+00  0.0000000000000000e+00  0.0000000000000000e+00  0.0000000000000000e+00 
 0.0000000000000000e+00  0.0000000000000000e+00  0.0000000000000000e+00  0.0000000000000000e+00 
 0.0000000000000000e+00  0.0000000000000000e+00  0.0000000000000000e+00  0.0000000000000000e+00 
 0.0000000000000000e+00  0.0000000000000000e+00  0.0000000000000000e+00  0.0000000000000000e+00 
 0.0000000000000000e+00  0.0000000000000000e+00  0.0000000000000000e+00  0.0000000000000000e+00 
 0.0000000000000000e+00  0.0000000000000000e+00  0.0000000000000000e+00  0.0000000000000000e+00 
 0.0000000000000000e+00  0.0000000000000000e+00  0.0000000000000000e+00  0.0000000000000000e+00 
 0.0000000000000000e+00  0.0000000000000000e+00  0.0000000000000000e+00  0.0000000000000000e+00 
 0.0000000000000000e+00  0.0000000000000000e+00  0.0000000000000000e+00  0.0000000000000000e+00 
 0.0000000000000000e+00  0.0000000000000000e+00  0.0000000000000000e+00  0.0000000000000000e+00 
 0.0000000000000000e+00  0.0000000000000000e+00  0.0000000000000000e+00  0.0000000000000000e+00 
 0.0000000000000000e+00  0.0000000000000000e+00  0.0000000000000000e+00  0.0000000000000000e+00 
 0.0000000000000000e+00  0.0000000000000000e+00  0.0000000000000000e+00  0.0000000000000000e+00 
 0.0000000000000000e+00  0.0000000000000000e+00  0.0000000000000000e+00  0.0000000000000000e+00 
 0.0000000000000000e+00  0.0000000000000000e+00  0.0000000000000000e+00  0.0000000000000000e+00 
 0.0000000000000000e+00  0.0000000000000000e+00  0.0000000000000000e+00  0.0000000000000000e+00 
 0.0000000000000000e+00  0.0000000000000000e+00  0.0000000000000000e+00  0.0000000000000000e+00 
 0.0000000000000000e+00  0.0000000000000000e+00  0.0000000000000000e+00  0.0000000000000000e+00 
 0.0000000000000000e+00  0.0000000000000000e+00  0.0000000000000000e+00  0.0000000000000000e+00 
 0.0000000000000000e+00  0.0000000000000000e+00  0.0000000000000000e+00  0.0000000000000000e+00 
 0.0000000000000000e+00  0.0000000000000000e+00  0.0000000000000000e+00  0.0000000000000000e+00 
 0.0000000000000000e+00  0.0000000000000000e+00  0.0000000000000000e+00  0.0000000000000000e+00 
 0.0000000000000000e+00  0.0000000000000000e+00  0.0000000000000000e+00  0.0000000000000000e+00 
 0.0000000000000000e+00 
  </PP_BETA>
  <PP_DIJ>
 2   Number of nonzero Dij
 1 1 9.7043123908442777e+00 
 2 2 -8.7929397707131346e-02 
  </PP_DIJ>
</PP_NONLOCAL>
<PP_PSWFC>
S    0   1.00          Wavefunction
 9.8498215654680896e-09  9.9787051783065133e-09  1.0109275216288294e-08  1.0241553746069283e-08 
 1.0375563123044869e-08  1.0511325995128084e-08  1.0648865306577179e-08  1.0788204301873284e-08 
 1.0929366529648770e-08  1.1072375846667069e-08  1.1217256421854518e-08  1.1364032740384993e-08 
 1.1512729607817983e-08  1.1663372154290798e-08  1.1815985838765648e-08  1.1970596453332282e-08 
 1.2127230127566948e-08  1.2285913332948348e-08  1.2446672887331438e-08  1.2609535959479705e-08 
 1.2774530073656798e-08  1.2941683114278194e-08  1.3111023330623790e-08  1.3282579341612099e-08 
 1.3456380140636960e-08  1.3632455100467511e-08  1.3810833978212291e-08  1.3991546920348299e-08 
 1.4174624467815854e-08  1.4360097561180108e-08  1.4547997545860130e-08  1.4738356177426379e-08 
 1.4931205626967523e-08  1.5126578486527458e-08  1.5324507774613495e-08  1.5525026941776603e-08 
 1.5728169876264681e-08  1.5933970909749800e-08  1.6142464823130381e-08  1.6353686852409315e-08 
 1.6567672694648968e-08  1.6784458514004143e-08  1.7004080947833948e-08  1.7226577112893666e-08 
 1.7451984611607648e-08  1.7680341538424261e-08  1.7911686486254008e-08  1.8146058552991909e-08 
 1.8383497348125207e-08  1.8624042999427517e-08  1.8867736159740629e-08  1.9114618013844992e-08 
 1.9364730285420158e-08  1.9618115244096225e-08  1.9874815712597633e-08  2.0134875073980401e-08 
 2.0398337278964048e-08  2.0665246853359488e-08  2.0935648905594099e-08  2.1209589134335277e-08 
 2.1487113836213728e-08  2.1768269913647827e-08  2.2053104882770381e-08  2.2341666881459088e-08 
 2.2634004677472086e-08  2.2930167676689971e-08  2.3230205931465651e-08  2.3534170149083479e-08 
 2.3842111700329049e-08  2.4154082628171150e-08  2.4470135656557336e-08  2.4790324199324570e-08 
 2.5114702369226454e-08  2.5443324987078667e-08  2.5776247591023954e-08  2.6113526445918443e-08 
 2.6455218552840770e-08  2.6801381658725584e-08  2.7152074266123218e-08  2.7507355643086915e-08 
 2.7867285833189609e-08  2.8231925665671656e-08  2.8601336765721391e-08  2.8975581564890243e-08 
 2.9354723311644116e-08  2.9738826082052803e-08  3.0127954790619364e-08  3.0522175201251124e-08 
 3.0921553938374317e-08  3.1326158498194117e-08  3.1736057260102029e-08  3.2151319498232562e-08 
 3.2572015393171171e-08  3.2998216043815279e-08  3.3429993479390708e-08  3.3867420671625165e-08 
 3.4310571547081138e-08  3.4759520999650186e-08  3.5214344903210678e-08  3.5675120124451168e-08 
 3.6141924535861665e-08  3.6614837028894787e-08  3.7093937527299249e-08  3.7579307000627788e-08 
 3.8071027477921833e-08  3.8569182061575343e-08  3.9073854941379920e-08  3.9585131408753932e-08 
 4.0103097871157610e-08  4.0627841866697019e-08  4.1159452078918950e-08  4.1698018351799497e-08 
 4.2243631704928899e-08  4.2796384348894848e-08  4.3356369700867383e-08  4.3923682400387532e-08 
 4.4498418325362719e-08  4.5080674608271373e-08  4.5670549652579743e-08  4.6268143149373450e-08 
 4.6873556094206724e-08  4.7486890804172212e-08  4.8108250935194032e-08  4.8737741499547312e-08 
 4.9375468883606924e-08  5.0021540865828478e-08  5.0676066634964727e-08  5.1339156808520276e-08 
 5.2010923451447875e-08  5.2691480095089400e-08  5.3380941756364752e-08  5.4079424957211744e-08 
 5.4787047744280669e-08  5.5503929708886359e-08  5.6230192007221621e-08  5.6965957380834958e-08 
 5.7711350177376593e-08  5.8466496371615795e-08  5.9231523586733371e-08  6.0006561115892912e-08 
 6.0791739944094200e-08  6.1587192770312808e-08  6.2393054029929346e-08  6.3209459917452452e-08 
 6.4036548409538889e-08  6.4874459288315443e-08  6.5723334165005518e-08  6.6583316503865373e-08 
 6.7454551646433579e-08  6.8337186836097750e-08  6.9231371242983063e-08  7.0137255989166280e-08 
 7.1054994174220160e-08  7.1984740901091889e-08  7.2926653302320512e-08  7.3880890566597514e-08 
 7.4847613965674862e-08  7.5826986881625690e-08  7.6819174834461420e-08  7.7824345510110733e-08 
 7.8842668788764598e-08  7.9874316773592424e-08  8.0919463819834240e-08  8.1978286564273629e-08 
 8.3050963955096503e-08  8.4137677282140760e-08  8.5238610207542118e-08  8.6353948796781001e-08 
 8.7483881550135891e-08  8.8628599434548674e-08  8.9788295915906924e-08  9.0963166991749028e-08 
 9.2153411224397583e-08  9.3359229774526351e-08  9.4580826435166891e-08  9.5818407666160601e-08 
 9.7072182629061547e-08  9.8342363222496670e-08  9.9629164117988670e-08  1.0093280279624815e-07 
 1.0225349958394118e-07  1.0359147769093798e-07  1.0494696324804961e-07  1.0632018534525881e-07 
 1.0771137607045155e-07  1.0912077054865569e-07  1.1054860698179374e-07  1.1199512668895599e-07 
 1.1346057414720139e-07  1.1494519703289265e-07  1.1644924626357269e-07  1.1797297604038992e-07 
 1.1951664389107869e-07  1.2108051071350333e-07  1.2266484081977203e-07  1.2426990198092924e-07 
 1.2589596547223287e-07  1.2754330611902485e-07  1.2921220234320335e-07  1.3090293621030253e-07 
 1.3261579347719030e-07  1.3435106364039013e-07  1.3610903998503693e-07  1.3789001963447354e-07 
 1.3969430360049749e-07  1.4152219683426627e-07  1.4337400827786958e-07  1.4525005091657743e-07 
 1.4715064183177305e-07  1.4907610225457951e-07  1.5102675762018899e-07  1.5300293762290466e-07 
 1.5500497627190355e-07  1.5703321194773079e-07  1.5908798745953388e-07  1.6116965010304787e-07 
 1.6327855171934048e-07  1.6541504875432730e-07  1.6757950231906772e-07  1.6977227825085055e-07 
 1.7199374717508217e-07  1.7424428456798465e-07  1.7652427082011739e-07  1.7883409130073080e-07 
 1.8117413642296468e-07  1.8354480170990177e-07  1.8594648786148734e-07  1.8837960082232682e-07 
 1.9084455185037293e-07  1.9334175758651386e-07  1.9587164012507438e-07  1.9843462708524221e-07 
 2.0103115168343141e-07  2.0366165280659519e-07  2.0632657508650164e-07  2.0902636897498320e-07 
 2.1176149082017453e-07  2.1453240294375064e-07  2.1733957371917954e-07  2.2018347765100127e-07 
 2.2306459545514842e-07  2.2598341414032118e-07  2.2894042709043035e-07  2.3193613414812386e-07 
 2.3497104169940930e-07  2.3804566275938889e-07  2.4116051705911945e-07  2.4431613113361431e-07 
 2.4751303841100122e-07  2.5075177930285153e-07  2.5403290129569655e-07  2.5735695904374682e-07 
 2.6072451446283027e-07  2.6413613682556521e-07  2.6759240285778530e-07  2.7109389683623198e-07 
 2.7464121068753344e-07  2.7823494408848499e-07  2.8187570456764984e-07  2.8556410760829766e-07 
 2.8930077675269887e-07  2.9308634370779355e-07  2.9692144845225222e-07  3.0080673934494923e-07 
 3.0474287323486599e-07  3.0873051557244594e-07  3.1277034052241829e-07  3.1686303107811256e-07 
 3.2100927917728322e-07  3.2520978581946594e-07  3.2946526118488507e-07  3.3377642475493433e-07 
 3.3814400543425225e-07  3.4256874167441167e-07  3.4705138159924882e-07  3.5159268313185056e-07 
 3.5619341412322239e-07  3.6085435248266099e-07  3.6557628630985148e-07  3.7036001402871340e-07 
 3.7520634452301681e-07  3.8011609727379162e-07  3.8509010249855297e-07  3.9012920129236557e-07 
 3.9523424577077051e-07  4.0040609921459697e-07  4.0564563621668461e-07  4.1095374283053902e-07 
 4.1633131672094725e-07  4.2177926731657729e-07  4.2729851596458263e-07  4.3288999608716021e-07 
 4.3855465333993741e-07  4.4429344577273415e-07  4.5010734399254076e-07  4.5599733132866733e-07 
 4.6196440400008616e-07  4.6800957128500229e-07  4.7413385569267610e-07  4.8033829313753557e-07 
 4.8662393311560414e-07  4.9299183888327952e-07  4.9944308763849434e-07  5.0597877070429198e-07 
 5.1259999371484991e-07  5.1930787680398613e-07  5.2610355479618154e-07  5.3298817740015437e-07 
 5.3996290940501975e-07  5.4702893087907465e-07  5.5418743737123959e-07  5.6143964011519769e-07 
 5.6878676623626843e-07  5.7623005896105339e-07  5.8377077782989144e-07  5.9141019891216788e-07 
 5.9914961502451038e-07  6.0699033595191972e-07  6.1493368867187146e-07  6.2298101758143345e-07 
 6.3113368472743908e-07  6.3939307003976399e-07  6.4776057156774689e-07  6.5623760571979886e-07 
 6.6482560750625053e-07  6.7352603078547914e-07  6.8234034851336586e-07  6.9127005299612880e-07 
 7.0031665614658218e-07  7.0948168974386847e-07  7.1876670569672010e-07  7.2817327631029211e-07 
 7.3770299455662654e-07  7.4735747434879730e-07  7.5713835081878992e-07  7.6704728059917142e-07 
 7.7708594210860474e-07  7.8725603584126840e-07  7.9755928466023063e-07  8.0799743409484921e-07 
 8.1857225264224285e-07  8.2928553207290717e-07  8.4013908774052758e-07  8.5113475889605908e-07 
 8.6227440900613253e-07  8.7355992607585571e-07  8.8499322297607405e-07  8.9657623777515797e-07 
 9.0831093407539092e-07  9.2019930135401880e-07  9.3224335530904345e-07  9.4444513820982526e-07 
 9.5680671925257317e-07  9.6933019492079599e-07  9.8201768935079360e-07  9.9487135470226575e-07 
 1.0078933715341192e-06  1.0210859491855574e-06  1.0344513261625311e-06  1.0479917705296403e-06 
 1.0617095803075703e-06  1.0756070838761562e-06  1.0896866403831564e-06  1.1039506401588409e-06 
 1.1184015051364778e-06  1.1330416892788139e-06  1.1478736790106624e-06  1.1628999936576758e-06 
 1.1781231858914250e-06  1.1935458421808792e-06  1.2091705832503973e-06  1.2250000645443378e-06 
 1.2410369766984034e-06  1.2572840460178266e-06  1.2737440349625183e-06  1.2904197426393024e-06 
 1.3073140053013466e-06  1.3244296968549242e-06  1.3417697293736305e-06  1.3593370536201847e-06 
 1.3771346595759504e-06  1.3951655769783102e-06  1.4134328758660391e-06  1.4319396671328086e-06 
 1.4506891030889828e-06  1.4696843780318459e-06  1.4889287288244132e-06  1.5084254354829950e-06 
 1.5281778217736591e-06  1.5481892558177694e-06  1.5684631507067614e-06  1.5890029651263350e-06 
 1.6098122039902312e-06  1.6308944190837941e-06  1.6522532097174820e-06  1.6738922233905375e-06 
 1.6958151564650015e-06  1.7180257548502844e-06  1.7405278146984867e-06  1.7633251831106969e-06 
 1.7864217588544725e-06  1.8098214930927340e-06  1.8335283901243054e-06  1.8575465081363269e-06 
 1.8818799599687939e-06  1.9065329138914629e-06  1.9315095943933845e-06  1.9568142829853301e-06 
 1.9824513190153743e-06  2.0084251004979204e-06  2.0347400849564462e-06  2.0614007902802777e-06 
 2.0884117955956767e-06  2.1157777421515677e-06  2.1435033342202162e-06  2.1715933400131952e-06 
 2.2000525926129735e-06  2.2288859909204772e-06  2.2580985006189872e-06  2.2876951551547390e-06 
 2.3176810567346128e-06  2.3480613773413005e-06  2.3788413597663588e-06  2.4100263186615660e-06 
 2.4416216416090117e-06  2.4736327902103687e-06  2.5060653011957928e-06  2.5389247875529382e-06 
 2.5722169396765598e-06  2.6059475265392171e-06  2.6401223968835916e-06  2.6747474804369490e-06 
 2.7098287891483045e-06  2.7453724184488602e-06  2.7813845485362934e-06  2.8178714456835122e-06 
 2.8548394635725031e-06  2.8922950446539065e-06  2.9302447215330139e-06  2.9686951183828431e-06 
 3.0076529523850311e-06  3.0471250351992695e-06  3.0871182744620510e-06  3.1276396753155007e-06 
 3.1686963419671240e-06  3.2102954792812977e-06  3.2524443944033769e-06  3.2951504984173272e-06 
 3.3384213080378008e-06  3.3822644473376126e-06  3.4266876495116398e-06  3.4716987586781355e-06 
 3.5173057317185621e-06  3.5635166401570108e-06  3.6103396720803787e-06  3.6577831341004526e-06 
 3.7058554533591678e-06  3.7545651795782580e-06  3.8039209871546425e-06  3.8539316773028982e-06 
 3.9046061802462069e-06  3.9559535574572723e-06  4.0079830039506732e-06  4.0607038506282462e-06 
 4.1141255666790984e-06  4.1682577620359526e-06  4.2231101898895344e-06  4.2786927492628251e-06 
 4.3350154876470527e-06  4.3920886037013349e-06  4.4499224500180116e-06  4.5085275359557324e-06 
 4.5679145305424610e-06  4.6280942654506356e-06  4.6890777380468367e-06  4.7508761145183131e-06 
 4.8135007330789305e-06  4.8769631072570865e-06  4.9412749292683235e-06  5.0064480734754017e-06 
 5.0724945999387392e-06  5.1394267580602471e-06  5.2072569903236396e-06  5.2759979361345047e-06 
 5.3456624357634720e-06  5.4162635343959737e-06  5.4878144862922370e-06  5.5603287590612546e-06 
 5.6338200380526670e-06  5.7083022308705990e-06  5.7837894720136715e-06  5.8602961276455768e-06 
 5.9378368005007741e-06  6.0164263349300097e-06  6.0960798220906002e-06  6.1768126052865705e-06 
 6.2586402854639581e-06  6.3415787268667820e-06  6.4256440628594283e-06  6.5108527019213957e-06 
 6.5972213338205652e-06  6.6847669359715035e-06  6.7735067799853981e-06  6.8634584384186374e-06 
 6.9546397917272730e-06  7.0470690354348399e-06  7.1407646875214070e-06  7.2357455960419635e-06 
 7.3320309469826240e-06  7.4296402723634131e-06  7.5285934585968668e-06  7.6289107551118872e-06 
 7.7306127832528296e-06  7.8337205454640956e-06  7.9382554347710242e-06  8.0442392445681682e-06 
 8.1516941787266595e-06  8.2606428620327539e-06  8.3711083509700943e-06  8.4831141448589208e-06 
 8.5966841973657814e-06  8.7118429283980208e-06  8.8286152363978525e-06  8.9470265110514388e-06 
 9.0671026464290049e-06  9.1888700545728105e-06  9.3123556795503010e-06  9.4375870119906801e-06 
 9.5645921041238286e-06  9.6933995853411949e-06  9.8240386782993357e-06  9.9565392155874241e-06 
 1.0090931656981090e-05  1.0227247107305864e-05  1.0365517334934440e-05  1.0505774790943138e-05 
 1.0648052628953804e-05  1.0792384725688820e-05  1.0938805702267725e-05  1.1087350946275528e-05 
 1.1238056634633787e-05  1.1390959757307111e-05  1.1546098141879015e-05  1.1703510479032561e-05 
 1.1863236348972811e-05  1.2025316248829679e-05  1.2189791621081542e-05  1.2356704883041579e-05 
 1.2526099457450889e-05  1.2698019804224188e-05  1.2872511453396011e-05  1.3049621039317477e-05 
 1.3229396336155872e-05  1.3411886294751646e-05  1.3597141080889909e-05  1.3785212115046050e-05 
 1.3976152113667751e-05  1.4170015132058626e-05  1.4366856608931443e-05  1.4566733412702307e-05 
 1.4769703889600073e-05  1.4975827913669002e-05  1.5185166938745999e-05  1.5397784052497713e-05 
 1.5613744032606621e-05  1.5833113405199394e-05  1.6055960505615166e-05  1.6282355541615932e-05 
 1.6512370659146114e-05  1.6746080010753240e-05  1.6983559826787229e-05  1.7224888489501020e-05 
 1.7470146610181400e-05  1.7719417109444986e-05  1.7972785300840584e-05  1.8230338977906251e-05 
 1.8492168504836300e-05  1.8758366910921214e-05  1.9029029988931149e-05  1.9304256397622270e-05 
 1.9584147768553810e-05  1.9868808817412954e-05  2.0158347460054641e-05  2.0452874933473314e-05 
 2.0752505921934707e-05  2.1057358688507056e-05  2.1367555212243206e-05  2.1683221331277659e-05 
 2.2004486892116148e-05  2.2331485905409232e-05  2.2664356708516395e-05  2.3003242135182920e-05 
 2.3348289692668160e-05  2.3699651746681582e-05  2.4057485714501246e-05  2.4421954266669115e-05 
 2.4793225537678009e-05  2.5171473346087007e-05  2.5556877424525029e-05  2.5949623660066781e-05 
 2.6349904345491059e-05  2.6757918441958498e-05  2.7173871853674866e-05  2.7597977715136618e-05 
 2.8030456691587356e-05  2.8471537293348588e-05  2.8921456204724022e-05  2.9380458628215178e-05 
 2.9848798644826724e-05  3.0326739591283220e-05  3.0814554455024374e-05  3.1312526287894511e-05 
 3.1820948639493534e-05  3.2340126011210701e-05  3.2870374332020956e-05  3.3412021457184490e-05 
 3.3965407691055541e-05  3.4530886335275725e-05  3.5108824263700680e-05  3.5699602525486547e-05 
 3.6303616977846533e-05  3.6921278950074873e-05  3.7553015940530699e-05  3.8199272348372483e-05 
 3.8860510241940961e-05  3.9537210165800606e-05  4.0229871988570187e-05  4.0939015793800237e-05 
 4.1665182816291783e-05  4.2408936426395334e-05  4.3170863164983548e-05  4.3951573831955219e-05 
 4.4751704631303757e-05  4.5571918375969952e-05  4.6412905755897919e-05  4.7275386672925630e-05 
 4.8160111646367850e-05  4.9067863293391353e-05  4.9999457888539795e-05  5.0955747007041255e-05 
 5.1937619256826055e-05  5.2946002104495246e-05  5.3981863800816923e-05  5.5046215411685344e-05 
 5.6140112960861037e-05  5.7264659691219633e-05  5.8421008451675268e-05  5.9610364217412503e-05 
 6.0833986751561867e-05  6.2093193416990299e-05  6.3389362147451268e-05  6.4723934587954129e-05 
 6.6098419414869239e-05  6.7514395846990052e-05  6.8973517359528297e-05  7.0477515613826154e-05 
 7.2028204616436136e-05  7.3627485122147713e-05  7.5277349296536930e-05  7.6979885654680720e-05 
 7.8737284293825218e-05  8.0551842439025733e-05  8.2425970322094115e-05  8.4362197415605622e-05 
 8.6363179045236495e-05  8.8431703405335383e-05  9.0570699004383599e-05  9.2783242568882457e-05 
 9.5072567436227319e-05  9.7442072469302199e-05  9.9895331527864004e-05  1.0243610353429710e-04 
 1.0506834317401822e-04  1.0779621227371595e-04  1.1062409190373132e-04  1.1355659525424511e-04 
 1.1659858133855447e-04  1.1975516958060671e-04  1.2303175534814908e-04  1.2643402649735610e-04 
 1.2996798099964925e-04  1.3363994572664634e-04  1.3745659647480297e-04  1.4142497931736645e-04 
 1.4555253337778808e-04  1.4984711512576771e-04  1.5431702430467831e-04  1.5897103160727606e-04 
 1.6381840822539417e-04  1.6886895740879062e-04  1.7413304817853111e-04  1.7962165135129054e-04 
 1.8534637804281447e-04  1.9131952083156409e-04  1.9755409777734453e-04  2.0406389950456219e-04 
 2.1086353957576261e-04  2.1796850839834846e-04  2.2539523092596651e-04  2.3316112843608879e-04 
 2.4128468468690177e-04  2.4978551677988433e-04  2.5868445107952027e-04  2.6800360456859902e-04 
 2.7776647204664459e-04  2.8799801961034728e-04  2.9872478488860598e-04  3.0997498454111430e-04 
 3.2177862956851841e-04  3.3416764902424918e-04  3.4717602276339234e-04  3.6083992391264111e-04 
 3.7519787179772241e-04  3.9029089612093040e-04  4.0616271324185388e-04  4.2285991547927982e-04 
 4.4043217442194085e-04  4.5893245931052197e-04  4.7841727163351876e-04  4.9894689716545575e-04 
 5.2058567676801408e-04  5.4340229737313644e-04  5.6747010467256525e-04  5.9286743915093248e-04 
 6.1967799721984089e-04  6.4799121933879896e-04  6.7790270714579621e-04  7.0951467176617433e-04 
 7.4293641562366876e-04  7.7828485024250928e-04  8.1568505270469078e-04  8.5527086361232086e-04 
 8.9718552960177270e-04  9.4158239366451174e-04  9.8862563674927129e-04  1.0384910743520110e-03 
 1.0913670120439990e-03  1.1474551641445676e-03  1.2069716400136684e-03  1.2701480027202067e-03 
 1.3372324051350974e-03  1.4084908088026614e-03  1.4842082912597636e-03  1.5646904477981684e-03 
 1.6502648940006700e-03  1.7412828757240842e-03  1.8381209935499712e-03  1.9411830490741432e-03 
 2.0509020207550091e-03  2.1677421773837842e-03  2.2922013375707047e-03  2.4248132839529068e-03 
 2.5661503411120380e-03  2.7168261264310907e-03  2.8774984833054452e-03  3.0488726062347159e-03 
 3.2317043673374844e-03  3.4268038537240242e-03  3.6350391249012647e-03  3.8573401989330544e-03 
 4.0947032753955153e-03  4.3481952022053393e-03  4.6189581921074864e-03  4.9082147929347198e-03 
 5.2172731136408690e-03  5.5475323055119829e-03  5.9004882948307559e-03  6.2777397595776769e-03 
 6.6809943384840299e-03  7.1120750559174944e-03  7.5729269407230973e-03  8.0656238113406865e-03 
 8.5923751933986124e-03  9.1555333297130611e-03  9.7576002364233999e-03  1.0401234753131839e-02 
 1.1089259529693259e-02  1.1824667888040305e-02  1.2610630494441943e-02  1.3450501776139006e-02 
 1.4347826016523072e-02  1.5306343064884660e-02  1.6329993599950784e-02  1.7422923890339406e-02 
 1.8589489998729371e-02  1.9834261378776207e-02  2.1162023813330374e-02  2.2577781638304786e-02 
 2.4086759188164199e-02  2.5694401386970087e-02  2.7406373394785119e-02  2.9228559205528134e-02 
 3.1167059082028627e-02  3.3228185709739684e-02  3.5418458953947941e-02  3.7744599116290557e-02 
 4.0213518602852223e-02  4.2832311933929244e-02  4.5608244038765601e-02  4.8548736779847244e-02 
 5.1661353632598328e-02  5.4953782399858715e-02  5.8433815760969392e-02  6.2109329342591515e-02 
 6.5988256861528788e-02  7.0078561750194446e-02  7.4388204567652411e-02  7.8925105467259574e-02 
 8.3697101078445843e-02  8.8711895390861703e-02  9.3977004597709066e-02  9.9499696315946545e-02 
 1.0528692407606878e-01  1.1134525837320323e-01  1.1768081581918959e-01  1.2429918821342821e-01 
 1.3120537432650606e-01  1.3840370800924204e-01  1.4589779425564600e-01  1.5369045239699547e-01 
 1.6178365796258126e-01  1.7017849003976218e-01  1.7887508283862261e-01  1.8787258115762984e-01 
 1.9716909968874885e-01  2.0676168617992244e-01  2.1664628856832768e-01  2.2681772628972846e-01 
 2.3726966604420879e-01  2.4799460234951734e-01  2.5898384323824453e-01  2.7022750145575675e-01 
 2.8171449149590944e-01  2.9343253277559778e-01  3.0536815920164528e-01  3.1750673532837537e-01 
 3.2983247924468684e-01  3.4232849226804241e-01  3.5497679546127087e-01  3.6775837292764352e-01 
 3.8065322178107786e-01  3.9364040863188676e-01  4.0669813237439006e-01  4.1980379301086257e-01 
 4.3293406619660413e-01  4.4606498314316562e-01  4.5917201547080594e-01  4.7223016455694472e-01 
 4.8521405488468838e-01  4.9809803085450072e-01  5.1085625648298594e-01  5.2346281737588440e-01 
 5.3589182432828053e-01  5.4811751787430796e-01  5.6011437308200185e-01  5.7185720386680694e-01 
 5.8332126608574020e-01  5.9448235866231047e-01  6.0531692198582654e-01  6.1580213284916718e-01 
 6.2591599520485974e-01  6.3563742604105189e-01  6.4494633572337889e-01  6.5382370219807151e-01 
 6.6225163851221514e-01  6.7021345317782621e-01  6.7769370298631104e-01  6.8467823796770100e-01 
 6.9115423828323541e-01  6.9711024293857005e-01  7.0253617030604920e-01  7.0742333054584638e-01 
 7.1176443011501023e-01  7.1555356864822250e-01  7.1878622858210028e-01  7.2145925797401966e-01 
 7.2357084703490271e-01  7.2512049895158537e-01  7.2610899561714060e-01  7.2653835891613594e-01 
 7.2641180822597018e-01  7.2573371479533544e-01  7.2450955364715142e-01  7.2274585362704091e-01 
 7.2045014618099867e-01  7.1763091339905283e-01  7.1429753580739019e-01  7.1046024033166155e-01 
 7.0613004879113617e-01  7.0131872721911859e-01  6.9603873624151102e-01  6.9030318268437996e-01 
 6.8412577252438811e-01  6.7752076524416338e-01  6.7050292960908164e-01  6.6308750084305834e-01 
 6.5529013914911272e-01  6.4712688949566421e-01  6.3861414257151639e-01  6.2976859680081021e-01 
 6.2060722130330148e-01  6.1114721968442087e-01  6.0140599454295307e-01  5.9140111259105010e-01 
 5.8115027029095001e-01  5.7067125992447565e-01  5.5998193602450841e-01  5.4910018153568096e-01 
 5.3804387653969654e-01  5.2683086377668065e-01  5.1547891667932577e-01  5.0400570706614789e-01 
 4.9242877308139993e-01  4.8076548741371589e-01  4.6903302583917494e-01  4.5724833614755428e-01 
 4.4542810752290674e-01  4.3358874046110024e-01  4.2174631731741308e-01  4.0991657358649436e-01 
 3.9811487002475165e-01  3.8635616573130144e-01  3.7465499230779548e-01  3.6302542921953090e-01 
 3.5148108048011895e-01  3.4003505277952412e-01  3.2869993517047491e-01  3.1748778042110826e-01 
 3.0641008813238174e-01  2.9547778970740918e-01  2.8470123524674346e-01  2.7409018242909150e-01 
 2.6365378742185275e-01  2.5340059784593455e-01  2.4333854780487291e-01  2.3347495497746143e-01 
 2.2381651974604180e-01  2.1436932631787867e-01  2.0513884578895575e-01  1.9612994108081855e-01 
 1.8734687366949737e-01  1.7879331201491994e-01  1.7047234159023766e-01  1.6238647640336612e-01 
 1.5453767189783418e-01  1.4692733911675709e-01  1.3955636001238902e-01  1.3242510378417929e-01 
 1.2553344413048156e-01  1.1888077730287215e-01  1.1246604085725513e-01  1.0628773300232951e-01 
 1.0034393245330621e-01  9.4632318706692156e-02  8.9150192660180955e-02  8.3894497509875363e-02 
 7.8861839864877811e-02  7.4048511026409594e-02  6.9450508384773610e-02  6.5063556892427807e-02 
 6.0883130575019449e-02  5.6904474044348410e-02  5.3122623977871708e-02  4.9532430528597855e-02 
 4.6128578627197006e-02  4.2905609135083851e-02  3.9857939803386297e-02  3.6979885988395085e-02 
 3.4265681069623348e-02  3.1709496512311308e-02  2.9305461512392918e-02  2.7047682158867298e-02 
 2.4930260046412429e-02  2.2947310270109687e-02  2.1092978734428749e-02  1.9361458710204213e-02 
 1.7747006576216234e-02  1.6243956686113281e-02  1.4846735306689429e-02  1.3549873579818938e-02 
 1.2348019467499690e-02  1.1235948647288600e-02  1.0208574333741860e-02  9.2609560101141464e-03 
 8.3883070633424192e-03  7.5860013240690834e-03  6.8495785219878126e-03  6.1747486749821855e-03 
 5.5573954382489603e-03  4.9935784467513454e-03  4.4795346908495766e-03  4.0116789707427911e-03 
 3.5866034803823639e-03  3.2010765757554444e-03  2.8520407858767353e-03  2.5366101274702513e-03 
 2.2520667861861791e-03  1.9958572283105191e-03  1.7655878073200278e-03  1.5590199293602982e-03 
 1.3740648408293698e-03  1.2087780997891530e-03  1.0613537909612933e-03  9.3011854165381226e-04 
 8.1352539317220839e-04  7.1014757915567400e-04  6.1867225890692456e-04  5.3789425021217392e-04 
 4.6670980243308032e-04  4.0411044684900182e-04  3.4917695738601788e-04  3.0107345103594059e-04 
 2.5904165348573075e-04  2.2239535178413913e-04  1.9051505230124256e-04  1.6284285881701174e-04 
 1.3887758233167326e-04  1.1817009114342251e-04  1.0031890690406615e-04  8.4966049751548814e-05 
 7.1793133238300799e-05  6.0517707629703711e-05  5.0889848238517932e-05  4.2688983786436086e-05 
 3.5720958338174608e-05  2.9815319128825157e-05  2.4822821592439817e-05  2.0613142087541959e-05 
 1.7072788190873502e-05  1.4103195980497727e-05  1.1619003438899666e-05  9.5464889610065205e-06 
 7.8221639359114129e-06  6.3915084693700795e-06  5.2078395119330502e-06  4.2313009403829555e-06 
 3.4279654940633763e-06  2.7690388795333243e-06  2.2301568144162829e-06  1.7907662729153069e-06 
 1.4335827106685890e-06  1.1441155764253297e-06  9.1025495322320341e-07  7.2191270584978512e-07 
 5.7071203744586060e-07  4.4971987098161821e-07  3.5321696652560749e-07  2.7650115915616174e-07 
 2.1571955227500065e-07  1.6772592495571142e-07  1.2996000844962111e-07  1.0034565532910803e-07 
 7.7205264738069319e-08  5.9188139089624968e-08  4.5210731851088750e-08  3.4407003744217854e-08 
 2.6087336890696829e-08  1.9704664501291359e-08  1.4826659121602869e-08  1.1112986776727898e-08 
 8.2967792181338741e-09  6.1696034976138223e-09  4.5693188863632305e-09  3.3703072906409941e-09 
 2.4756462955893045e-09  1.8108652248225093e-09  1.3189854764250947e-09  9.5659825650034057e-10 
 6.9077718015252809e-10  4.9665492495220153e-10  3.5553585409100878e-10  2.5342909545668220e-10 
 1.7991460391179160e-10  1.2727118137962407e-10  8.9809653018590675e-11  0.0000000000000000e+00 
 0.0000000000000000e+00  0.0000000000000000e+00  0.0000000000000000e+00  0.0000000000000000e+00 
 0.0000000000000000e+00  0.0000000000000000e+00  0.0000000000000000e+00  0.0000000000000000e+00 
 0.0000000000000000e+00  0.0000000000000000e+00  0.0000000000000000e+00  0.0000000000000000e+00 
 0.0000000000000000e+00  0.0000000000000000e+00  0.0000000000000000e+00  0.0000000000000000e+00 
 0.0000000000000000e+00  0.0000000000000000e+00  0.0000000000000000e+00  0.0000000000000000e+00 
 0.0000000000000000e+00  0.0000000000000000e+00  0.0000000000000000e+00  0.0000000000000000e+00 
 0.0000000000000000e+00  0.0000000000000000e+00  0.0000000000000000e+00  0.0000000000000000e+00 
 0.0000000000000000e+00  0.0000000000000000e+00  0.0000000000000000e+00  0.0000000000000000e+00 
 0.0000000000000000e+00  0.0000000000000000e+00  0.0000000000000000e+00  0.0000000000000000e+00 
 0.0000000000000000e+00  0.0000000000000000e+00  0.0000000000000000e+00  0.0000000000000000e+00 
 0.0000000000000000e+00  0.0000000000000000e+00  0.0000000000000000e+00  0.0000000000000000e+00 
 0.0000000000000000e+00  0.0000000000000000e+00  0.0000000000000000e+00  0.0000000000000000e+00 
 0.0000000000000000e+00  0.0000000000000000e+00  0.0000000000000000e+00  0.0000000000000000e+00 
 0.0000000000000000e+00  0.0000000000000000e+00  0.0000000000000000e+00  0.0000000000000000e+00 
 0.0000000000000000e+00  0.0000000000000000e+00  0.0000000000000000e+00  0.0000000000000000e+00 
 0.0000000000000000e+00  0.0000000000000000e+00  0.0000000000000000e+00  0.0000000000000000e+00 
 0.0000000000000000e+00  0.0000000000000000e+00  0.0000000000000000e+00  0.0000000000000000e+00 
 0.0000000000000000e+00  0.0000000000000000e+00  0.0000000000000000e+00  0.0000000000000000e+00 
 0.0000000000000000e+00  0.0000000000000000e+00  0.0000000000000000e+00  0.0000000000000000e+00 
 0.0000000000000000e+00  0.0000000000000000e+00  0.0000000000000000e+00  0.0000000000000000e+00 
 0.0000000000000000e+00  0.0000000000000000e+00  0.0000000000000000e+00  0.0000000000000000e+00 
 0.0000000000000000e+00  0.0000000000000000e+00  0.0000000000000000e+00  0.0000000000000000e+00 
 0.0000000000000000e+00  0.0000000000000000e+00  0.0000000000000000e+00  0.0000000000000000e+00 
 0.0000000000000000e+00  0.0000000000000000e+00  0.0000000000000000e+00  0.0000000000000000e+00 
 0.0000000000000000e+00  0.0000000000000000e+00  0.0000000000000000e+00  0.0000000000000000e+00 
 0.0000000000000000e+00  0.0000000000000000e+00  0.0000000000000000e+00  0.0000000000000000e+00 
 0.0000000000000000e+00  0.0000000000000000e+00  0.0000000000000000e+00  0.0000000000000000e+00 
 0.0000000000000000e+00  0.0000000000000000e+00  0.0000000000000000e+00  0.0000000000000000e+00 
 0.0000000000000000e+00 
P    1   0.50          Wavefunction
 8.1533758800155818e-13  8.3681435353676099e-13  8.5885683745403193e-13  8.8147994131252841e-13 
 9.0469895919263149e-13  9.2852958803532767e-13  9.5298793825394139e-13  9.7809054462539017e-13 
 1.0038543774683240e-12  1.0302968541157110e-12  1.0574358506896174e-12  1.0852897141861523e-12 
 1.1138772748787352e-12  1.1432178590480832e-12  1.1733313020475137e-12  1.2042379617124014e-12 
 1.2359587321228549e-12  1.2685150577289108e-12  1.3019289478478062e-12  1.3362229915431153e-12 
 1.3714203728958214e-12  1.4075448866776422e-12  1.4446209544372069e-12  1.4826736410099562e-12 
 1.5217286714629297e-12  1.5618124484858978e-12  1.6029520702405885e-12  1.6451753486800831e-12 
 1.6885108283507616e-12  1.7329878056895066e-12  1.7786363488292190e-12  1.8254873179260279e-12 
 1.8735723860219355e-12  1.9229240604570101e-12  1.9735757048455910e-12  2.0255615616313717e-12 
 2.0789167752366047e-12  2.1336774158210768e-12  2.1898805036669230e-12  2.2475640342057537e-12 
 2.3067670037050253e-12  2.3675294356310147e-12  2.4298924077062154e-12  2.4938980796794567e-12 
 2.5595897218275114e-12  2.6270117442074641e-12  2.6962097266796166e-12  2.7672304497212223e-12 
 2.8401219260518887e-12  2.9149334330920183e-12  2.9917155462762417e-12  3.0705201732443538e-12 
 3.1514005889328768e-12  3.2344114715909647e-12  3.3196089397450029e-12  3.4070505901368971e-12 
 3.4967955366616828e-12  3.5889044503307958e-12  3.6834396002880177e-12  3.7804648959058088e-12 
 3.8800459299905150e-12  3.9822500231256309e-12  4.0871462691831071e-12  4.1948055820334819e-12 
 4.3053007434863879e-12  4.4187064524938654e-12  4.5350993756497451e-12  4.6545581990192232e-12 
 4.7771636813336835e-12  4.9029987085867209e-12  5.0321483500682856e-12  5.1646999158748096e-12 
 5.3007430159342116e-12  5.4403696205856848e-12  5.5836741227552036e-12  5.7307534017688081e-12 
 5.8817068888467771e-12  6.0366366343229957e-12  6.1956473766349498e-12  6.3588466131309625e-12 
 6.5263446727425947e-12  6.6982547905712849e-12  6.8746931844396845e-12  7.0557791334594266e-12 
 7.2416350586684580e-12  7.4323866057924292e-12  7.6281627301860949e-12  7.8290957840121839e-12 
 8.0353216057166107e-12  8.2469796118605844e-12  8.4642128913716447e-12  8.6871683022773848e-12 
 8.9159965709872144e-12  9.1508523941893305e-12  9.3918945434317393e-12  9.6392859724580456e-12 
 9.8931939273705902e-12  1.0153790059695375e-11  1.0421250542425267e-11  1.0695756189119856e-11 
 1.0977492576142548e-11  1.1266650168117508e-11  1.1563424446691261e-11  1.1868016042686014e-11 
 1.2180630871733999e-11  1.2501480273484630e-11  1.2830781154478439e-11  1.3168756134784532e-11 
 1.3515633698500551e-11  1.3871648348217064e-11  1.4237040763550589e-11  1.4612057963852628e-11 
 1.4996953475204604e-11  1.5391987501811595e-11  1.5797427101910782e-11  1.6213546368313522e-11 
 1.6640626613703042e-11  1.7078956560813122e-11  1.7528832537616269e-11  1.7990558677653322e-11 
 1.8464447125640000e-11  1.8950818248489321e-11  1.9450000851892573e-11  1.9962332402605274e-11 
 2.0488159256588362e-11  2.1027836893158918e-11  2.1581730155308606e-11  2.2150213496352401e-11 
 2.2733671233074321e-11  2.3332497805541273e-11  2.3947098043760685e-11  2.4577887441362200e-11 
 2.5225292436488449e-11  2.5889750700084785e-11  2.6571711431782904e-11  2.7271635663578385e-11 
 2.7989996571507369e-11  2.8727279795533267e-11  2.9483983767859520e-11  3.0260620049890620e-11 
 3.1057713678068924e-11  3.1875803518821353e-11  3.2715442632855650e-11  3.3577198649052786e-11 
 3.4461654148207974e-11  3.5369407056879960e-11  3.6301071051614724e-11  3.7257275973816962e-11 
 3.8238668255549704e-11  3.9245911356550049e-11  4.0279686212756426e-11  4.1340691696650550e-11 
 4.2429645089725410e-11  4.3547282567398585e-11  4.4694359696698802e-11  4.5871651947062182e-11 
 4.7079955214583434e-11  4.8320086360076534e-11  4.9592883761308624e-11  5.0899207879780363e-11 
 5.2239941842436043e-11  5.3615992038696722e-11  5.5028288733219936e-11  5.6477786694800337e-11 
 5.7965465841836308e-11  5.9492331904799132e-11  6.1059417106152463e-11  6.2667780858181687e-11 
 6.4318510479205151e-11  6.6012721928651337e-11  6.7751560561498880e-11  6.9536201902589871e-11 
 7.1367852441339278e-11  7.3247750447378281e-11  7.5177166807682956e-11  7.7157405885753895e-11 
 7.9189806403427970e-11  8.1275742345918338e-11  8.3416623890694361e-11  8.5613898360829770e-11 
 8.7869051203463429e-11  9.0183606994034077e-11  9.2559130466968391e-11  9.4997227573518598e-11 
 9.7499546567465697e-11  1.0006777911942122e-10  1.0270366146048189e-10  1.0540897555600985e-10 
 1.0818555031033209e-10  1.1103526280317383e-10  1.1396003955866123e-10  1.1696185784775227e-10 
 1.2004274702497542e-10  1.2320478990038050e-10  1.2645012414762913e-10  1.2978094374917676e-10 
 1.3319950047952305e-10  1.3670810542753419e-10  1.4030913055886582e-10  1.4400501031954269e-10 
 1.4779824328178034e-10  1.5169139383315978e-10  1.5568709391029945e-10  1.5978804477819462e-10 
 1.6399701885642835e-10  1.6831686159348843e-10  1.7275049339045783e-10  1.7730091157537889e-10 
 1.8197119242962648e-10  1.8676449326765976e-10  1.9168405457155958e-10  1.9673320218179385e-10 
 2.0191534954569258e-10  2.0723400002515286e-10  2.1269274926513372e-10  2.1829528762454296e-10 
 2.2404540267115898e-10  2.2994698174227479e-10  2.3600401457279571e-10  2.4222059599256688e-10 
 2.4860092869475641e-10  2.5514932607716300e-10  2.6187021515837254e-10  2.6876813957073222e-10 
 2.7584776263216882e-10  2.8311387049892628e-10  2.9057137540135479e-10  2.9822531896493985e-10 
 3.0608087561881600e-10  3.1414335609407159e-10  3.2241821101420749e-10  3.3091103458018051e-10 
 3.3962756835252058e-10  3.4857370513308088e-10  3.5775549294904559e-10  3.6717913914188833e-10 
 3.7685101456404673e-10  3.8677765788615060e-10  3.9696578001771774e-10  4.0742226864430433e-10 
 4.1815419288417991e-10  4.2916880806767440e-10  4.4047356064243072e-10  4.5207609320787844e-10 
 4.6398424968233358e-10  4.7620608060621933e-10  4.8874984858499305e-10  5.0162403387545980e-10 
 5.1483734011925338e-10  5.2839870022735716e-10  5.4231728241964870e-10  5.5660249642354999e-10 
 5.7126399983597751e-10  5.8631170465289243e-10  6.0175578397086897e-10  6.1760667886521170e-10 
 6.3387510544927663e-10  6.5057206211976802e-10  6.6770883699291172e-10  6.8529701553653834e-10 
 7.0334848840323417e-10  7.2187545946986288e-10  7.4089045408889351e-10  7.6040632755711940e-10 
 7.8043627380749445e-10  8.0099383432997043e-10  8.2209290732736966e-10  8.4374775711248697e-10 
 8.6597302375278027e-10  8.8878373296917574e-10  9.1219530629568505e-10  9.3622357150670833e-10 
 9.6088477331908169e-10  9.8619558437610445e-10  1.0121731165209853e-09  1.0388349323673312e-09 
 1.0661990571745039e-09  1.0942839910358860e-09  1.1231087213882958e-09  1.1526927358510150e-09 
 1.1830560354031121e-09  1.2142191479079762e-09  1.2462031419942072e-09  1.2790296413022488e-09 
 1.3127208391064009e-09  1.3472995133220942e-09  1.3827890419085830e-09  1.4192134186774640e-09 
 1.4565972695177218e-09  1.4949658690482636e-09  1.5343451577091985e-09  1.5747617593031250e-09 
 1.6162429989977401e-09  1.6588169218037868e-09  1.7025123115402199e-09  1.7473587102991541e-09 
 1.7933864384237526e-09  1.8406266150125895e-09  1.8891111789643494e-09  1.9388729105771230e-09 
 1.9899454537169137e-09  2.0423633385703717e-09  2.0961620049971438e-09  2.1513778264976698e-09 
 2.2080481348126342e-09  2.2662112451707411e-09  2.3259064822019059e-09  2.3871742065334061e-09 
 2.4500558420870108e-09  2.5145939040955624e-09  2.5808320278579966e-09  2.6488149982522650e-09 
 2.7185887800261610e-09  2.7902005488865557e-09  2.8636987234081058e-09  2.9391329977830535e-09 
 3.0165543754342947e-09  3.0960152035145047e-09  3.1775692083146673e-09  3.2612715316060339e-09 
 3.3471787679400991e-09  3.4353490029319105e-09  3.5258418525526157e-09  3.6187185034579078e-09 
 3.7140417543796813e-09  3.8118760586089631e-09  3.9122875675989297e-09  4.0153441757175287e-09 
 4.1211155661800984e-09  4.2296732581930781e-09  4.3410906553408245e-09  4.4554430952482897e-09 
 4.5728079005532943e-09  4.6932644312229258e-09  4.8168941382495788e-09  4.9437806187630278e-09 
 5.0740096725959557e-09  5.2076693603412936e-09  5.3448500629407587e-09  5.4856445428450601e-09 
 5.6301480067872318e-09  5.7784581702117490e-09  5.9306753234031169e-09  6.0869023993588586e-09 
 6.2472450434529647e-09  6.4118116849371165e-09  6.5807136103282317e-09  6.7540650387321752e-09 
 6.9319831991548374e-09  7.1145884098530138e-09  7.3020041597791090e-09  7.4943571921749116e-09 
 7.6917775903713221e-09  7.8943988658523176e-09  8.1023580486430081e-09  8.3157957800832950e-09 
 8.5348564080501388e-09  8.7596880846932893e-09  8.9904428667508701e-09  9.2272768185131171e-09 
 9.4703501175043417e-09  9.7198271629550040e-09  9.9758766871377301e-09  1.0238671869643123e-08 
 1.0508390454673142e-08  1.0785214871431881e-08  1.1069332357695899e-08  1.1360935086648124e-08 
 1.1660220297061896e-08  1.1967390426923790e-08  1.2282653250586378e-08  1.2606222019544432e-08 
 1.2938315606930564e-08  1.3279158655828915e-08  1.3628981731508059e-08  1.3988021477677091e-08 
 1.4356520776871491e-08  1.4734728915078337e-08  1.5122901750713324e-08  1.5521301888065034e-08 
 1.5930198855324958e-08  1.6349869287325036e-08  1.6780597113107655e-08  1.7222673748456344e-08 
 1.7676398293519035e-08  1.8142077735659073e-08  1.8620027157672794e-08  1.9110569951516460e-08 
 1.9614038037688812e-08  2.0130772090419715e-08  2.0661121768819226e-08  2.1205445954145650e-08 
 2.1764112993355353e-08  2.2337500949101579e-08  2.2925997856353859e-08  2.3530001985814296e-08 
 2.4149922114311834e-08  2.4786177802360322e-08  2.5439199679071347e-08  2.6109429734617871e-08 
 2.6797321620450060e-08  2.7503340957469931e-08  2.8227965652377505e-08  2.8971686222406191e-08 
 2.9735006128671686e-08  3.0518442118364349e-08  3.1322524576021337e-08  3.2147797884121240e-08 
 3.2994820793250538e-08  3.3864166802097781e-08  3.4756424547538594e-08  3.5672198205081791e-08 
 3.6612107899953748e-08  3.7576790129106481e-08  3.8566898194441910e-08  3.9583102647553337e-08 
 4.0626091746293091e-08  4.1696571923483724e-08  4.2795268268098984e-08  4.3922925019249520e-08 
 4.5080306073317771e-08  4.6268195504595381e-08  4.7487398099786789e-08  4.8738739906752287e-08 
 5.0023068797874092e-08  5.1341255048439844e-08  5.2694191930448249e-08  5.4082796322253536e-08 
 5.5508009334475989e-08  5.6970796952618591e-08  5.8472150696841211e-08  6.0013088299356608e-08 
 6.1594654399925579e-08  6.3217921259941556e-08  6.4883989495608652e-08  6.6593988830731405e-08 
 6.8349078869648704e-08  7.0150449890859150e-08  7.1999323661901299e-08  7.3896954276066429e-08 
 7.5844629011539070e-08  7.7843669213577051e-08  7.9895431200359228e-08  8.2001307193147688e-08 
 8.4162726271429057e-08  8.6381155353718435e-08  8.8658100204728648e-08  9.0995106469628090e-08 
 9.3393760736130022e-08  9.5855691625178209e-08  9.8382570911015239e-08  1.0097611467144235e-07 
 1.0363808446910275e-07  1.0637028856464467e-07  1.0917458316264429e-07  1.1205287369119439e-07 
 1.1500711611609198e-07  1.1803931829058212e-07  1.2115154134164624e-07  1.2434590109385033e-07 
 1.2762456953179731e-07  1.3098977630226047e-07  1.3444381025710439e-07  1.3798902103813311e-07 
 1.4162782070503855e-07  1.4536268540765782e-07  1.4919615710378144e-07  1.5313084532379408e-07 
 1.5716942898346527e-07  1.6131465824624800e-07  1.6556935643648334e-07  1.6993642200495106e-07 
 1.7441883054824931e-07  1.7901963688353131e-07  1.8374197718017391e-07  1.8858907114999777e-07 
 1.9356422429771240e-07  1.9867083023330637e-07  2.0391237304815809e-07  2.0929242975669539e-07 
 2.1481467280548951e-07  2.2048287265172715e-07  2.2630090041306286e-07  2.3227273059091917e-07 
 2.3840244386936302e-07  2.4469422999175572e-07  2.5115239071744253e-07  2.5778134286081785e-07 
 2.6458562141517739e-07  2.7156988276384471e-07  2.7873890798113740e-07  2.8609760622582211e-07 
 2.9365101822979207e-07  3.0140431988478725e-07  3.0936282593006922e-07  3.1753199374405946e-07 
 3.2591742724304333e-07  3.3452488089014743e-07  3.4336026381790150e-07  3.5242964406780437e-07 
 3.6173925295042819e-07  3.7129548952971322e-07  3.8110492523522366e-07  3.9117430860626472e-07 
 4.0151057017189242e-07  4.1212082747098070e-07  4.2301239021665601e-07  4.3419276560955177e-07 
 4.4566966380449240e-07  4.5745100353537061e-07  4.6954491790315021e-07  4.8195976033209423e-07 
 4.9470411069949917e-07  5.0778678164439783e-07  5.2121682506088867e-07  5.3500353878194692e-07 
 5.4915647345978128e-07  5.6368543964902027e-07  5.7860051509922580e-07  5.9391205226348573e-07 
 6.0963068603005706e-07  6.2576734168430639e-07  6.4233324310844570e-07  6.5933992122684289e-07 
 6.7679922270496928e-07  6.9472331891035150e-07  7.1312471514419960e-07  7.3201626015271162e-07 
 7.5141115592739725e-07  7.7132296780410597e-07  7.9176563487082520e-07  8.1275348069468866e-07 
 8.3430122437904290e-07  8.5642399196183319e-07  8.7913732816700818e-07  9.0245720852110391e-07 
 9.2640005184762810e-07  9.5098273315238750e-07  9.7622259691339320e-07  1.0021374707895407e-06 
 1.0287456797628192e-06  1.0560660607294030e-06  1.0841179775555867e-06  1.1129213366151870e-06 
 1.1424966028256988e-06  1.1728648162012102e-06  1.2040476089408179e-06  1.2360672230720559e-06 
 1.2689465286696734e-06  1.3027090426709299e-06  1.3373789483094838e-06  1.3729811151908622e-06 
 1.4095411200334911e-06  1.4470852681002758e-06  1.4856406153467912e-06  1.5252349913132777e-06 
 1.5658970227887856e-06  1.6076561582770720e-06  1.6505426932951235e-06  1.6945877965365469e-06 
 1.7398235369334793e-06  1.7862829116521700e-06  1.8339998750589327e-06  1.8830093686948325e-06 
 1.9333473522991661e-06  1.9850508359236258e-06  2.0381579131809105e-06  2.0927077956735656e-06 
 2.1487408486509112e-06  2.2062986279441145e-06  2.2654239182317860e-06  2.3261607726909001e-06 
 2.3885545540903776e-06  2.4526519773873943e-06  2.5185011538892384e-06  2.5861516370465619e-06 
 2.6556544699469589e-06  2.7270622345810995e-06  2.8004291029570920e-06  2.8758108901423947e-06 
 2.9532651093164127e-06  3.0328510289209328e-06  3.1146297319998332e-06  3.1986641778239038e-06 
 3.2850192659013813e-06  3.3737619024797051e-06  3.4649610696492664e-06  3.5586878971653950e-06 
 3.6550157371106288e-06  3.7540202415254455e-06  3.8557794431420547e-06  3.9603738393626816e-06 
 4.0678864796309009e-06  4.1784030563521774e-06  4.2920119995277462e-06  4.4088045752743762e-06 
 4.5288749884114601e-06  4.6523204893062706e-06  4.7792414851781136e-06  4.9097416560725900e-06 
 5.0439280757282514e-06  5.1819113375695621e-06  5.3238056860724978e-06  5.4697291537621032e-06 
 5.6198037041151320e-06  5.7741553806554943e-06  5.9329144625456397e-06  6.0962156269932943e-06 
 6.2641981188102644e-06  6.4370059274782377e-06  6.6147879720958347e-06  6.7976982946016146e-06 
 6.9858962616894020e-06  7.1795467758551793e-06  7.3788204960391035e-06  7.5838940683519189e-06 
 7.7949503674022203e-06  8.0121787487699941e-06  8.2357753132023635e-06  8.4659431831399775e-06 
 8.7028927922168449e-06  8.9468421884128504e-06  9.1980173515770613e-06  9.4566525260807091e-06 
 9.7229905694025769e-06  9.9972833174955705e-06  1.0279791967832485e-05  1.0570787481080989e-05 
 1.0870551002413319e-05  1.1179374303514936e-05  1.1497560246418907e-05  1.1825423270359190e-05 
 1.2163289902906604e-05  1.2511499296726334e-05  1.2870403793375612e-05  1.3240369515645155e-05 
 1.3621776990038226e-05  1.4015021801077378e-05  1.4420515279231131e-05  1.4838685224361787e-05 
 1.5269976666711720e-05  1.5714852667568603e-05  1.6173795161882003e-05  1.6647305845243752e-05 
 1.7135907107793937e-05  1.7640143017773623e-05  1.8160580357615280e-05  1.8697809715642925e-05 
 1.9252446636647092e-05  1.9825132834806029e-05  2.0416537472644244e-05  2.1027358509954410e-05 
 2.1658324126859235e-05  2.2310194225457462e-05  2.2983762014784233e-05  2.3679855684121176e-05 
 2.4399340170018169e-05  2.5143119022737216e-05  2.5912136378202316e-05  2.6707379041937005e-05 
 2.7529878691898533e-05  2.8380714207573273e-05  2.9261014133186114e-05  3.0171959283398935e-05 
 3.1114785500432257e-05  3.2090786572142861e-05  3.3101317321230836e-05  3.4147796876436498e-05 
 3.5231712137322733e-05  3.6354621445026520e-05  3.7518158472207960e-05  3.8724036346330768e-05 
 3.9974052021378369e-05  4.1270090914151122e-05  4.2614131822406556e-05  4.4008252143301731e-05 
 4.5454633411883059e-05  4.6955567180746387e-05  4.8513461263471749e-05  5.0130846366025526e-05 
 5.1810383132029134e-05  5.3554869629625312e-05  5.5367249309641508e-05  5.7250619466862953e-05 
 5.9208240238500174e-05  6.1243544176375032e-05  6.3360146431972955e-05  6.5561855596327326e-05 
 6.7852685239732388e-05  7.0236866199538633e-05  7.2718859667787454e-05  7.5303371134208144e-05 
 7.7995365244151073e-05  8.0800081635386845e-05  8.3723051822388690e-05  8.6770117201753020e-05 
 8.9947448257838710e-05  9.3261565053536744e-05  9.6719359097359318e-05  1.0032811668478932e-04 
 1.0409554381909651e-04  1.0802979282464420e-04  1.1213949077411975e-04  1.1643376986017351e-04 
 1.2092229985168509e-04  1.2561532278535320e-04  1.3052369005457371e-04  1.3565890206969437e-04 
 1.4103315067677590e-04  1.4665936453601552e-04  1.5255125767607515e-04  1.5872338145677691e-04 
 1.6519118019007271e-04  1.7197105068794165e-04  1.7908040602602614e-04  1.8653774383347183e-04 
 1.9436271944270873e-04  2.0257622425790345e-04  2.1120046972765609e-04  2.2025907733633346e-04 
 2.2977717505935977e-04  2.3978150076097555e-04  2.5030051304857168e-04  2.6136451013587808e-04 
 2.7300575730819689e-04  2.8525862362670592e-04  2.9815972855580470e-04  3.1174809924773279e-04 
 3.2606533927246321e-04  3.4115580963838709e-04  3.5706682301078530e-04  3.7384885210075311e-04 
 3.9155575326737775e-04  4.1024500645079622e-04  4.2997797263355243e-04  4.5082017011270831e-04 
 4.7284157095569819e-04  4.9611691910923848e-04  5.2072607173298674e-04  5.4675436543834461e-04 
 5.7429300922808317e-04  6.0343950605455231e-04  6.3429810504332911e-04  6.6698028656538499e-04 
 7.0160528248430017e-04  7.3830063405566301e-04  7.7720279011342039e-04  8.1845774834218800e-04 
 8.6222174260484376e-04  9.0866197947008854e-04  9.5795742726383299e-04  1.0102996611493038e-03 
 1.0658937679211690e-03  1.1249593143754500e-03  1.1877313832851591e-03  1.2544616811660711e-03 
 1.3254197221509239e-03  1.4008940923953487e-03  1.4811937995048809e-03  1.5666497114877223e-03 
 1.6576160896889123e-03  1.7544722200330217e-03  1.8576241466778426e-03  1.9675065118435562e-03 
 2.0845845051131982e-03  2.2093559248849677e-03  2.3423533538815696e-03  2.4841464496773782e-03 
 2.6353443500883064e-03  2.7965981919877698e-03  2.9686037406819132e-03  3.1521041254278415e-03 
 3.3478926750538933e-03  3.5568158460001949e-03  3.7797762335154764e-03  4.0177356553105278e-03 
 4.2717182957781718e-03  4.5428138980457538e-03  4.8321809907231035e-03  5.1410501363174195e-03 
 5.4707271889324807e-03  5.8225965500085059e-03  6.1981244123494950e-03  6.5988619842699894e-03 
 7.0264486869991141e-03  7.4826153190463551e-03  7.9691871805866784e-03  8.4880871486840564e-03 
 9.0413386901950169e-03  9.6310687936755363e-03  1.0259510795149560e-02  1.0929007066116058e-02 
 1.1642011526760492e-02  1.2401091943972068e-02  1.3208931973030595e-02  1.4068332903676501e-02 
 1.4982215074940096e-02  1.5953618927071877e-02  1.6985705661023309e-02  1.8081757473507140e-02 
 1.9245177325764053e-02  2.0479488183937966e-02  2.1788331636388557e-02  2.3175465748217508e-02 
 2.4644761958917058e-02  2.6200200773087712e-02  2.7845865949314649e-02  2.9585936874802290e-02 
 3.1424678839293473e-02  3.3366431001279735e-02  3.5415591971065426e-02  3.7576603102915877e-02 
 3.9853929764073023e-02  4.2252040998748144e-02  4.4775388102137374e-02  4.7428382731822046e-02 
 5.0215375565528138e-02  5.3140633021854601e-02  5.6208316432742114e-02  5.9422463342554716e-02 
 6.2786967658025522e-02  6.6305561240187133e-02  6.9981796417169118e-02  7.3819029272680067e-02 
 7.7820403652604883e-02  8.1988835856091888e-02  8.6327000006442459e-02  9.0837314123674906e-02 
 9.5521926939767285e-02  1.0038270550662681e-01  1.0542122364513944e-01  1.1063875127205761e-01 
 1.1603624462172984e-01  1.2161433735398461e-01  1.2737333251018940e-01  1.3331319524889623e-01 
 1.3943354626264659e-01  1.4573365575030844e-01  1.5221243779638158e-01  1.5886844499140246e-01 
 1.6569986311705717e-01  1.7270450571674073e-01  1.7987980837773140e-01  1.8722282256522635e-01 
 1.9473020887130449e-01  2.0239822957321249e-01  2.1022274043469713e-01  2.1819918173059602e-01 
 2.2632256852742572e-01  2.3458748030985169e-01  2.4298805010303362e-01  2.5151795330201682e-01 
 2.6017039647955564e-01  2.6893810650084038e-01  2.7781332032531492e-01  2.8678777591972970e-01 
 2.9585270474329195e-01  3.0499882628751218e-01  3.1421634516070462e-01  3.2349495120934779e-01 
 3.3282382314870573e-01  3.4219163613756359e-01  3.5158657368532897e-01  3.6099634421565685e-01 
 3.7040820253367179e-01  3.7980897635526673e-01  3.8918509795897993e-01  3.9852264091619966e-01 
 4.0780736174686294e-01  4.1702474623858005e-01  4.2616006006054252e-01  4.3519840320294995e-01 
 4.4412476768120668e-01  4.5292409786472088e-01  4.6158135272535566e-01  4.7008156925249905e-01 
 4.7840992625191675e-01  4.8655180773490869e-01  4.9449286511309387e-01  5.0221907744200567e-01 
 5.0971680900255167e-01  5.1697286357167183e-01  5.2397453481005374e-01  5.3070965228300648e-01 
 5.3716662272762972e-01  5.4333446628220095e-01  5.4920284749905579e-01  5.5476210106704338e-01 
 5.6000325227093473e-01  5.6491803231022575e-01  5.6949888868622922e-01  5.7373899094221026e-01 
 5.7763223210506731e-01  5.8117322622759848e-01  5.8435730246720519e-01  5.8718049615978540e-01 
 5.8963953735694552e-01  5.9173183729119128e-01  5.9345547321854408e-01  5.9480917206239758e-01 
 5.9579229324796479e-01  5.9640481107507848e-01  5.9664729693021090e-01  5.9652090158818227e-01 
 5.9602733780193773e-01  5.9516886332663199e-01  5.9394826447359050e-01  5.9236884024310910e-01 
 5.9043438703955975e-01  5.8814918393434779e-01  5.8551797841224251e-01  5.8254597250719908e-01 
 5.7923880921531168e-01  5.7560255905955915e-01  5.7164370667443898e-01  5.6736913727825522e-01 
 5.6278612290617858e-01  5.5790230828759757e-01  5.5272569626597168e-01  5.4726463267755654e-01 
 5.4152779062610656e-01  5.3552415411309251e-01  5.2926300100615997e-01  5.2275388535167633e-01 
 5.1600661905944001e-01  5.0903125300823215e-01  5.0183805763927070e-01  4.9443750312025625e-01 
 4.8684023917520702e-01  4.7905707468438319e-01  4.7109895716421113e-01  4.6297695223933555e-01 
 4.5470222321871018e-01  4.4628601043347682e-01  4.3773961264816696e-01  4.2907436622833262e-01 
 4.2030162653728120e-01  4.1143274942116853e-01  4.0247907327304044e-01  3.9345190170286876e-01 
 3.8436248682475743e-01  3.7522201315542908e-01  3.6604158210126136e-01  3.5683219699520552e-01 
 3.4760474863036822e-01  3.3837000122431454e-01  3.2913857873774277e-01  3.1992095146346294e-01 
 3.1072742279703652e-01  3.0156811609928297e-01  2.9245296156342226e-01  2.8339168300604201e-01 
 2.7439378451138607e-01  2.6546853687255245e-01  2.5662496379077870e-01  2.4787182781465292e-01 
 2.3921761602421227e-01  2.3067052548973455e-01  2.2223844856072217e-01  2.1392895806617052e-01 
 2.0574929253172589e-01  1.9770634154179326e-01  1.8980663139415471e-01  1.8205631121041396e-01 
 1.7446113967697308e-01  1.6702647259781453e-01  1.5975725144190306e-01  1.5265799306448993e-01 
 1.4573278077319926e-01  1.3898525689686367e-01  1.3241861699817484e-01  1.2603560585096393e-01 
 1.1983851528004250e-01  1.1382918393677301e-01  1.0800899905765872e-01  1.0237890022697171e-01 
 9.6939385138454917e-02  9.1690517326031382e-02  8.6631935809750524e-02  8.1762866581308144e-02 
 7.7082135833720422e-02  7.2588184822339710e-02  6.8279086229516575e-02  6.4152561892901014e-02 
 6.0206001747641638e-02  5.6436483825523326e-02  5.2840795149280792e-02  4.9415453357803008e-02 
 4.6156728897534097e-02  4.3060667616904323e-02  4.0123113603894554e-02  3.7339732111655873e-02 
 3.4706032423275524e-02  3.2217390514108740e-02  2.9869071378397834e-02  2.7656250895998241e-02 
 2.5574037124753254e-02  2.3617490914268603e-02  2.1781645747355333e-02  2.0061526726135152e-02 
 1.8452168630597853e-02  1.6948632988155861e-02  1.5546024103362779e-02  1.4239504007355998e-02 
 1.3024306296673392e-02  1.1895748840809163e-02  1.0849245347155262e-02  9.8803157807701471e-03 
 8.9845956446835545e-03  8.1578441341489255e-03  7.3959511853643172e-03  6.6949434456842509e-03 
 6.0509891982124713e-03  5.4604022789032057e-03  4.9196450288972121e-03  4.4253303287840337e-03 
 3.9742227648216933e-03  3.5632389798706874e-03  3.1894472639356348e-03  2.8500664407627870e-03 
 2.5424641079537331e-03  2.2641542885446296e-03  2.0127945519995720e-03  1.7861826621063087e-03 
 1.5822528083856357e-03  1.3990714763539723e-03  1.2348330103637052e-03  1.0878549208175490e-03 
 9.5657298535210236e-04  8.3953619115004219e-04  7.3540156290789315e-04  6.4292891819416151e-04 
 5.6097558901709314e-04  4.8849114541727357e-04  4.2451215384114549e-04  3.6815699996892571e-04 
 3.1862080259400025e-04  2.7517044210827532e-04  2.3713972416464709e-04  2.0392469618740497e-04 
 1.7497913159184248e-04  1.4981019391936139e-04  1.2797429052480467e-04  1.0907312307253391e-04 
 9.2749939858515588e-05  7.8685992906461162e-05  6.6597200889068251e-05  5.6231017203765042e-05 
 4.7363500987194635e-05  3.9796587483086162e-05  3.3355552981425402e-05  2.7886668518668771e-05 
 2.3255035661220660e-05  1.9342596987352953e-05  1.6046313315516823e-05  1.3276499302772547e-05 
 1.0955308738770021e-05  9.0153606799322770e-06  7.3984974942774821e-06  6.0546659086186714e-06 
 4.9409122556905805e-06  4.0204832981838232e-06  3.2620242490974292e-06  2.6388659030119710e-06 
 2.1283931310810060e-06  1.7114873645582546e-06  1.3720360889928586e-06  1.0965029285064228e-06 
 8.7355301523288378e-07  6.9372296202422302e-07  5.4913866917415553e-07  4.3327010523853435e-07 
 3.4071990752768700e-07  2.6704194569241577e-07  2.0858616758075372e-07  1.6236640675989205e-07 
 1.2594817030880436e-07  9.7353742671922031e-08  7.4982235959059243e-08  5.7542488920683048e-08 
 4.3996966108492145e-08  3.3515035932924623e-08  2.5434212180269724e-08  1.9228128977430645e-08 
 1.4480185268155577e-08  1.0861942776569710e-08  8.1154924404640758e-09  6.0391196959430245e-09 
 4.4757000955963611e-09  3.3033448399695655e-09  2.4278921590490985e-09  1.7769063096351090e-09 
 1.2949024068973726e-09  9.3956346432167451e-10  6.7875687903822728e-10  4.8819209241567277e-10 
 3.4959012090011535e-10  2.4925985136414116e-10  1.7699611334948136e-10  1.2523118915260813e-10 
 8.8385146063257572e-11  0.0000000000000000e+00  0.0000000000000000e+00  0.0000000000000000e+00 
 0.0000000000000000e+00  0.0000000000000000e+00  0.0000000000000000e+00  0.0000000000000000e+00 
 0.0000000000000000e+00  0.0000000000000000e+00  0.0000000000000000e+00  0.0000000000000000e+00 
 0.0000000000000000e+00  0.0000000000000000e+00  0.0000000000000000e+00  0.0000000000000000e+00 
 0.0000000000000000e+00  0.0000000000000000e+00  0.0000000000000000e+00  0.0000000000000000e+00 
 0.0000000000000000e+00  0.0000000000000000e+00  0.0000000000000000e+00  0.0000000000000000e+00 
 0.0000000000000000e+00  0.0000000000000000e+00  0.0000000000000000e+00  0.0000000000000000e+00 
 0.0000000000000000e+00  0.0000000000000000e+00  0.0000000000000000e+00  0.0000000000000000e+00 
 0.0000000000000000e+00  0.0000000000000000e+00  0.0000000000000000e+00  0.0000000000000000e+00 
 0.0000000000000000e+00  0.0000000000000000e+00  0.0000000000000000e+00  0.0000000000000000e+00 
 0.0000000000000000e+00  0.0000000000000000e+00  0.0000000000000000e+00  0.0000000000000000e+00 
 0.0000000000000000e+00  0.0000000000000000e+00  0.0000000000000000e+00  0.0000000000000000e+00 
 0.0000000000000000e+00  0.0000000000000000e+00  0.0000000000000000e+00  0.0000000000000000e+00 
 0.0000000000000000e+00  0.0000000000000000e+00  0.0000000000000000e+00  0.0000000000000000e+00 
 0.0000000000000000e+00  0.0000000000000000e+00  0.0000000000000000e+00  0.0000000000000000e+00 
 0.0000000000000000e+00  0.0000000000000000e+00  0.0000000000000000e+00  0.0000000000000000e+00 
 0.0000000000000000e+00  0.0000000000000000e+00  0.0000000000000000e+00  0.0000000000000000e+00 
 0.0000000000000000e+00  0.0000000000000000e+00  0.0000000000000000e+00  0.0000000000000000e+00 
 0.0000000000000000e+00  0.0000000000000000e+00  0.0000000000000000e+00  0.0000000000000000e+00 
 0.0000000000000000e+00  0.0000000000000000e+00  0.0000000000000000e+00  0.0000000000000000e+00 
 0.0000000000000000e+00  0.0000000000000000e+00  0.0000000000000000e+00  0.0000000000000000e+00 
 0.0000000000000000e+00  0.0000000000000000e+00  0.0000000000000000e+00  0.0000000000000000e+00 
 0.0000000000000000e+00 
D    2   9.50          Wavefunction
 9.3412923155978978e-15  9.7128000299284878e-15  1.0099082785854399e-14  1.0500728193931111e-14 
 1.0918347234270467e-14  1.1352575185959247e-14  1.1804072593441177e-14  1.2273526271332426e-14 
 1.2761650349199084e-14  1.3269187357885982e-14  1.3796909359049287e-14  1.4345619119611205e-14 
 1.4916151332923293e-14  1.5509373888496017e-14  1.6126189192226124e-14  1.6767535539130015e-14 
 1.7434388540671475e-14  1.8127762608854837e-14  1.8848712499341356e-14  1.9598334915935959e-14 
 2.0377770178885290e-14  2.1188203959524756e-14  2.2030869083913315e-14  2.2907047408199719e-14 
 2.3818071768572961e-14  2.4765328008763238e-14  2.5750257088177542e-14  2.6774357273876935e-14 
 2.7839186419729717e-14  2.8946364336207668e-14  3.0097575254430286e-14  3.1294570388205200e-14 
 3.2539170597962187e-14  3.3833269160633163e-14  3.5178834649691658e-14  3.6577913929732774e-14 
 3.8032635270149243e-14  3.9545211582639636e-14  4.1117943787474110e-14  4.2753224313637951e-14 
 4.4453540738177731e-14  4.6221479570285884e-14  4.8059730185880271e-14  4.9971088918663840e-14 
 5.1958463313887747e-14  5.4024876551288703e-14  5.6173472043928674e-14  5.8407518219932785e-14 
 6.0730413494399077e-14  6.3145691439043743e-14  6.5657026157445605e-14  6.8268237874066583e-14 
 7.0983298745550514e-14  7.3806338903139833e-14  7.6741652735402316e-14  7.9793705420824933e-14 
 8.2967139720212175e-14  8.6266783039221167e-14  8.9697654771777578e-14  9.3264973935542553e-14 
 9.6974167111046085e-14  1.0083087669656327e-13  1.0484096949129157e-13  1.0901054561988474e-13 
 1.1334594781192011e-13  1.1785377105041473e-13  1.2254087260406795e-13  1.2741438245849085e-13 
 1.3248171416229107e-13  1.3775057610451177e-13  1.4322898324057958e-13  1.4892526928459977e-13 
 1.5484809938654443e-13  1.6100648331361913e-13  1.6740978915585872e-13  1.7406775757680169e-13 
 1.8099051663092060e-13  1.8818859717034912e-13  1.9567294886434264e-13  2.0345495685583971e-13 
 2.1154645908046427e-13  2.1995976427431255e-13  2.2870767069791867e-13  2.3780348560488151e-13 
 2.4726104548476909e-13  2.5709473711109226e-13  2.6731951942636766e-13  2.7795094629756021e-13 
 2.8900519017652053e-13  3.0049906670141012e-13  3.1245006027653698e-13  3.2487635066951495e-13 
 3.3779684066620401e-13  3.5123118482550247e-13  3.6519981937773118e-13  3.7972399331209062e-13 
 3.9482580070048333e-13  4.1052821430686932e-13  4.2685512053328353e-13  4.4383135575567291e-13 
 4.6148274410482851e-13  4.7983613674988440e-13  4.9891945274414042e-13  5.1876172149534468e-13 
 5.3939312692503889e-13  5.6084505338414608e-13  5.8315013339464019e-13  6.0634229728993067e-13 
 6.3045682482946560e-13  6.5553039886607822e-13  6.8160116114770673e-13  7.0870877033837995e-13 
 7.3689446234672557e-13  7.6620111305377333e-13  7.9667330353547673e-13  8.2835738787916550e-13 
 8.6130156369709480e-13  8.9555594544435241e-13  9.3117264065265842e-13  9.6820582919602106e-13 
 1.0067118457088292e-12  1.0467492652817532e-12  1.0883789925658169e-12  1.1316643544201843e-12 
 1.1766711962445978e-12  1.2234679821430036e-12  1.2721258990707411e-12  1.3227189651237162e-12 
 1.3753241421342937e-12  1.4300214527451857e-12  1.4868941021394296e-12  1.5460286046116319e-12 
 1.6075149151730149e-12  1.6714465663904671e-12  1.7379208106677535e-12  1.8070387681853257e-12 
 1.8789055807237728e-12  1.9536305716049175e-12  2.0313274119938500e-12  2.1121142938148871e-12 
 2.1961141095444820e-12  2.2834546391546078e-12  2.3742687444909628e-12  2.4686945713817184e-12 
 2.5668757597842284e-12  2.6689616622893914e-12  2.7751075713160470e-12  2.8854749553410211e-12 
 3.0002317045241660e-12  3.1195523861020386e-12  3.2436185099387328e-12  3.3726188046378029e-12 
 3.5067495046353286e-12  3.6462146487108066e-12  3.7912263903700054e-12  3.9420053205719097e-12 
 4.0987808032906914e-12  4.2617913244231814e-12  4.4312848545725741e-12  4.6075192262602534e-12 
 4.7907625261395410e-12  4.9812935028080089e-12  5.1794019908387258e-12  5.3853893516754612e-12 
 5.5995689320625540e-12  5.8222665407067886e-12  6.0538209438964078e-12  6.2945843808311687e-12 
 6.5449230994473805e-12  6.8052179135530247e-12  7.0758647821204471e-12  7.3572754116179021e-12 
 7.6498778822961471e-12  7.9541172993828402e-12  8.2704564701753369e-12  8.5993766080618752e-12 
 8.9413780645421026e-12  9.2969810903605283e-12  9.6667266269106907e-12  1.0051177129113986e-11 
 1.0450917421024890e-11  1.0866555585464130e-11  1.1298723889033134e-11  1.1748079743916875e-11 
 1.2215306707938276e-11  1.2701115524385347e-11  1.3206245203192984e-11  1.3731464145124030e-11 
 1.4277571310659767e-11  1.4845397435377967e-11  1.5435806293667292e-11  1.6049696012700523e-11 
 1.6688000438665325e-11  1.7351690557330981e-11  1.8041775971111994e-11  1.8759306434875591e-11 
 1.9505373452829289e-11  2.0281111938917803e-11  2.1087701943255200e-11  2.1926370447218326e-11 
 2.2798393229932562e-11  2.3705096808988892e-11  2.4647860458344883e-11  2.5628118306478933e-11 
 2.6647361517989713e-11  2.7707140561959480e-11  2.8809067570531872e-11  2.9954818791292192e-11 
 3.1146137137180709e-11  3.2384834837817969e-11  3.3672796196275442e-11  3.5011980455485140e-11 
 3.6404424778648581e-11  3.7852247348179095e-11  3.9357650587891518e-11  4.0922924513341103e-11 
 4.2550450215408216e-11  4.4242703482428086e-11  4.6002258566375820e-11  4.7831792098835655e-11 
 4.9734087162712107e-11  5.1712037525876198e-11  5.3768652043187975e-11  5.5907059233591151e-11 
 5.8130512039243208e-11  6.0442392773920325e-11  6.2846218268225071e-11  6.5345645219423964e-11 
 6.7944475754052992e-11  7.0646663211753573e-11  7.3456318159137186e-11  7.6377714642827449e-11 
 7.9415296691191933e-11  8.2573685074654440e-11  8.5857684334872021e-11  8.9272290093469518e-11 
 9.2822696651450332e-11  9.6514304890843652e-11  1.0035273049060923e-10  1.0434381246929719e-10 
 1.0849362206745920e-10  1.1280847198332323e-10  1.1729492597578116e-10  1.2195980884929912e-10 
 1.2681021683593846e-10  1.3185352839028300e-10  1.3709741541369263e-10  1.4254985492496010e-10 
 1.4821914119512368e-10  1.5411389836489694e-10  1.6024309356390973e-10  1.6661605055171851e-10 
 1.7324246390133794e-10  1.8013241374687047e-10  1.8729638111766940e-10  1.9474526388236326e-10 
 2.0249039332699714e-10  2.1054355139251038e-10  2.1891698859777504e-10  2.2762344267546121e-10 
 2.3667615794907935e-10  2.4608890548067978e-10  2.5587600401985905e-10  2.6605234178594416e-10 
 2.7663339911649242e-10  2.8763527201656317e-10  2.9907469664458810e-10  3.1096907477209078e-10 
 3.2333650025599060e-10  3.3619578656376300e-10  3.4956649539333380e-10  3.6346896643124779e-10 
 3.7792434829438554e-10  3.9295463070230221e-10  4.0858267792913508e-10  4.2483226358597287e-10 
 4.4172810678660333e-10  4.5929590975166087e-10  4.7756239690838609e-10  4.9655535554547989e-10 
 5.1630367808490402e-10  5.3683740603493891e-10  5.5818777569136751e-10  5.8038726565631148e-10 
 6.0346964624701299e-10  6.2747003086972989e-10  6.5242492943690191e-10  6.7837230390885265e-10 
 7.0535162604452816e-10  7.3340393744912972e-10  7.6257191200998542e-10  7.9289992081550566e-10 
 8.2443409965569897e-10  8.5722241920785016e-10  8.9131475801385219e-10  9.2676297836009112e-10 
 9.6362100517532264e-10  1.0019449080665899e-09  1.0417929866179875e-09  1.0832258590820646e-09 
 1.1263065545988032e-09  1.1711006090824886e-09  1.2176761649223625e-09  1.2661040746487595e-09 
 1.3164580087224550e-09  1.3688145676112337e-09  1.4232533983242095e-09  1.4798573155812079e-09 
 1.5387124278015841e-09  1.5999082681041741e-09  1.6635379305177136e-09  1.7296982116089759e-09 
 1.7984897577441395e-09  1.8700172182074588e-09  1.9443894044102275e-09  2.0217194554323012e-09 
 2.1021250101480657e-09  2.1857283861987901e-09  2.2726567660836817e-09  2.3630423906528377e-09 
 2.4570227602965163e-09  2.5547408441369034e-09  2.6563452975406907e-09  2.7619906882834752e-09 
 2.8718377317101586e-09  2.9860535352491879e-09  3.1048118526527644e-09  3.2282933483499166e-09 
 3.3566858723147338e-09  3.4901847458680714e-09  3.6289930588477038e-09  3.7733219785991362e-09 
 3.9233910712573741e-09  4.0794286358085972e-09  4.2416720514401634e-09  4.4103681387075885e-09 
 4.5857735350682115e-09  4.7681550853530863e-09  4.9577902477714180e-09  5.1549675160655110e-09 
 5.3599868584587585e-09  5.5731601740648027e-09  5.7948117674525765e-09  6.0252788420895756e-09 
 6.2649120134144577e-09  6.5140758423199910e-09  6.7731493898583795e-09  7.0425267940134022e-09 
 7.3226178694173769e-09  7.6138487309258373e-09  7.9166624419992922e-09  8.2315196888790691e-09 
 8.5588994815836278e-09  8.8992998827925691e-09  9.2532387657279950e-09  9.6212546021871274e-09 
 1.0003907281925922e-08  1.0401778964641323e-08  1.0815474965849291e-08  1.1245624678007506e-08 
 1.1692882528285318e-08  1.2157928974439337e-08  1.2641471540311097e-08  1.3144245892523689e-08 
 1.3667016960016967e-08  1.4210580098126165e-08  1.4775762298976875e-08  1.5363423450039582e-08 
 1.5974457642760686e-08  1.6609794533263060e-08  1.7270400757188643e-08  1.7957281400838096e-08 
 1.8671481530848359e-08  1.9414087784738246e-08  2.0186230024744853e-08  2.0989083057470398e-08 
 2.1823868421958984e-08  2.2691856248927627e-08  2.3594367193983995e-08  2.4532774447776450e-08 
 2.5508505826139091e-08  2.6523045943416737e-08  2.7577938472281451e-08  2.8674788493484322e-08 
 2.9815264939123505e-08  3.1001103133151843e-08  3.2234107432996248e-08  3.3516153976315003e-08 
 3.4849193537079725e-08  3.6235254495335605e-08  3.7676445925166964e-08  3.9174960805575832e-08 
 4.0733079359168546e-08  4.2353172523741122e-08  4.4037705562056272e-08  4.5789241815316773e-08 
 4.7610446606058861e-08  4.9504091296417887e-08  5.1473057507955423e-08  5.3520341509484453e-08 
 5.5649058779585384e-08  5.7862448750772791e-08  6.0163879742550990e-08  6.2556854090884063e-08 
 6.5045013481907410e-08  6.7632144498019691e-08  7.0322184384818587e-08  7.3119227047682050e-08 
 7.6027529287147607e-08  7.9051517282607679e-08  8.2195793334218906e-08  8.5465142873318792e-08 
 8.8864541752053314e-08  9.2399163823347194e-08  9.6074388822792831e-08  9.9895810564496157e-08 
 1.0386924546339860e-07  1.0800074139709425e-07  1.1229658692068193e-07  1.1676332084873218e-07 
 1.2140774221901274e-07  1.2623692065320012e-07  1.3125820713041478e-07  1.3647924519004987e-07 
 1.4190798258102203e-07  1.4755268337525805e-07  1.5342194056394284e-07  1.5952468915579636e-07 
 1.6587021979741653e-07  1.7246819293652837e-07  1.7932865354981244e-07  1.8646204645785297e-07 
 1.9387923225065005e-07  2.0159150384807664e-07  2.0961060372063933e-07  2.1794874179691568e-07 
 2.2661861408510029e-07  2.3563342203718583e-07  2.4500689268545601e-07  2.5475329958214815e-07 
 2.6488748457438693e-07  2.7542488044777537e-07  2.8638153447336829e-07  2.9777413289414593e-07 
 3.0962002638855638e-07  3.2193725655020209e-07  3.3474458342431305e-07  3.4806151414328462e-07 
 3.6190833270525226e-07  3.7630613094144377e-07  3.9127684071988909e-07  4.0684326743497498e-07 
 4.2302912483432957e-07  4.3985907123658354e-07  4.5735874719571641e-07  4.7555481466993078e-07 
 4.9447499775533975e-07  5.1414812504716593e-07  5.3460417369369079e-07  5.5587431521081120e-07 
 5.7799096312779679e-07  6.0098782253769389e-07  6.2489994162877473e-07  6.4976376527652054e-07 
 6.7561719077882978e-07  7.0249962582048912e-07  7.3045204875640831e-07  7.5951707130674777e-07 
 7.8973900376082729e-07  8.2116392279062179e-07  8.5383974197872925e-07  8.8781628516994423e-07 
 9.2314536275998307e-07  9.5988085103951346e-07  9.9807877471642714e-07  1.0377973927442767e-06 
 1.0790972875899938e-06  1.1220414580794016e-06  1.1666954159646680e-06  1.2131272863636966e-06 
 1.2614079122275495e-06  1.3116109629983571e-06  1.3638130476267624e-06  1.4180938321248551e-06 
 1.4745361618376968e-06  1.5332261886240239e-06  1.5942535031444773e-06  1.6577112724638137e-06 
 1.7236963831819814e-06  1.7923095903177331e-06  1.8636556721775874e-06  1.9378435914524957e-06 
 2.0149866627944905e-06  2.0952027271359277e-06  2.1786143330247190e-06  2.2653489252601722e-06 
 2.3555390411257490e-06  2.4493225145272328e-06  2.5468426883575044e-06  2.6482486354223419e-06 
 2.7536953882754502e-06  2.8633441783253091e-06  2.9773626845913656e-06  3.0959252925027417e-06 
 3.2192133631488795e-06  3.3474155134084894e-06  3.4807279074008555e-06  3.6193545597219859e-06 
 3.7635076509472908e-06  3.9134078559024906e-06  4.0692846852253925e-06  4.2313768407628748e-06 
 4.3999325853701999e-06  4.5752101277034006e-06  4.7574780226202584e-06  4.9470155878310665e-06 
 5.1441133374673259e-06  5.3490734332645392e-06  5.5622101540844670e-06  5.7838503845328339e-06 
 6.0143341234602002e-06  6.2540150131670331e-06  6.5032608901686572e-06  6.7624543584119560e-06 
 7.0319933858734788e-06  7.3122919255080653e-06  7.6037805615582422e-06  7.9069071822776257e-06 
 8.2221376801665283e-06  8.5499566808646672e-06  8.8908683018950199e-06  9.2453969425038370e-06 
 9.6140881058953023e-06  9.9975092552150691e-06  1.0396250704695207e-05  1.0810926547433992e-05 
 1.1242175621347528e-05  1.1690662514896825e-05  1.2157078614263278e-05  1.2642143193718317e-05 
 1.3146604551008776e-05  1.3671241189659130e-05  1.4216863050174535e-05  1.4784312792215663e-05 
 1.5374467129906952e-05  1.5988238222535014e-05  1.6626575122993205e-05  1.7290465286432398e-05 
 1.7980936141686753e-05  1.8699056728157052e-05  1.9445939400953504e-05  2.0222741607224450e-05 
 2.1030667736728070e-05  2.1870971049840891e-05  2.2744955686340043e-05  2.3653978758446251e-05 
 2.4599452531771383e-05  2.5582846697979097e-05  2.6605690743139458e-05  2.7669576415939016e-05 
 2.8776160300097073e-05  2.9927166495537446e-05  3.1124389413072896e-05  3.2369696687577557e-05 
 3.3665032214851477e-05  3.5012419317621000e-05  3.6413964046370502e-05  3.7871858620964947e-05 
 3.9388385019299445e-05  4.0965918719502755e-05  4.2606932602526690e-05  4.4314001022273388e-05 
 4.6089804050748466e-05  4.7937131906081596e-05  4.9858889571625478e-05  5.1858101614734860e-05 
 5.3937917214234958e-05  5.6101615406019286e-05  5.8352610556667432e-05  6.0694458075448638e-05 
 6.3130860375575350e-05  6.5665673096095017e-05  6.8302911596360597e-05  7.1046757735598900e-05 
 7.3901566950706403e-05  7.6871875646043552e-05  7.9962408909673094e-05  8.3178088571198656e-05 
 8.6524041617106680e-05  9.0005608980301845e-05  9.3628354721353912e-05  9.7398075619846639e-05 
 1.0132081119513645e-04  1.0540285417679691e-04  1.0965076144604288e-04  1.1407136547050192e-04 
 1.1867178625583110e-04  1.2345944383886922e-04  1.2844207134827030e-04  1.3362772865988841e-04 
 1.3902481667557983e-04  1.4464209225555967e-04  1.5048868383600304e-04  1.5657410776521763e-04 
 1.6290828539344048e-04  1.6950156095313490e-04  1.7636472026858431e-04  1.8350901033560842e-04 
 1.9094615981436741e-04  1.9868840048048063e-04  2.0674848968206820e-04  2.1513973385284437e-04 
 2.2387601313404986e-04  2.3297180716081538e-04  2.4244222207151566e-04  2.5230301880180338e-04 
 2.6257064272831903e-04  2.7326225473056864e-04  2.8439576374314962e-04  2.9598986087440651e-04 
 3.0806405517172020e-04  3.2063871111798339e-04  3.3373508794842539e-04  3.4737538088180247e-04 
 3.6158276436511807e-04  3.7638143743646543e-04  3.9179667131633100e-04  4.0785485934376279e-04 
 4.2458356938023103e-04  4.4201159881078662e-04  4.6016903227929709e-04  4.7908730230212127e-04 
 4.9879925291259697e-04  5.1933920649719202e-04  5.4074303399312483e-04  5.6304822862673085e-04 
 5.8629398338186226e-04  6.1052127239819281e-04  6.3577293651048293e-04  6.6209377315168297e-04 
 6.8953063085526207e-04  7.1813250860533375e-04  7.4795066029713375e-04  7.7903870458513277e-04 
 8.1145274041166324e-04  8.4525146852538991e-04  8.8049631931634868e-04  9.1725158731263776e-04 
 9.5558457270323617e-04  9.9556573027189668e-04  1.0372688261486625e-03  1.0807711028083709e-03 
 1.1261534527695484e-03  1.1735006014724912e-03  1.2229012998420763e-03  1.2744485270690547e-03 
 1.3282397041733027e-03  1.3843769189438196e-03  1.4429671628832504e-03  1.5041225808193803e-03 
 1.5679607338826196e-03  1.6346048765868613e-03  1.7041842487914801e-03  1.7768343833646555e-03 
 1.8526974304127085e-03  1.9319224989868846e-03  2.0146660172279821e-03  2.1010921119605716e-03 
 2.1913730088022718e-03  2.2856894539097813e-03  2.3842311585420949e-03  2.4871972676826855e-03 
 2.5947968540263981e-03  2.7072494387034487e-03  2.8247855401822616e-03  2.9476472528649042e-03 
 3.0760888569636778e-03  3.2103774613247522e-03  3.3507936809448863e-03  3.4976323510098042e-03 
 3.6512032793679385e-03  3.8118320394405852e-03  3.9798608056591401e-03  4.1556492336115363e-03 
 4.3395753871732310e-03  4.5320367149926403e-03  4.7334510787964629e-03  4.9442578360764820e-03 
 5.1649189798155448e-03  5.3959203380060184e-03  5.6377728358083029e-03  5.8910138232892602e-03 
 6.1562084717695763e-03  6.4339512418943399e-03  6.7248674266211020e-03  7.0296147723929491e-03 
 7.3488851818295925e-03  7.6834065013248708e-03  8.0339443969829512e-03  8.4013043223555451e-03 
 8.7863335814562724e-03  9.1899234905234595e-03  9.6130116419760152e-03  1.0056584273955648e-02 
 1.0521678748768888e-02  1.1009386143430375e-02  1.1520853955360623e-02  1.2057288926102023e-02 
 1.2619959985681793e-02  1.3210201319964025e-02  1.3829415562989470e-02  1.4479077115894825e-02 
 1.5160735593526761e-02  1.5876019399311783e-02  1.6626639428305046e-02  1.7414392897610178e-02 
 1.8241167302530569e-02  1.9108944495871284e-02  2.0019804886750894e-02  2.0975931754094890e-02 
 2.1979615668657127e-02  2.3033259015943840e-02  2.4139380610786357e-02  2.5300620392514610e-02 
 2.6519744187714498e-02  2.7799648525400275e-02  2.9143365487090480e-02  3.0554067571735694e-02 
 3.2035072552703943e-02  3.3589848301080985e-02  3.5222017546387478e-02  3.6935362542452312e-02 
 3.8733829602619063e-02  4.0621533464704297e-02  4.2602761442187297e-02  4.4681977314005729e-02 
 4.6863824901082582e-02  4.9153131273343871e-02  5.1554909526537677e-02  5.4074361063672735e-02 
 5.6716877311405595e-02  5.9488040797273434e-02  6.2393625509354358e-02  6.5439596455804855e-02 
 6.8632108337846470e-02  7.1977503246223415e-02  7.5482307288008560e-02  7.9153226047966346e-02 
 8.2997138786560579e-02  8.7021091275173296e-02  9.1232287168225679e-02  9.5638077811673605e-02 
 1.0024595038777802e-01  1.0506351429706989e-01  1.1009848567993982e-01  1.1535866998213097e-01 
 1.2085194247038848e-01  1.2658622660634958e-01  1.3256947018812415e-01  1.3880961916955478e-01 
 1.4531458906647990e-01  1.5209223385710730e-01  1.5915031227955106e-01  1.6649645142356403e-01 
 1.7413810750559564e-01  1.8208252370692418e-01  1.9033668494458289e-01  1.9890726943543321e-01 
 2.0780059690698346e-01  2.1702257330693239e-01  2.2657863187015376e-01  2.3647367042068895e-01 
 2.4671198482151258e-01  2.5729719854082117e-01  2.6823218838474239e-01  2.7951900655652501e-01 
 2.9115879934428712e-01  3.0315172291440556e-01  3.1549685689429691e-01  3.2819211666197334e-01 
 3.4123416551138119e-01  3.5461832811811933e-01  3.6833850697030346e-01  3.8238710362992701e-01 
 3.9675494682414403e-01  4.1143122940745236e-01  4.2640345616518777e-01  4.4165740423895167e-01 
 4.5717709765644077e-01  4.7294479707249232e-01  4.8894100542289853e-01  5.0514448981366455e-01 
 5.2153231966669489e-01  5.3807992095015422e-01  5.5476114624052342e-01  5.7154836036404644e-01 
 5.8841254139085752e-01  6.0532339673164615e-01  6.2224949393613183e-01  6.3915840544514357e-01 
 6.5601686595452358e-01  6.7279094019457431e-01  6.8944619785012740e-01  7.0594789115204848e-01 
 7.2226112955737820e-01  7.3835104518426853e-01  7.5418294261039054e-01  7.6972242757663123e-01 
 7.8493551120567506e-01  7.9978868942125814e-01  8.1424900088828811e-01  8.2828407027539586e-01 
 8.4186214618314914e-01  8.5495214406801234e-01  8.6752370368403720e-01  8.7954726971951369e-01 
 8.9099420860265277e-01  9.0183690735887823e-01  9.1204892954223138e-01  9.2160520778099797e-01 
 9.3048220884521049e-01  9.3865810938593375e-01  9.4611296680302115e-01  9.5282887775276348e-01 
 9.5879011956417581e-01  9.6398327125786054e-01  9.6839731215909686e-01  9.7202369717027626e-01 
 9.7485640858522571e-01  9.7689198490379614e-01  9.7812952748005799e-01  9.7857068606226449e-01 
 9.7821962440649479e-01  9.7708296720993537e-01  9.7516972964492266e-01  9.7249123080183442e-01 
 9.6906099237953092e-01  9.6489462400138815e-01  9.6000969658338586e-01  9.5442560523541686e-01 
 9.4816342323358804e-01  9.4124574865456268e-01  9.3369654530778123e-01  9.2554097963293036e-01 
 9.1680525524429002e-01  9.0751644679741716e-01  8.9770233482491002e-01  8.8739124313555739e-01 
 8.7661188029489290e-01  8.6539318660577147e-01  8.5376418788671715e-01  8.4175385720577633e-01 
 8.2939098557148494e-01  8.1670406241371185e-01  8.0372116650931646e-01  7.9046986782406103e-01 
 7.7697714029742415e-01  7.6326928701123842e-01  7.4937187501158997e-01  7.3530968221745663e-01 
 7.2110665472293456e-01  7.0678587424515071e-01  6.9236953509918620e-01  6.7787892998645782e-01 
 6.6333444380975459e-01  6.4875555467615442e-01  6.3416084121785710e-01  6.1956799534975726e-01 
 6.0499383959005837e-01  5.9045434809466357e-01  5.7596467059548984e-01  5.6153915848489389e-01 
 5.4719139235067460e-01  5.3293421033607458e-01  5.1877973677436229e-01  5.0473941062545324e-01 
 4.9082401332043069e-01  4.7704369569662225e-01  4.6340800377933017e-01  4.4992590323488080e-01 
 4.3660580238217656e-01  4.2345557370553305e-01  4.1048257385972486e-01  3.9769366219859792e-01 
 3.8509521789135870e-01  3.7269315571598582e-01  3.6049294063758336e-01  3.4849960129153223e-01 
 3.3671774249770037e-01  3.2515155693356390e-01  3.1380483609166243e-01  3.0268098064119481e-01 
 2.9178301030553261e-01  2.8111357335768766e-01  2.7067495582499851e-01  2.6046909048301098e-01 
 2.5049756570722087e-01  2.4076163424037494e-01  2.3126222192268547e-01  2.2199993642280030e-01 
 2.1297507599882590e-01  2.0418763831118639e-01  1.9563732930264111e-01  1.8732357215535692e-01 
 1.7924551633048366e-01  1.7140204669213210e-01  1.6379179271489783e-01  1.5641313777236579e-01 
 1.4926422850205873e-01  1.4234298424162309e-01  1.3564710653125647e-01  1.2917408867639391e-01 
 1.2292122536509449e-01  1.1688562233480415e-01  1.1106420608343519e-01  1.0545373361996510e-01 
 1.0005080224993368e-01  9.4851859391247406e-02  8.9853212415533248e-02  8.5051038509887739e-02 
 8.0441394553209852e-02  7.6020227000386464e-02  7.1783381766413759e-02  6.7726614101112498e-02 
 6.3845598443459980e-02  6.0135938242763393e-02  5.6593175731998527e-02  5.3212801636694708e-02 
 4.9990264800837438e-02  4.6920981709448611e-02  4.4000345885868979e-02  4.1223737140378171e-02 
 3.8586530645778154e-02  3.6084105814278518e-02  3.3711854950036091e-02  3.1465191652546909e-02 
 2.9339558944936801e-02  2.7330437102234980e-02  2.5433351156822971e-02  2.3643878059066488e-02 
 2.1957653473071947e-02  2.0370378189627020e-02  1.8877824140715125e-02  1.7475840002509523e-02 
 1.6160356376403489e-02  1.4927390540370523e-02  1.3773050765724907e-02  1.2693540197120571e-02 
 1.1685160296343276e-02  1.0744313853074479e-02  9.8675075682987945e-03  9.0513542183564052e-03 
 8.2925744097779273e-03  7.5879979369582896e-03  6.9345647564092320e-03  6.3293255927647993e-03 
 5.7694421928951379e-03  5.2521872454115263e-03  4.7749439835282660e-03  4.3352054896986722e-03 
 3.9305737206833929e-03  3.5587582717641862e-03  3.2175748987137960e-03  2.9049438159025058e-03 
 2.6188877885954327e-03  2.3575300371003159e-03  2.1190919699907431e-03  1.9018907631764815e-03 
 1.7043368011391087e-03  1.5249309962100631e-03  1.3622620013468141e-03  1.2150033314635214e-03 
 1.0819104079931774e-03  9.6181754099306123e-04  8.5363486274608435e-04  7.5634522644723950e-04 
 6.6900108318630237e-04  5.9072135003484030e-04  5.2068828160814669e-04  4.5814435699331193e-04 
 4.0238919340764972e-04  3.5277649737383668e-04  3.0871106356846693e-04  2.6964583082064535e-04 
 2.3507900401029203e-04  2.0455124984735266e-04  1.7764297371005770e-04  1.5397168389085810e-04 
 1.3318944875162787e-04  1.1498045143459222e-04  9.9058645921766756e-05  8.5165517392892786e-05 
 7.3067949008912290e-05  6.2556196453312116e-05  5.3441970804740632e-05  4.5556629597804618e-05 
 3.8749475260498570e-05  3.2886159500905908e-05  2.7847191656057709e-05  2.3526548514627990e-05 
 1.9830382683841011e-05  1.6675826189999819e-05  1.3989885680952353e-05  1.1708425336310450e-05 
 9.7752333853394123e-06  8.1411679805341411e-06  6.7633780738702398e-06  5.6045948890293955e-06 
 4.6324895726950549e-06  3.8190926372218988e-06  3.1402708713890555e-06  2.5752574912917281e-06 
 2.1062314254562181e-06  1.7179417728244407e-06  1.3973736353202548e-06  1.1334517044491047e-06 
 9.1677817018783936e-07  7.3940171694388857e-07  5.9461457253592073e-07  4.7677477919522614e-07 
 3.8115105804348463e-07  3.0378783820318345e-07  2.4138821678218633e-07  1.9121280487718598e-07 
 1.5099259617863043e-07  1.1885416771150720e-07  9.3255685942989968e-08  7.2932345384083439e-08 
 5.6850010569642177e-08  4.4165965763600498e-08  3.4195799908315029e-08  2.6385567360792555e-08 
 2.0288468092536973e-08  1.5545384627382773e-08  1.1868697482367212e-08  9.0288767475573478e-09 
 6.8434152202340062e-09  5.1677287519787839e-09  3.8877027426622960e-09  2.9136105941349826e-09 
 2.1751709822643774e-09  1.6175465684894508e-09  1.1981177773862644e-09  8.8389201769455420e-10 
 6.4943169126353760e-10  4.7520395694393752e-10  3.4627189995890895e-10  2.5126087292127003e-10 
 1.8154565959891952e-10  1.3061407074471173e-10  9.3570884930083767e-11  6.6752938371865421e-11 
 4.7431860182470775e-11  3.3585631569955529e-11  2.3723984311233232e-11  0.0000000000000000e+00 
 0.0000000000000000e+00  0.0000000000000000e+00  0.0000000000000000e+00  0.0000000000000000e+00 
 0.0000000000000000e+00  0.0000000000000000e+00  0.0000000000000000e+00  0.0000000000000000e+00 
 0.0000000000000000e+00  0.0000000000000000e+00  0.0000000000000000e+00  0.0000000000000000e+00 
 0.0000000000000000e+00  0.0000000000000000e+00  0.0000000000000000e+00  0.0000000000000000e+00 
 0.0000000000000000e+00  0.0000000000000000e+00  0.0000000000000000e+00  0.0000000000000000e+00 
 0.0000000000000000e+00  0.0000000000000000e+00  0.0000000000000000e+00  0.0000000000000000e+00 
 0.0000000000000000e+00  0.0000000000000000e+00  0.0000000000000000e+00  0.0000000000000000e+00 
 0.0000000000000000e+00  0.0000000000000000e+00  0.0000000000000000e+00  0.0000000000000000e+00 
 0.0000000000000000e+00  0.0000000000000000e+00  0.0000000000000000e+00  0.0000000000000000e+00 
 0.0000000000000000e+00  0.0000000000000000e+00  0.0000000000000000e+00  0.0000000000000000e+00 
 0.0000000000000000e+00  0.0000000000000000e+00  0.0000000000000000e+00  0.0000000000000000e+00 
 0.0000000000000000e+00  0.0000000000000000e+00  0.0000000000000000e+00  0.0000000000000000e+00 
 0.0000000000000000e+00  0.0000000000000000e+00  0.0000000000000000e+00  0.0000000000000000e+00 
 0.0000000000000000e+00  0.0000000000000000e+00  0.0000000000000000e+00  0.0000000000000000e+00 
 0.0000000000000000e+00  0.0000000000000000e+00  0.0000000000000000e+00  0.0000000000000000e+00 
 0.0000000000000000e+00  0.0000000000000000e+00  0.0000000000000000e+00  0.0000000000000000e+00 
 0.0000000000000000e+00  0.0000000000000000e+00  0.0000000000000000e+00  0.0000000000000000e+00 
 0.0000000000000000e+00  0.0000000000000000e+00  0.0000000000000000e+00  0.0000000000000000e+00 
 0.0000000000000000e+00  0.0000000000000000e+00  0.0000000000000000e+00  0.0000000000000000e+00 
 0.0000000000000000e+00  0.0000000000000000e+00  0.0000000000000000e+00  0.0000000000000000e+00 
 0.0000000000000000e+00  0.0000000000000000e+00  0.0000000000000000e+00  0.0000000000000000e+00 
 0.0000000000000000e+00  0.0000000000000000e+00  0.0000000000000000e+00  0.0000000000000000e+00 
 0.0000000000000000e+00  0.0000000000000000e+00  0.0000000000000000e+00  0.0000000000000000e+00 
 0.0000000000000000e+00  0.0000000000000000e+00  0.0000000000000000e+00  0.0000000000000000e+00 
 0.0000000000000000e+00  0.0000000000000000e+00  0.0000000000000000e+00  0.0000000000000000e+00 
 0.0000000000000000e+00  0.0000000000000000e+00  0.0000000000000000e+00  0.0000000000000000e+00 
 0.0000000000000000e+00  0.0000000000000000e+00  0.0000000000000000e+00  0.0000000000000000e+00 
 0.0000000000000000e+00  0.0000000000000000e+00  0.0000000000000000e+00  0.0000000000000000e+00 
 0.0000000000000000e+00  0.0000000000000000e+00  0.0000000000000000e+00  0.0000000000000000e+00 
 0.0000000000000000e+00  0.0000000000000000e+00  0.0000000000000000e+00  0.0000000000000000e+00 
 0.0000000000000000e+00  0.0000000000000000e+00  0.0000000000000000e+00  0.0000000000000000e+00 
 0.0000000000000000e+00  0.0000000000000000e+00  0.0000000000000000e+00  0.0000000000000000e+00 
 0.0000000000000000e+00  0.0000000000000000e+00  0.0000000000000000e+00  0.0000000000000000e+00 
 0.0000000000000000e+00 
</PP_PSWFC>


<PP_RHOATOM>
 9.7018985204776909e-17  9.9574557386586579e-17  1.0219744576844719e-16  1.0488942352317674e-16 
 1.0765231053066121e-16  1.1048797460816336e-16  1.1339833277303978e-16  1.1638535253871887e-16 
 1.1945105324481577e-16  1.2259750742228477e-16  1.2582684219453010e-16  1.2914124071542398e-16 
 1.3254294364520379e-16  1.3603425066524464e-16  1.3961752203273401e-16  1.4329518017629689e-16 
 1.4706971133365204e-16  1.5094366723240504e-16  1.5491966681511609e-16  1.5900039800980661e-16 
 1.6318861954710378e-16  1.6748716282524955e-16  1.7189893382423710e-16  1.7642691507036603e-16 
 1.8107416765254720e-16  1.8584383329171826e-16  1.9073913646477005e-16  1.9576338658441917e-16 
 2.0091998023650099e-16  2.0621240347619423e-16  2.1164423418473171e-16  2.1721914448818809e-16 
 2.2294090323998192e-16  2.2881337856876838e-16  2.3484054049344668e-16  2.4102646360704972e-16 
 2.4737532983132881e-16  2.5389143124389886e-16  2.6057917297985160e-16  2.6744307620980177e-16 
 2.7448778119637709e-16  2.8171805043122004e-16  2.8913877185462054e-16  2.9675496215995819e-16 
 3.0457177018518694e-16  3.1259448039365323e-16  3.2082851644660475e-16  3.2927944486980166e-16 
 3.3795297881671057e-16  3.4685498193082369e-16  3.5599147230971805e-16  3.6536862657352981e-16 
 3.7499278404059851e-16  3.8487045101309955e-16  3.9500830517556769e-16  4.0541320010928098e-16 
 4.1609216992555759e-16  4.2705243402110044e-16  4.3830140195860090e-16  4.4984667847590486e-16 
 4.6169606862712358e-16  4.7385758305916799e-16  4.8633944342727358e-16  4.9915008795317408e-16 
 5.1229817712968492e-16  5.2579259957555126e-16  5.3964247804451960e-16  5.5385717559269497e-16 
 5.6844630190835212e-16  5.8341971980848210e-16  5.9878755190646545e-16  6.1456018745537792e-16 
 6.3074828937155747e-16  6.4736280144318180e-16  6.6441495572872385e-16  6.8191628015029528e-16 
 6.9987860628700537e-16  7.1831407737360504e-16  7.3723515650982900e-16  7.5665463508597285e-16 
 7.7658564143042073e-16  7.9704164968495048e-16  8.1803648891382779e-16  8.3958435245284666e-16 
 8.6169980750463290e-16  8.8439780498669757e-16  9.0769368963890493e-16  9.3160321039717826e-16 
 9.5614253104046664e-16  9.8132824111816284e-16  1.0071773671653626e-15  1.0337073842135501e-15 
 1.0609362276044909e-15  1.0888823051153096e-15  1.1175645094029705e-15  1.1470022307765487e-15 
 1.1772153703059472e-15  1.2082243532759160e-15  1.2400501429944614e-15  1.2727142549649905e-15 
 1.3062387714317712e-15  1.3406463563085337e-15  1.3759602705003178e-15  1.4122043876289154e-15 
 1.4494032101725403e-15  1.4875818860306480e-15  1.5267662255250812e-15  1.5669827188490705e-15 
 1.6082585539758433e-15  1.6506216350389943e-15  1.6941006011970015e-15  1.7387248459946736e-15 
 1.7845245372346087e-15  1.8315306373720810e-15  1.8797749244471821e-15  1.9292900135683281e-15 
 1.9801093789616873e-15  2.0322673766014159e-15  2.0857992674360204e-15  2.1407412412265280e-15 
 2.1971304410126010e-15  2.2550049882231295e-15  2.3144040084482676e-15  2.3753676578903637e-15 
 2.4379371505116442e-15  2.5021547858970127e-15  2.5680639778508146e-15  2.6357092837468745e-15 
 2.7051364346516807e-15  2.7763923662410621e-15  2.8495252505312718e-15  2.9245845284459143e-15 
 3.0016209432407687e-15  3.0806865748090627e-15  3.1618348748904377e-15  3.2451207032073570e-15 
 3.3306003645534582e-15  3.4183316468588531e-15  3.5083738602581661e-15  3.6007878771877080e-15 
 3.6956361735388814e-15  3.7929828708956630e-15  3.8928937798847200e-15  3.9954364446674651e-15 
 4.1006801886041069e-15  4.2086961611206612e-15  4.3195573858104710e-15  4.4333388098028919e-15 
 4.5501173544324575e-15  4.6699719672427782e-15  4.7929836753603834e-15  4.9192356402745337e-15 
 5.0488132140601270e-15  5.1818039970816130e-15  5.3182978972170258e-15  5.4583871906421403e-15 
 5.6021665842158169e-15  5.7497332795088274e-15  5.9011870385193228e-15  6.0566302511194922e-15 
 6.2161680042789501e-15  6.3799081531116969e-15  6.5479613937946905e-15  6.7204413384073369e-15 
 6.8974645917424894e-15  7.0791508301409258e-15  7.2656228824026189e-15  7.4570068128294830e-15 
 7.6534320064557772e-15  7.8550312565238236e-15  8.0619408542641403e-15  8.2743006810407705e-15 
 8.4922543029241085e-15  8.7159490677551087e-15  8.9455362047666460e-15  9.1811709268293273e-15 
 9.4230125353908936e-15  9.6712245281802574e-15  9.9259747097489267e-15  1.0187435304924650e-14 
 1.0455783075254053e-14  1.0731199438512875e-14  1.1013870591364826e-14  1.1303987635251896e-14 
 1.1601746705601353e-14  1.1907349104436761e-14  1.2221001436482802e-14  1.2542915748855888e-14 
 1.2873309674435134e-14  1.3212406579010642e-14  1.3560435712308606e-14  1.3917632362995560e-14 
 1.4284238017766379e-14  1.4660500524623992e-14  1.5046674260460921e-14  1.5443020303056433e-14 
 1.5849806607605253e-14  1.6267308187897588e-14  1.6695807302273133e-14  1.7135593644474383e-14 
 1.7586964539529121e-14  1.8050225144793977e-14  1.8525688656295725e-14  1.9013676520509380e-14 
 1.9514518651716882e-14  2.0028553655093316e-14  2.0556129055671655e-14  2.1097601533341063e-14 
 2.1653337164037851e-14  2.2223711667292334e-14  2.2809110660299132e-14  2.3409929918683241e-14 
 2.4026575644137939e-14  2.4659464739116303e-14  2.5309025088761872e-14  2.5975695850269810e-14 
 2.6659927749874302e-14  2.7362183387663390e-14  2.8082937550427905e-14  2.8822677532755970e-14 
 2.9581903466591507e-14  3.0361128659478952e-14  3.1160879941724392e-14  3.1981698022707636e-14 
 3.2824137856587175e-14  3.3688769017646017e-14  3.4576176085532285e-14  3.5486959040656446e-14 
 3.6421733670012858e-14  3.7381131983701098e-14  3.8365802642429480e-14  3.9376411396290840e-14 
 4.0413641535108216e-14  4.1478194350656019e-14  4.2570789611070772e-14  4.3692166047772826e-14 
 4.4843081855230079e-14  4.6024315203903065e-14  4.7236664766719849e-14  4.8480950259437878e-14 
 4.9758012995260813e-14  5.1068716454086659e-14  5.2413946866774233e-14  5.3794613814825788e-14 
 5.5211650845892909e-14  5.6666016105525328e-14  5.8158692985591566e-14  5.9690690789813923e-14 
 6.1263045416870412e-14  6.2876820061529028e-14  6.4533105934292329e-14  6.6233023000043145e-14 
 6.7977720736194694e-14  6.9768378910862779e-14  7.1606208381591645e-14  7.3492451915177622e-14 
 7.5428385029152987e-14  7.7415316855503190e-14  7.9454591027209534e-14  8.1547586588223887e-14 
 8.3695718927498514e-14  8.5900440737711696e-14  8.8163242999345564e-14  9.0485655990793136e-14 
 9.2869250325186649e-14  9.5315638014661826e-14  9.7826473562788284e-14  1.0040345508591966e-13 
 1.0304832546423567e-13  1.0576287352327049e-13  1.0854893524674261e-13  1.1140839502152508e-13 
 1.1434318691561726e-13  1.1735529599000210e-13  1.2044675964530101e-13  1.2361966900415798e-13 
 1.2687617033031525e-13  1.3021846648536785e-13  1.3364881842421046e-13  1.3716954673022108e-13 
 1.4078303319125226e-13  1.4449172241753313e-13  1.4829812350261443e-13  1.5220481172852304e-13 
 1.5621443031632299e-13  1.6032969222331556e-13  1.6455338198814727e-13  1.6888835762512843e-13 
 1.7333755256910595e-13  1.7790397767227048e-13  1.8259072325431554e-13  1.8740096120734292e-13 
 1.9233794715688299e-13  1.9740502268102141e-13  2.0260561758908450e-13  2.0794325226146921e-13 
 2.1342154005230894e-13  2.1904418975672821e-13  2.2481500814448285e-13  2.3073790256184968e-13 
 2.3681688360367621e-13  2.4305606785756843e-13  2.4945968072225326e-13  2.5603205930221714e-13 
 2.6277765538078997e-13  2.6970103847391267e-13  2.7680689896690128e-13  2.8410005133659220e-13 
 2.9158543746133523e-13  2.9926813002138504e-13  3.0715333599231921e-13  3.1524640023421100e-13 
 3.2355280917937166e-13  3.3207819462157629e-13  3.4082833760978750e-13  3.4980917244950579e-13 
 3.5902679081497270e-13  3.6848744597558777e-13  3.7819755714000696e-13  3.8816371392152998e-13 
 3.9839268092851054e-13  4.0889140248367718e-13  4.1966700747638649e-13  4.3072681435199842e-13 
 4.4207833624272583e-13  4.5372928624448136e-13  4.6568758284443094e-13  4.7796135550415399e-13 
 4.9055895040351650e-13  5.0348893635057307e-13  5.1676011086305549e-13  5.3038150642721715e-13 
 5.4436239694009310e-13  5.5871230434147316e-13  5.7344100544219028e-13  5.8855853895561698e-13 
 6.0407521273958839e-13  6.2000161125631255e-13  6.3634860325817498e-13  6.5312734970775649e-13 
 6.7034931194075207e-13  6.8802626008095211e-13  7.0617028171687365e-13  7.2479379085014918e-13 
 7.4390953712628192e-13  7.6353061535895130e-13  7.8367047535963445e-13  8.0434293208495205e-13 
 8.2556217611483006e-13  8.4734278447527060e-13  8.6969973182033343e-13  8.9264840198872771e-13 
 9.1620459995131277e-13  9.4038456416675186e-13  9.6520497936357404e-13  9.9068298976799038e-13 
 1.0168362127979682e-12  1.0436827532453192e-12  1.0712412179688900e-12  1.0995307311233799e-12 
 1.1285709499498437e-12  1.1583820811556089e-12  1.1889848979130617e-12  1.2204007575087316e-12 
 1.2526516196760742e-12  1.2857600656475898e-12  1.3197493179642965e-12  1.3546432610830435e-12 
 1.3904664628249626e-12  1.4272441967112328e-12  1.4650024652355250e-12  1.5037680241258695e-12 
 1.5435684076523754e-12  1.5844319550411380e-12  1.6263878380589290e-12  1.6694660898378504e-12 
 1.7136976350139980e-12  1.7591143212595360e-12  1.8057489522932696e-12  1.8536353224609569e-12 
 1.9028082529832344e-12  1.9533036299761847e-12  2.0051584443572972e-12  2.0584108337578292e-12 
 2.1131001265716391e-12  2.1692668882801241e-12  2.2269529702033776e-12  2.2862015608389577e-12 
 2.3470572399617133e-12  2.4095660356713031e-12  2.4737754845880983e-12  2.5397346954134669e-12 
 2.6074944160868421e-12  2.6771071047898370e-12  2.7486270050666950e-12  2.8221102253512477e-12 
 2.8976148232127504e-12  2.9752008946572136e-12  3.0549306688468096e-12  3.1368686086281793e-12 
 3.2210815172907327e-12  3.3076386520089647e-12  3.3966118444581866e-12  3.4880756291313533e-12 
 3.5821073799260698e-12  3.6787874556154481e-12  3.7781993548648025e-12  3.8804298815082698e-12 
 3.9855693208557140e-12  4.0937116278611645e-12  4.2049546280497257e-12  4.3194002321709342e-12 
 4.4371546656232205e-12  4.5583287137770999e-12  4.6830379844142486e-12  4.8114031885964765e-12 
 4.9435504413831454e-12  5.0796115839287019e-12  5.2197245286141121e-12  5.3640336289980161e-12 
 5.5126900765161268e-12  5.6658523260115731e-12  5.8236865523455662e-12  5.9863671405179035e-12 
 6.1540772119215127e-12  6.3270091895656809e-12  6.5053654053300186e-12  6.6893587525571575e-12 
 6.8792133875577961e-12  7.0751654838890911e-12  7.2774640435778096e-12  7.4863717697953004e-12 
 7.7021660058542526e-12  7.9251397457893851e-12  8.1556027222081181e-12  8.3938825775558371e-12 
 8.6403261254356919e-12  8.8953007091585545e-12  9.1591956652781114e-12  9.4324239004916831e-12 
 9.7154235909647331e-12  1.0008660013868344e-11  1.0312627521710447e-11  1.0627851670896518e-11 
 1.0954891516880630e-11  1.1294342089267229e-11  1.1646837061305116e-11  1.2013051629383971e-11 
 1.2393705619407247e-11  1.2789566838281609e-11  1.3201454690240644e-11  1.3630244079317460e-11 
 1.4076869621008401e-11  1.4542330188037117e-11  1.5027693817147960e-11  1.5534103006040603e-11 
 1.6062780431919413e-11  1.6615035125683173e-11  1.7192269138542059e-11  1.7795984740833491e-11 
 1.8427792196036247e-11  1.9089418156473393e-11  1.9782714730968326e-11  2.0509669278800645e-11 
 2.1272414988722280e-11  2.2073242306567738e-11  2.2914611280154213e-11  2.3799164895749665e-11 
 2.4729743486424175e-11  2.5709400299128075e-11  2.6741418314401574e-11  2.7829328420256108e-11 
 2.8976929050025836e-11  3.0188307402919250e-11  3.1467862375660200e-11  3.2820329344054013e-11 
 3.4250806944614163e-11  3.5764786018604511e-11  3.7368180894069958e-11  3.9067363195723687e-11 
 4.0869198388021455e-11  4.2781085273478078e-11  4.4810998686369772e-11  4.6967535641533921e-11 
 4.9259965219141036e-11  5.1698282489207426e-11  5.4293266804380632e-11  5.7056544816316400e-11 
 6.0000658599942703e-11  6.3139139301251180e-11  6.6486586758164541e-11  7.0058755580710129e-11 
 7.3872648216411906e-11  7.7946615569741317e-11  8.2300465790910920e-11  8.6955581899538073e-11 
 9.1935048963065067e-11  9.7263791608631668e-11  1.0296872271072594e-10  1.0907890416578084e-10 
 1.1562572073936985e-10  1.2264306805225007e-10  1.3016755585869991e-10  1.3823872786495958e-10 
 1.4689929943768129e-10  1.5619541466277652e-10  1.6617692433460293e-10  1.7689768658480762e-10 
 1.8841589200014725e-10  2.0079441523011568e-10  2.1410119524918613e-10  2.2840964661592339e-10 
 2.4379910426328722e-10  2.6035530456231045e-10  2.7817090562632522e-10  2.9734605006641903e-10 
 3.1798897367239516e-10  3.4021666377882543e-10  3.6415557138462117e-10  3.8994238142889320e-10 
 4.1772484598778213e-10  4.4766268554876506e-10  4.7992856394313122e-10  5.1470914297656515e-10 
 5.5220622329500636e-10  5.9263797856132315e-10  6.3624029060127181e-10  6.8326819380841746e-10 
 7.3399743778122906e-10  7.8872617790571628e-10  8.4777680439859800e-10  9.1149792119408417e-10 
 9.8026648699757968e-10  1.0544901318479543e-09  1.1346096636330327e-09  1.2211017801977463e-09 
 1.3144820039785981e-09  1.4153078575001890e-09  1.5241822995884137e-09  1.6417574438006016e-09 
 1.7687385823557960e-09  1.9058885407803101e-09  2.0540323905770026e-09  2.2140625494952528e-09 
 2.3869443014369225e-09  2.5737217706979397e-09  2.7755243881327848e-09  2.9935738899591362e-09 
 3.2291918933127231e-09  3.4838080963403350e-09  3.7589691546062835e-09  4.0563482899105193e-09 
 4.3777556923038490e-09  4.7251497811682183e-09  5.1006493967415449e-09  5.5065469994439266e-09 
 5.9453229608446679e-09  6.4196610371412442e-09  6.9324651236487693e-09  7.4868773970729653e-09 
 8.0862979613166897e-09  8.7344061223104386e-09  9.4351834279261820e-09  1.0192938620503457e-08 
 1.1012334661964464e-08  1.1898418005005246e-08  1.2856650298515861e-08  1.3892942731303018e-08 
 1.5013693235473802e-08  1.6225826789606995e-08  1.7536839082219101e-08  1.8954843818165392e-08 
 2.0488623974655869e-08  2.2147687339679714e-08  2.3942326693998851e-08  2.5883685028693844e-08 
 2.7983826223734937e-08  3.0255811649446934e-08  3.2713783192291896e-08  3.5373053249390794e-08 
 3.8250202282947207e-08  4.1363184576555280e-08  4.4731442890636404e-08  4.8376032774343928e-08 
 5.2319757356641151e-08  5.6587313510361206e-08  6.1205450360414136e-08  6.6203141191478491e-08 
 7.1611769902113265e-08  7.7465333251922821e-08  8.3800660256930869e-08  9.0657650206472570e-08 
 9.8079530903562964e-08  1.0611313887080824e-07  1.1480922341652702e-07  1.2422277662199053e-07 
 1.3441339149181432e-07  1.4544565070690796e-07  1.5738954863450352e-07  1.7032094948427100e-07 
 1.8432208475517957e-07  1.9948209339652712e-07  2.1589760841059004e-07  2.3367339395597578e-07 
 2.5292303737256656e-07  2.7376970094374491e-07  2.9634693864246362e-07  3.2079958357805682e-07 
 3.4728471237418773e-07  3.7597269326906534e-07  4.0704832534147402e-07  4.4071207693517302e-07 
 4.7718143208518086e-07  5.1669235454824776e-07  5.5950087991293763e-07  6.0588484721925520e-07 
 6.5614578256147898e-07  7.1061094828937550e-07  7.6963557267165327e-07  8.3360527625174775e-07 
 9.0293871262117489e-07  9.7809044297219674e-07  1.0595540655832903e-06  1.1478656233528294e-06 
 1.2436073146453151e-06  1.3474115350685894e-06  1.4599652803799602e-06  1.5820149435461952e-06 
 1.7143715420814091e-06  1.8579164151847709e-06  2.0136074339264349e-06  2.1824857718177468e-06 
 2.3656832875866047e-06  2.5644305769005564e-06  2.7800657551824609e-06  3.0140440395946739e-06 
 3.2679482047808018e-06  3.5434999941079508e-06  3.8425725760116517e-06  4.1672041436818454e-06 
 4.5196127658204975e-06  4.9022126066360333e-06  5.3176316447141036e-06  5.7687310330230780e-06 
 6.2586262561946440e-06  6.7907102564935136e-06  7.3686787166995295e-06  7.9965577066279728e-06 
 8.6787339203848899e-06  9.4199877538869201e-06  1.0225529496882978e-05  1.1101038940934908e-05 
 1.2052708734806504e-05  1.3087291851764610e-05  1.4212153569731800e-05  1.5435328405400297e-05 
 1.6765582487713268e-05  1.8212481904974148e-05  1.9786467613736656e-05  2.1498937557085207e-05 
 2.3362336705526732e-05  2.5390255806124495e-05  2.7597539705432913e-05  3.0000406200031416e-05 
 3.2616576465882768e-05  3.5465418225330012e-05  3.8568102929368310e-05  4.1947778364075237e-05 
 4.5629758235066639e-05  4.9641730444024061e-05  5.4013985948316946e-05  5.8779670290300817e-05 
 6.3975060098975123e-05  6.9639867105503910e-05  7.5817572478041530e-05  8.2555794573013246e-05 
 8.9906693522412475e-05  9.7927416433014536e-05  1.0668058736725764e-04  1.1623484671082354e-04 
 1.2666544501302356e-04  1.3805489691772916e-04  1.5049370139006977e-04  1.6408113509324299e-04 
 1.7892612648694590e-04  1.9514821901115534e-04  2.1287863259398249e-04  2.3226143368858005e-04 
 2.5345482511087965e-04  2.7663256812747943e-04  3.0198555054243456e-04  3.2972351596524517e-04 
 3.6007697102328465e-04  3.9329928902484768e-04  4.2966903049973233e-04  4.6949250316002976e-04 
 5.1310658615333479e-04  5.6088184604412381e-04  6.1322597477856701e-04  6.7058758298719698e-04 
 7.3346038538413488e-04  8.0238781875837338e-04  8.7796813715120665e-04  9.6086003330557836e-04 
 1.0517888403910947e-03  1.1515533733879478e-03  1.2610334753910503e-03  1.3811983405111700e-03 
 1.5131156920432330e-03  1.6579619021850607e-03  1.8170331478655172e-03  1.9917577062228773e-03 
 2.1837095030058855e-03  2.3946230376943115e-03  2.6264098204947846e-03  2.8811764686002463e-03 
 3.1612446222432692e-03  3.4691728551552760e-03  3.8077807690889659e-03  4.1801754780850060e-03 
 4.5897807051697844e-03  5.0403687321486472e-03  5.5360954620809920e-03  6.0815388738421836e-03 
 6.6817411688192612e-03  7.3422549311515191e-03  8.0691936448765191e-03  8.8692869337009539e-03 
 9.7499409116619494e-03  1.0719304055402858e-02  1.1786339030824513e-02  1.2960900928084950e-02 
 1.4253822378833408e-02  1.5677006047615582e-02  1.7243525004927360e-02  1.8967731501672965e-02 
 2.0865374672944203e-02  2.2953727702110897e-02  2.5251724973110800e-02  2.7780109728339115e-02 
 3.0561592730327394e-02  3.3621022396008865e-02  3.6985566831209647e-02  4.0684908138385344e-02 
 4.4751449300736580e-02  4.9220533858787385e-02  5.4130678489328232e-02  5.9523818469277276e-02 
 6.5445565856443635e-02  7.1945480043303478e-02  7.9077350136671359e-02  8.6899488383526180e-02 
 9.5475033599249526e-02  1.0487226325721155e-01  1.1516491256609203e-01  1.2643249849166274e-01 
 1.3876064627106566e-01  1.5224141551790477e-01  1.6697362252359482e-01  1.8306315482203944e-01 
 2.0062327349828316e-01  2.1977489808452957e-01  2.4064686819596251e-01  2.6337617531146318e-01 
 2.8810815729851041e-01  3.1499664741656691e-01  3.4420406861082198e-01  3.7590146293375098e-01 
 4.1026844491680958e-01  4.4749306667757177e-01  4.8777158151796540e-01  5.3130809178888472e-01 
 5.7831406592256340e-01  6.2900770884110280e-01  6.8361316953040685e-01  7.4235956953458115e-01 
 8.0547983660378120e-01  8.7320932885645763e-01  9.4578423673474532e-01  1.0234397528674122e+00 
 1.1064080038057509e+00  1.1949157425075683e+00  1.2891818063766567e+00  1.3894143524802354e+00 
 1.4958078890085671e+00  1.6085401297418611e+00  1.7277687058053990e+00  1.8536277758667721e+00 
 1.9862245817757285e+00  2.1256360012461282e+00  2.2719051525311040e+00  2.4250381083674775e+00 
 2.5850007781287920e+00  2.7517160184986427e+00  2.9250610342685510e+00  3.1048651319886780e+00 
 3.2909078896901502e+00  3.4829178049160507e+00  3.6805714797085365e+00  3.8834933937057805e+00 
 4.0912563038438581e+00  4.3033822903932322e+00  4.5193444439571069e+00  4.7385691576069426e+00 
 4.9604389552498782e+00  5.1842957563619168e+00  5.4094444548864749e+00  5.6351566834907896e+00 
 5.8606746490902992e+00  6.0852149631413708e+00  6.3079724462224549e+00  6.5281239503011230e+00 
 6.7448322994131509e+00  6.9572504861881432e+00  7.1645262684115760e+00  7.3658073108097799e+00 
 7.5602470999766931e+00  7.7470107208386345e+00  7.9252817276385006e+00  8.0942697803188768e+00 
 8.2532178929234856e+00  8.4014098721996682e+00  8.5381776077271514e+00  8.6629079989483220e+00 
 8.7750493485363226e+00  8.8741170784920396e+00  8.9596986546866386e+00  9.0314576344532878e+00 
 9.0891367786048765e+00  9.1325601931850571e+00  9.1616344872753039e+00  9.1763489515780670e+00 
 9.1767747787046030e+00  9.1630633605279570e+00  9.1354437109212157e+00  9.0942190738640534e+00 
 9.0397627873165973e+00  8.9725134823820962e+00  8.8929697050000946e+00  8.8016840535908045e+00 
 8.6992569305721634e+00  8.5863300083780487e+00  8.4635795114448342e+00  8.3317094145798531e+00 
 8.1914446552107609e+00  8.0435244523278850e+00  7.8886958186153606e+00  7.7277073445112947e+00 
 7.5613033239744709e+00  7.3902182818252635e+00  7.2151719519539714e+00  7.0368647447393400e+00 
 6.8559737309828295e+00  6.6731491588138923e+00  6.4890115096115482e+00  6.3041490892318457e+00 
 6.1191161380950811e+00  5.9344314594782048e+00  5.7505774988801379e+00  5.5679998817965544e+00 
 5.3871073527951152e+00  5.2082720796139244e+00  5.0318302801288093e+00  4.8580831291605842e+00 
 4.6872979022359926e+00  4.5197093144506297e+00  4.3555210143783007e+00  4.1949071953942765e+00 
 4.0380142896925992e+00  3.8849627135445424e+00  3.7358486358383183e+00  3.5907457455390430e+00 
 3.4497069973062517e+00  3.3127663180105786e+00  3.1799402602240914e+00  3.0512295918579033e+00 
 2.9266208139407448e+00  2.8060876010418196e+00  2.6895921610240761e+00  2.5770865126662734e+00 
 2.4685136812209452e+00  2.3638088131970649e+00  2.2629002125944933e+00  2.1657103015011137e+00 
 2.0721565084250599e+00  1.9821520880076715e+00  1.8956068758816014e+00  1.8124279824356735e+00 
 1.7325204291538872e+00  1.6557877310379192e+00  1.5821324284239986e+00  1.5114565712860730e+00 
 1.4436621588935381e+00  1.3786515374752506e+00  1.3163277583409521e+00  1.2565948987314650e+00 
 1.1993583475131326e+00  1.1445250577002508e+00  1.0920037676807417e+00  1.0417051929326488e+00 
 9.9354218994934329e-01  9.4742989403619671e-01  9.0328583259762740e-01  8.6103001549763125e-01 
 8.2058500404640289e-01  7.8187596013793847e-01  7.4483067703657224e-01  7.0937959265207318e-01 
 6.7545578992924515e-01  6.4299497935570715e-01  6.1193547141074034e-01  5.8221813705850711e-01 
 5.5378635823897426e-01  5.2658596961775195e-01  5.0056519281106393e-01  4.7567456425435295e-01 
 4.5186685783244801e-01  4.2909700333573936e-01  4.0732200175036559e-01  3.8650083833104121e-01 
 3.6659439434284025e-01  3.4756535829317226e-01  3.2937813740749322e-01  3.1199877003237103e-01 
 2.9539483957778251e-01  2.7953539053754500e-01  2.6439084705326465e-01  2.4993293441386766e-01 
 2.3613460381052986e-01  2.2296996059645019e-01  2.1041419623334820e-01  1.9844352404270510e-01 
 1.8703511882104337e-01  1.7616706012094421e-01  1.6581828014810465e-01  1.5596851419329963e-01 
 1.4659825547746494e-01  1.3768871324000476e-01  1.2922177409811725e-01  1.2117996647705136e-01 
 1.1354642790020386e-01  1.0630487492156113e-01  9.9439575481589687e-02  9.2935323470950015e-02 
 8.6777415293810861e-02  8.0951628233476916e-02  7.5444200436912925e-02  7.0241812350885557e-02 
 6.5331569460241629e-02  6.0700986197617386e-02  5.6337970913013173e-02  5.2230811810541483e-02 
 4.8368163777680349e-02  4.4739036048999023e-02  4.1332780661084534e-02  3.8139081667885613e-02 
 3.5147945095590362e-02  3.2349689623261645e-02  2.9734937979677297e-02  2.7294609048193037e-02 
 2.5019910670118130e-02  2.2902333133334105e-02  2.0933643327066521e-02  1.9105879536290650e-02 
 1.7411346840727565e-02  1.5842613074307222e-02  1.4392505291890238e-02  1.3054106681466660e-02 
 1.1820753852461134e-02  1.0686034424568299e-02  9.6437848370319774e-03  8.6880882956838178e-03 
 7.8132727744880150e-03  7.0139089898190706e-03  6.2848082691592316e-03  5.6210202411939685e-03 
 5.0178302811955009e-03  4.4707566538551308e-03  3.9755473050620046e-03  3.5281762642179991e-03 
 3.1248396292120418e-03  2.7619511168480246e-03  2.4361371720437240e-03  2.1442316392362671e-03 
 1.8832700089196359e-03  1.6504832609142901e-03  1.4432913336810363e-03  1.2592962556324783e-03 
 1.0962749798952582e-03  9.5217196830063089e-04  8.2509157352769150e-04  7.1329027032026389e-04 
 6.1516878759735434e-04  5.2926419315143180e-04  4.5424198156852994e-04  3.8888821411173940e-04 
 3.3210175669598491e-04  2.8288665886370317e-04  2.4034471296478820e-04  2.0366822866746769e-04 
 1.7213305359154834e-04  1.4509186636833406e-04  1.2196776389131913e-04  1.0224816001790861e-04 
 8.5479008594402573e-05  7.1259359472839763e-05  5.9236252226514258e-05  4.9099948597375887e-05 
 4.0579501358537062e-05  3.3438654273737951e-05  2.7472065198076166e-05  2.2501842096909836e-05 
 1.8374379860685394e-05  1.4957484253798232e-05  1.2137768140534098e-05  9.8183042608668792e-06 
 7.9165182596688111e-06  6.3623053780673339e-06  5.0963541666773341e-06  4.0686607474763194e-06 
 3.2372175042198843e-06  2.5668605908312543e-06  2.0282612844818947e-06  1.5970469478835075e-06 
 1.2530381782749722e-06  9.7958958542837074e-07  7.6302253683167343e-07  5.9213911653190559e-07 
 4.5780744895260232e-07  3.5260942679323345e-07  2.7054274171345011e-07  2.0676993899052261e-07 
 1.5740799589558600e-07  1.1935265325181430e-07  9.0132407310033048e-08  6.7787692995153710e-08 
 5.0771359315158074e-08  3.7867053935049707e-08  2.8122598131444552e-08  2.0795847782053626e-08 
 1.5310903450653996e-08  1.1222856126386892e-08  8.1895380953805413e-09  5.9489942537749511e-09 
 4.3016013881155493e-09  3.0959449899454624e-09  2.2177183464939883e-09  1.5810401013758290e-09 
 1.1216971481203364e-09  7.9191231979743764e-10  5.5631334703531215e-10  3.8884320982793098e-10 
 2.7040430247659844e-10  1.8707153235410259e-10  1.2874412952548761e-10  8.8133900710166609e-11 
 6.0010075330031435e-11  4.0638752368437591e-11  2.7369102416235798e-11  1.8329613130969680e-11 
 1.2206375795762085e-11  8.0821810394948531e-12  5.3204219795249086e-12  3.4818179860108263e-12 
 2.2650347890409850e-12  1.4645977787541424e-12  9.4124325447209664e-13  6.0116025119180508e-13 
 3.8154791238434409e-13  2.4062602068594527e-13  1.5077676539692485e-13  9.3861556273011735e-14 
 5.8045060062102484e-14  3.5655716577549174e-14  2.1754102718786913e-14  1.3181425022059360e-14 
 7.9314708020677931e-15  4.7388756061154061e-15  2.8111678547100186e-15  1.6555690155934656e-15 
 9.6786651337590315e-16  5.6162881679261436e-16  3.2344957461549040e-16  1.8486047198635403e-16 
 1.0483788270005490e-16  5.8990900440737459e-17  3.2930608775614783e-17  1.8235483350963485e-17 
 1.0015945672860638e-17  5.4560435658767770e-18  2.9473301679860463e-18  1.5786980166105310e-18 
 8.3838612169430441e-19  4.4138975174407325e-19  2.3035545042085733e-19  1.1916575954859640e-19 
 6.1106626315478629e-20  3.1065236751036874e-20  1.5663812070411226e-20  7.8414253682881579e-21 
 3.9059670223116874e-21  0.0000000000000000e+00  0.0000000000000000e+00  0.0000000000000000e+00 
 0.0000000000000000e+00  0.0000000000000000e+00  0.0000000000000000e+00  0.0000000000000000e+00 
 0.0000000000000000e+00  0.0000000000000000e+00  0.0000000000000000e+00  0.0000000000000000e+00 
 0.0000000000000000e+00  0.0000000000000000e+00  0.0000000000000000e+00  0.0000000000000000e+00 
 0.0000000000000000e+00  0.0000000000000000e+00  0.0000000000000000e+00  0.0000000000000000e+00 
 0.0000000000000000e+00  0.0000000000000000e+00  0.0000000000000000e+00  0.0000000000000000e+00 
 0.0000000000000000e+00  0.0000000000000000e+00  0.0000000000000000e+00  0.0000000000000000e+00 
 0.0000000000000000e+00  0.0000000000000000e+00  0.0000000000000000e+00  0.0000000000000000e+00 
 0.0000000000000000e+00  0.0000000000000000e+00  0.0000000000000000e+00  0.0000000000000000e+00 
 0.0000000000000000e+00  0.0000000000000000e+00  0.0000000000000000e+00  0.0000000000000000e+00 
 0.0000000000000000e+00  0.0000000000000000e+00  0.0000000000000000e+00  0.0000000000000000e+00 
 0.0000000000000000e+00  0.0000000000000000e+00  0.0000000000000000e+00  0.0000000000000000e+00 
 0.0000000000000000e+00  0.0000000000000000e+00  0.0000000000000000e+00  0.0000000000000000e+00 
 0.0000000000000000e+00  0.0000000000000000e+00  0.0000000000000000e+00  0.0000000000000000e+00 
 0.0000000000000000e+00  0.0000000000000000e+00  0.0000000000000000e+00  0.0000000000000000e+00 
 0.0000000000000000e+00  0.0000000000000000e+00  0.0000000000000000e+00  0.0000000000000000e+00 
 0.0000000000000000e+00  0.0000000000000000e+00  0.0000000000000000e+00  0.0000000000000000e+00 
 0.0000000000000000e+00  0.0000000000000000e+00  0.0000000000000000e+00  0.0000000000000000e+00 
 0.0000000000000000e+00  0.0000000000000000e+00  0.0000000000000000e+00  0.0000000000000000e+00 
 0.0000000000000000e+00  0.0000000000000000e+00  0.0000000000000000e+00  0.0000000000000000e+00 
 0.0000000000000000e+00  0.0000000000000000e+00  0.0000000000000000e+00  0.0000000000000000e+00 
 0.0000000000000000e+00  0.0000000000000000e+00  0.0000000000000000e+00  0.0000000000000000e+00 
 0.0000000000000000e+00 
</PP_RHOATOM>
