  <PP_INFO>

############################################################
#    Opium Parameter File                                  #
############################################################
#-----------------------------------------------------------
#Command line   : opium Hg Hg.log ae ps nl tc2 ke upf qmcpack rpt 
 
#Opium version  : 4.1 
#Compile Host   : py-garuda.cos.ncsu.edu 
#Compile OS     : Linux 5.15.0-113-generic x86_64 
#Compile Date   : Sat Jul 13 02:11:52 EDT 2024 
#-----------------------------------------------------------
#Execution Host : Gwaihir 
#Execution Date : Fri Apr 24 14:19:26 2026
 
#-----------------------------------------------------------
############################################################
[Atom]
Hg
15
100   2.00  -
200   2.00  -
210   6.00  -
300   2.00  -
310   6.00  -
320   10.00  -
400   2.00  -
410   6.00  -
420   10.00  -
430   14.00  -
500   2.00  -
510   6.00  -
520   9.50  -
600   1.00  -
610   0.50  -

[Pseudo]
3 -1 -1 -1
g

[Gaussinfo]
12 5 3
2 2 2 2 4   4 2 2
2 3.9402780 62.6534924  
2 1.6219532 38.0999013
2 2.7176799 55.8070418
2 1.0508824 17.0209069
2 7.0190220 69.6015582
2 2.0843420 -4.9507776
2 6.1957061 31.7261100
2 0.6235521 -0.3333534
1 3.0075250 12.0
3 2.9861954 36.09030000
2 2.2847162 -6.9653015
2 1.7923131 -14.9372952
2 0.99079801 -5.21882485
2 0.84933065 5.55840784
2 0.46601533 0.42168835
2 0.32983995 -0.10899530
2 0.85296812 -2.90123901
2 0.52663411 2.93849132
2 0.55866903 0.96479017
2 0.80649040 -1.73946395

[KBdesign]
s

[Relativity]
frl

[XC]
pbe

[Configs]
7

520  10.00 -
600  2.00 -
610  0.00 -

520  10.00 -
600  1.00 -
610  1.00 -

520  10.00 -
600  0.00 -
610  2.00 -

520  10.00 -
600  0.00 -
610  0.00 -

520  9.00 -
600  1.00 -
610  0.00 -

520  9.00 -
600  0.00 -
610  1.00 -

520  9.00 -
600  0.00 -
610  0.00 -
############################################################
  </PP_INFO>



<PP_HEADER>
   0         Version Number
   Hg        Element
   NC        Norm - Conserving pseudopotential
    F      Nonlinear Core Correction
SLA  PW   PBE  PBE     PBE  Exchange-Correlation functional
 12          Z valence
 0          Total energy
 0.000000   0.000000     Suggested cutoff for wfc and rho
 2           Max angular momentum component
 1189           Number of points in mesh
 5  4     Number of Wavefuncitons, Number of Projectors
 Wavefunctions         nl  l   occ
                      6S  0  1.000000
                      6P  1  0.166667
                      6P  1  0.333333
                      5D  2  3.800000
                      5D  2  5.700000
</PP_HEADER>
<PP_MESH>
  <PP_R>
 2.3207944168063882e-05  2.3511617039196853e-05  2.3819263429569367e-05  2.4130935332153635e-05 
 2.4446685420242996e-05  2.4766567056353879e-05  2.5090634301244082e-05  2.5418941923049337e-05 
 2.5751545406539130e-05  2.6088500962493793e-05  2.6429865537204270e-05  2.6775696822096180e-05 
 2.7126053263479772e-05  2.7480994072427518e-05  2.7840579234780956e-05  2.8204869521288315e-05 
 2.8573926497875099e-05  2.8947812536048725e-05  2.9326590823439543e-05  2.9710325374479640e-05 
 3.0099081041221478e-05  3.0492923524298006e-05  3.0891919384026239e-05  3.1296136051656167e-05 
 3.1705641840766627e-05  3.2120505958810673e-05  3.2540798518811671e-05  3.2966590551212589e-05 
 3.3397954015880338e-05  3.3834961814267135e-05  3.4277687801731026e-05  3.4726206800017621e-05 
 3.5180594609905183e-05  3.5640928024015006e-05  3.6107284839789747e-05  3.6579743872641236e-05 
 3.7058384969270536e-05  3.7543289021162176e-05  3.8034537978255065e-05  3.8532214862792153e-05 
 3.9036403783351451e-05  3.9547189949060583e-05  4.0064659683997222e-05  4.0588900441778213e-05 
 4.1120000820339374e-05  4.1658050576908757e-05  4.2203140643175826e-05  4.2755363140659144e-05 
 4.3314811396275139e-05  4.3881579958110584e-05  4.4455764611401321e-05  4.5037462394720396e-05 
 4.5626771616377706e-05  4.6223791871034302e-05  4.6828624056534211e-05  4.7441370390956325e-05 
 4.8062134429889558e-05  4.8691021083933975e-05  4.9328136636430915e-05  4.9973588761425204e-05 
 5.0627486541862092e-05  5.1289940488022879e-05  5.1961062556201158e-05  5.2640966167623795e-05 
 5.3329766227619348e-05  5.4027579145037364e-05  5.4734522851921760e-05  5.5450716823441648e-05 
 5.6176282098082719e-05  5.6911341298103350e-05  5.7656018650257850e-05  5.8410440006791153e-05 
 5.9174732866708095e-05  5.9949026397321108e-05  6.0733451456079744e-05  6.1528140612685948e-05 
 6.2333228171498623e-05  6.3148850194231408e-05  6.3975144522947425e-05  6.4812250803354812e-05 
 6.5660310508407389e-05  6.6519466962213774e-05  6.7389865364259540e-05  6.8271652813946276e-05 
 6.9164978335451691e-05  7.0069992902915210e-05  7.0986849465952618e-05  7.1915702975505340e-05 
 7.2856710410027254e-05  7.3810030802014476e-05  7.4775825264882244e-05  7.5754257020193492e-05 
 7.6745491425243609e-05  7.7749696001006290e-05  7.8767040460444931e-05  7.9797696737194572e-05 
 8.0841839014619100e-05  8.1899643755248432e-05  8.2971289730601465e-05  8.4056958051398668e-05 
 8.5156832198170261e-05  8.6271098052264836e-05  8.7399943927263794e-05  8.8543560600806874e-05 
 8.9702141346833654e-05  9.0875881968247810e-05  9.2064980830007997e-05  9.3269638892652017e-05 
 9.4490059746259655e-05  9.5726449644859891e-05  9.6979017541288335e-05  9.8247975122500673e-05 
 9.9533536845348433e-05  1.0083591997282247e-04  1.0215534461077128e-04  1.0349203374509879e-04 
 1.0484621327945030e-04  1.0621811207339015e-04  1.0760796198107980e-04  1.0901599789046160e-04 
 1.1044245776295552e-04  1.1188758267367520e-04  1.1335161685216992e-04  1.1483480772370046e-04 
 1.1633740595105426e-04  1.1785966547690806e-04  1.1940184356674485e-04  1.2096420085233240e-04 
 1.2254700137577046e-04  1.2415051263411475e-04  1.2577500562458446e-04  1.2742075489036137e-04 
 1.2908803856698860e-04  1.3077713842937557e-04  1.3248833993941933e-04  1.3422193229424795e-04 
 1.3597820847509545e-04  1.3775746529681653e-04  1.3956000345804887e-04  1.4138612759203206e-04 
 1.4323614631809084e-04  1.4511037229379326e-04  1.4700912226779005e-04  1.4893271713334604e-04 
 1.5088148198257184e-04  1.5285574616136520e-04  1.5485584332507131e-04  1.5688211149487123e-04 
 1.5893489311490840e-04  1.6101453511016241e-04  1.6312138894508034e-04  1.6525581068297456e-04 
 1.6741816104619899e-04  1.6960880547711165e-04  1.7182811419983533e-04  1.7407646228282644e-04 
 1.7635422970226203e-04  1.7866180140625743e-04  1.8099956737992285e-04  1.8336792271127195e-04 
 1.8576726765799268e-04  1.8819800771509166e-04  1.9066055368342397e-04  1.9315532173911932e-04 
 1.9568273350391692e-04  1.9824321611642054e-04  2.0083720230428589e-04  2.0346513045735258e-04 
 2.0612744470173330e-04  2.0882459497487206e-04  2.1155703710158411e-04  2.1432523287109252e-04 
 2.1712965011507095e-04  2.1997076278670860e-04  2.2284905104080869e-04  2.2576500131493699e-04 
 2.2871910641163008e-04  2.3171186558168018e-04  2.3474378460851053e-04  2.3781537589365244e-04 
 2.4092715854334403e-04  2.4407965845625934e-04  2.4727340841238714e-04  2.5050894816307110e-04 
 2.5378682452223015e-04  2.5710759145877065e-04  2.6047181019020867e-04  2.6388004927751705e-04 
 2.6733288472121324e-04  2.7083090005870542e-04  2.7437468646291133e-04  2.7796484284216781e-04 
 2.8160197594144775e-04  2.8528670044490173e-04  2.8901963907974085e-04  2.9280142272147911e-04 
 2.9663269050055318e-04  3.0051408991033622e-04  3.0444627691656671e-04  3.0842991606820771e-04 
 3.1246568060975735e-04  3.1655425259502848e-04  3.2069632300241798e-04  3.2489259185168308e-04 
 3.2914376832224692e-04  3.3345057087305141e-04  3.3781372736397793e-04  3.4223397517885824e-04 
 3.4671206135009378e-04  3.5124874268490589e-04  3.5584478589323760e-04  3.6050096771733024e-04 
 3.6521807506299434e-04  3.6999690513259836e-04  3.7483826555979844e-04  3.7974297454602929e-04 
 3.8471186099878348e-04  3.8974576467169786e-04  3.9484553630647450e-04  4.0001203777665744e-04 
 4.0524614223329188e-04  4.1054873425248883e-04  4.1592070998492015e-04  4.2136297730727064e-04 
 4.2687645597567049e-04  4.3246207778113754e-04  4.3812078670705113e-04  4.4385353908868832e-04 
 4.4966130377484563e-04  4.5554506229157833e-04  4.6150580900807952e-04  4.6754455130473165e-04 
 4.7366230974335566e-04  4.7986011823968825e-04  4.8613902423811690e-04  4.9250008888869967e-04 
 4.9894438722650268e-04  5.0547300835328268e-04  5.1208705562154908e-04  5.1878764682103222e-04 
 5.2557591436759284e-04  5.3245300549460337e-04  5.3942008244683200e-04  5.4647832267686600e-04 
 5.5362891904410375e-04  5.6087308001635057e-04  5.6821202987405203e-04  5.7564700891720192e-04 
 5.8317927367495430e-04  5.9081009711798086e-04  5.9854076887360590e-04  6.0637259544375516e-04 
 6.1430690042575979e-04  6.2234502473604628e-04  6.3048832683675483e-04  6.3873818296532174e-04 
 6.4709598736706841e-04  6.5556315253083113e-04  6.6414110942767540e-04  6.7283130775273327e-04 
 6.8163521617020466e-04  6.9055432256156656e-04  6.9959013427702747e-04  7.0874417839027367e-04 
 7.1801800195654718e-04  7.2741317227410372e-04  7.3693127714908832e-04  7.4657392516387882e-04 
 7.5634274594894055e-04  7.6623939045823621e-04  7.7626553124824315e-04  7.8642286276061810e-04 
 7.9671310160856249e-04  8.0713798686693255e-04  8.1769928036614975e-04  8.2839876698995207e-04 
 8.3923825497704497e-04  8.5021957622669758e-04  8.6134458660833710e-04  8.7261516627519672e-04 
 8.8403321998206544e-04  8.9560067740719596e-04  9.0731949347842432e-04  9.1919164870355873e-04 
 9.3121914950508881e-04  9.4340402855927713e-04  9.5574834513968525e-04  9.6825418546519506e-04 
 9.8092366305258709e-04  9.9375891907372811e-04  1.0067621227174356e-03  1.0199354715560731e-03 
 1.0332811919169485e-03  1.0468015392585673e-03  1.0604987985518095e-03  1.0743752846660974e-03 
 1.0884333427606102e-03  1.1026753486806265e-03  1.1171037093590437e-03  1.1317208632231580e-03 
 1.1465292806067616e-03  1.1615314641676383e-03  1.1767299493105168e-03  1.1921273046155596e-03 
 1.2077261322724615e-03  1.2235290685202219e-03  1.2395387840926798e-03  1.2557579846698714e-03 
 1.2721894113352978e-03  1.2888358410391737e-03  1.3057000870677405e-03  1.3227849995187130e-03 
 1.3400934657829605e-03  1.3576284110324772e-03  1.3753927987147456e-03  1.3933896310535645e-03 
 1.4116219495564338e-03  1.4300928355285747e-03  1.4488054105936793e-03  1.4677628372214728e-03 
 1.4869683192621727e-03  1.5064251024879565e-03  1.5261364751414982e-03  1.5461057684916912e-03 
 1.5663363573966405e-03  1.5868316608740221e-03  1.6075951426789044e-03  1.6286303118891309e-03 
 1.6499407234983662e-03  1.6715299790168894e-03  1.6934017270802703e-03  1.7155596640659871e-03 
 1.7380075347181289e-03  1.7607491327802645e-03  1.7837883016365932e-03  1.8071289349614870e-03 
 1.8307749773775310e-03  1.8547304251221753e-03  1.8789993267231010e-03  1.9035857836824433e-03 
 1.9284939511699461e-03  1.9537280387251993e-03  1.9792923109690583e-03  2.0051910883243781e-03 
 2.0314287477461741e-03  2.0580097234613355e-03  2.0849385077180262e-03  2.1122196515448747e-03 
 2.1398577655201219e-03  2.1678575205508100e-03  2.1962236486621819e-03  2.2249609437974024e-03 
 2.2540742626277468e-03  2.2835685253733903e-03  2.3134487166349359e-03  2.3437198862358267e-03 
 2.3743871500757690e-03  2.4054556909953459e-03  2.4369307596519177e-03  2.4688176754070019e-03 
 2.5011218272252547e-03  2.5338486745852202e-03  2.5670037484019958e-03  2.6005926519619684e-03 
 2.6346210618697873e-03  2.6690947290077130e-03  2.7040194795075441e-03  2.7394012157352403e-03 
 2.7752459172884357e-03  2.8115596420070065e-03  2.8483485269968608e-03  2.8856187896671220e-03 
 2.9233767287808890e-03  2.9616287255197419e-03  3.0003812445621681e-03  3.0396408351761233e-03 
 3.0794141323258620e-03  3.1197078577932672e-03  3.1605288213138460e-03  3.2018839217275914e-03 
 3.2437801481449021e-03  3.2862245811277600e-03  3.3292243938863640e-03  3.3727868534914073e-03 
 3.4169193221022507e-03  3.4616292582111269e-03  3.5069242179036537e-03  3.5528118561358258e-03 
 3.5992999280277196e-03  3.6463962901741322e-03  3.6941089019723607e-03  3.7424458269673623e-03 
 3.7914152342145013e-03  3.8410253996601579e-03  3.8912847075403684e-03  3.9422016517977870e-03 
 3.9937848375171817e-03  4.0460429823797103e-03  4.0989849181362354e-03  4.1526195920999053e-03 
 4.2069560686582809e-03  4.2620035308052178e-03  4.3177712816928424e-03  4.3742687462037860e-03 
 4.4315054725440209e-03  4.4894911338565274e-03  4.5482355298560786e-03  4.6077485884854167e-03 
 4.6680403675930949e-03  4.7291210566332894e-03  4.7910009783878162e-03  4.8536905907107363e-03 
 4.9172004882957390e-03  4.9815414044666780e-03  5.0467242129915209e-03  5.1127599299200521e-03 
 5.1796597154456026e-03  5.2474348757911545e-03  5.3160968651201224e-03  5.3856572874721158e-03 
 5.4561278987240776e-03  5.5275206085770362e-03  5.5998474825688770e-03  5.6731207441134517e-03 
 5.7473527765663579e-03  5.8225561253177583e-03  5.8987434999125858e-03  5.9759277761984829e-03 
 6.0541219985018385e-03  6.1333393818323373e-03  6.2135933141163066e-03  6.2948973584593159e-03 
 6.3772652554383675e-03  6.4607109254240973e-03  6.5452484709333418e-03  6.6308921790124969e-03 
 6.7176565236520772e-03  6.8055561682328191e-03  6.8946059680038765e-03  6.9848209725933558e-03 
 7.0762164285517511e-03  7.1688077819286530e-03  7.2626106808831564e-03  7.3576409783284464e-03 
 7.4539147346109683e-03  7.5514482202246862e-03  7.6502579185607931e-03  7.7503605286934896e-03 
 7.8517729682021434e-03  7.9545123760304016e-03  8.0585961153827202e-03  8.1640417766587758e-03 
 8.2708671804262966e-03  8.3790903804327709e-03  8.4887296666565949e-03  8.5998035683980713e-03 
 8.7123308574109729e-03  8.8263305510749672e-03  8.9418219156096133e-03  9.0588244693303992e-03 
 9.1773579859473799e-03  9.2974424979069860e-03  9.4190982997775508e-03  9.5423459516791511e-03 
 9.6672062827582832e-03  9.7937003947080898e-03  9.9218496653345530e-03  1.0051675752169423e-02 
 1.0183200596130367e-02  1.0316446425229064e-02  1.0451435758327760e-02  1.0588191408945045e-02 
 1.0726736489111370e-02  1.0867094413275016e-02  1.1009288902259242e-02  1.1153343987271122e-02 
 1.1299284013962890e-02  1.1447133646546403e-02  1.1596917871961470e-02  1.1748662004098687e-02 
 1.1902391688077546e-02  1.2058132904580545e-02  1.2215911974243930e-02  1.2375755562106015e-02 
 1.2537690682113592e-02  1.2701744701687362e-02  1.2867945346347099e-02  1.3036320704397322e-02 
 1.3206899231674294e-02  1.3379709756355117e-02  1.3554781483829778e-02  1.3732144001636887e-02 
 1.3911827284464103e-02  1.4093861699213889e-02  1.4278278010135596e-02  1.4465107384024697e-02 
 1.4654381395490057e-02  1.4846132032290096e-02  1.5040391700738825e-02  1.5237193231182580e-02 
 1.5436569883548384e-02  1.5638555352965038e-02  1.5843183775457619e-02  1.6050489733716557e-02 
 1.6260508262942217e-02  1.6473274856765897e-02  1.6688825473248355e-02  1.6907196540956813e-02 
 1.7128424965121469e-02  1.7352548133872527e-02  1.7579603924558949e-02  1.7809630710149783e-02 
 1.8042667365719276e-02  1.8278753275016869e-02  1.8517928337123138e-02  1.8760232973192844e-02 
 1.9005708133286191e-02  1.9254395303289498e-02  1.9506336511926372e-02  1.9761574337860729e-02 
 2.0020151916892645e-02  2.0282112949248414e-02  2.0547501706965992e-02  2.0816363041377094e-02 
 2.1088742390687143e-02  2.1364685787654467e-02  2.1644239867369942e-02  2.1927451875138372e-02 
 2.2214369674463153e-02  2.2505041755135267e-02  2.2799517241428178e-02  2.3097845900399944e-02 
 2.3400078150303986e-02  2.3706265069109882e-02  2.4016458403135658e-02  2.4330710575793078e-02 
 2.4649074696447237e-02  2.4971604569392274e-02  2.5298354702944375e-02  2.5629380318653805e-02 
 2.5964737360637490e-02  2.6304482505033710e-02  2.6648673169580493e-02  2.6997367523319354e-02 
 2.7350624496426029e-02  2.7708503790169710e-02  2.8071065887002849e-02  2.8438372060782740e-02 
 2.8810484387126984e-02  2.9187465753904390e-02  2.9569379871863193e-02  2.9956291285398333e-02 
 3.0348265383459576e-02  3.0745368410602457e-02  3.1147667478183656e-02  3.1555230575703128e-02 
 3.1968126582294393e-02  3.2386425278365299e-02  3.2810197357391074e-02  3.3239514437861696e-02 
 3.3674449075385575e-02  3.4115074774951640e-02  3.4561466003351880e-02  3.5013698201766294e-02 
 3.5471847798512784e-02  3.5935992221963656e-02  3.6406209913631186e-02  3.6882580341424415e-02 
 3.7365184013079457e-02  3.7854102489765458e-02  3.8349418399868655e-02  3.8851215452956792e-02 
 3.9359578453926097e-02  3.9874593317333715e-02  4.0396347081917354e-02  4.0924927925305055e-02 
 4.1460425178917418e-02  4.2002929343064842e-02  4.2552532102242274e-02  4.3109326340624129e-02 
 4.3673406157761961e-02  4.4244866884487345e-02  4.4823805099023270e-02  4.5410318643305921e-02 
 4.6004506639520243e-02  4.6606469506851822e-02  4.7216308978457966e-02  4.7834128118660849e-02 
 4.8460031340365639e-02  4.9094124422706553e-02  4.9736514528923630e-02  5.0387310224473812e-02 
 5.1046621495378607e-02  5.1714559766812010e-02  5.2391237921931663e-02  5.3076770320956333e-02 
 5.3771272820493099e-02  5.4474862793117362e-02  5.5187659147209148e-02  5.5909782347048728e-02 
 5.6641354433175660e-02  5.7382499043013693e-02  5.8133341431765906e-02  5.8894008493583047e-02 
 5.9664628783009058e-02  6.0445332536706975e-02  6.1236251695469333e-02  6.2037519926516481e-02 
 6.2849272646086460e-02  6.3671647042320978e-02  6.4504782098450328e-02  6.5348818616281945e-02 
 6.6203899239996214e-02  6.7070168480253725e-02  6.7947772738617893e-02  6.8836860332297162e-02 
 6.9737581519210973e-02  7.0650088523383711e-02  7.1574535560670963e-02  7.2511078864822276e-02 
 7.3459876713885250e-02  7.4421089456954373e-02  7.5394879541271095e-02  7.6381411539677410e-02 
 7.7380852178429077e-02  7.8393370365372819e-02  7.9419137218492114e-02  8.0458326094826546e-02 
 8.1511112619769621e-02  8.2577674716749774e-02  8.3658192637299900e-02  8.4752848991520330e-02 
 8.5861828778940288e-02  8.6985319419783352e-02  8.8123510786641851e-02  8.9276595236565753e-02 
 9.0444767643571580e-02  9.1628225431576477e-02  9.2827168607763494e-02  9.4041799796382705e-02 
 9.5272324272996103e-02  9.6518949999168963e-02  9.7781887657616140e-02  9.9061350687807789e-02 
 1.0035755532204130e-01  1.0167072062198490e-01  1.0300106851569976e-01  1.0434882383514629e-01 
 1.0571421435418130e-01  1.0709747082705216e-01  1.0849882702739518e-01  1.0991851978774350e-01 
 1.1135678903955266e-01  1.1281387785374945e-01  1.1429003248181147e-01  1.1578550239738424e-01 
 1.1730054033844306e-01  1.1883540235000553e-01  1.2039034782740490e-01  1.2196563956012776e-01 
 1.2356154377622633e-01  1.2517833018731148e-01  1.2681627203413484e-01  1.2847564613276694e-01 
 1.3015673292137997e-01  1.3185981650764231e-01  1.3358518471673358e-01  1.3533312913998763e-01 
 1.3710394518417229e-01  1.3889793212141371e-01  1.4071539313977416e-01  1.4255663539449148e-01 
 1.4442197005988908e-01  1.4631171238196503e-01  1.4822618173166985e-01  1.5016570165887971e-01 
 1.5213059994707881e-01  1.5412120866875451e-01  1.5613786424151860e-01  1.5818090748496275e-01 
 1.6025068367825773e-01  1.6234754261850642e-01  1.6447183867986054e-01  1.6662393087341043e-01 
 1.6880418290785898e-01  1.7101296325098927e-01  1.7325064519193639e-01  1.7551760690427420e-01 
 1.7781423150992776e-01  1.8014090714392153e-01  1.8249802701997542e-01  1.8488598949695864e-01 
 1.8730519814621374e-01  1.8975606181975968e-01  1.9223899471939096e-01  1.9475441646667724e-01 
 1.9730275217388071e-01  1.9988443251580124e-01  2.0249989380256120e-01  2.0514957805334313e-01 
 2.0783393307109194e-01  2.1055341251819457e-01  2.1330847599315034e-01  2.1609958910824370e-01 
 2.1892722356823432e-01  2.2179185725007594e-01  2.2469397428367888e-01  2.2763406513372914e-01 
 2.3061262668257815e-01  2.3363016231421682e-01  2.3668718199934946e-01  2.3978420238157794e-01 
 2.4292174686471851e-01  2.4610034570125644e-01  2.4932053608196053e-01  2.5258286222666948e-01 
 2.5588787547626635e-01  2.5923613438585663e-01  2.6262820481916521e-01  2.6606466004416879e-01 
 2.6954608082997938e-01  2.7307305554499606e-01  2.7664618025634014e-01  2.8026605883059214e-01 
 2.8393330303584685e-01  2.8764853264510337e-01  2.9141237554100829e-01  2.9522546782196923e-01 
 2.9908845390965783e-01  3.0300198665791606e-01  3.0696672746309350e-01  3.1098334637582276e-01 
 3.1505252221425994e-01  3.1917494267880681e-01  3.2335130446833371e-01  3.2758231339792310e-01 
 3.3186868451815432e-01  3.3621114223594867e-01  3.4061042043699591e-01  3.4506726260978282e-01 
 3.4958242197124423e-01  3.5415666159405879e-01  3.5879075453560982e-01  3.6348548396863406e-01 
 3.6824164331357967e-01  3.7306003637269597e-01  3.7794147746587892e-01  3.8288679156829020e-01 
 3.8789681444978413e-01  3.9297239281615204e-01  3.9811438445221814e-01  4.0332365836680745e-01 
 4.0860109493961005e-01  4.1394758606996762e-01  4.1936403532760630e-01  4.2485135810534230e-01 
 4.3041048177378538e-01  4.3604234583806695e-01  4.4174790209661802e-01  4.4752811480202614e-01 
 4.5338396082399612e-01  4.5931642981444298e-01  4.6532652437474598e-01  4.7141526022519048e-01 
 4.7758366637662786e-01  4.8383278530437729e-01  4.9016367312441200e-01  4.9657739977184179e-01 
 5.0307504918173529e-01  5.0965771947230765e-01  5.1632652313050564e-01  5.2308258720001954e-01 
 5.2992705347175761e-01  5.3686107867680999e-01  5.4388583468194007e-01  5.5100250868763223e-01 
 5.5821230342873196e-01  5.6551643737771040e-01  5.7291614495058962e-01  5.8041267671556118e-01 
 5.8800729960433595e-01  5.9570129712625830e-01  6.0349596958522267e-01  6.1139263429942470e-01 
 6.1939262582399679e-01  6.2749729617654770e-01  6.3570801506565666e-01  6.4402617012235830e-01 
 6.5245316713465518e-01  6.6099043028509941e-01  6.6963940239148312e-01  6.7840154515067741e-01 
 6.8727833938566352e-01  6.9627128529579474e-01  7.0538190271033407e-01  7.1461173134530853e-01 
 7.2396233106372532e-01  7.3343528213919229e-01  7.4303218552298778e-01  7.5275466311462513e-01 
 7.6260435803595916e-01  7.7258293490887198e-01  7.8269208013660663e-01  7.9293350218876713e-01 
 8.0330893189005592e-01  8.1382012271278725e-01  8.2446885107322765e-01  8.3525691663181489e-01 
 8.4618614259730529e-01  8.5725837603489963e-01  8.6847548817840159e-01  8.7983937474646134e-01 
 8.9135195626295616e-01  9.0301517838156331e-01  9.1483101221458030e-01  9.2680145466604791e-01 
 9.3892852876923139e-01  9.5121428402851738e-01  9.6366079676578786e-01  9.7627017047131626e-01 
 9.8904453615927168e-01  1.0019860527278595e+00  1.0150969073241822e+00  1.0283793157138716e+00 
 1.0418355226555587e+00  1.0554678022802439e+00  1.0692784584756301e+00  1.0832698252754849e+00 
 1.0974442672540980e+00  1.1118041799259009e+00  1.1263519901503125e+00  1.1410901565418865e+00 
 1.1560211698858207e+00  1.1711475535589080e+00  1.1864718639559910e+00  1.2019966909220008e+00 
 1.2177246581896468e+00  1.2336584238228270e+00  1.2498006806658597e+00  1.2661541567985717e+00 
 1.2827216159973518e+00  1.2995058582022372e+00  1.3165097199901081e+00  1.3337360750540781e+00 
 1.3511878346891533e+00  1.3688679482842483e+00  1.3867794038206416e+00  1.4049252283769498e+00 
 1.4233084886407117e+00  1.4419322914266657e+00  1.4607997842018092e+00  1.4799141556173274e+00 
 1.4992786360474839e+00  1.5188964981355608e+00  1.5387710573469460e+00  1.5589056725294437e+00 
 1.5793037464809454e+00  1.5999687265244982e+00  1.6209041050909139e+00  1.6421134203089984e+00 
 1.6636002566035040e+00  1.6853682453009053e+00  1.7074210652431017e+00  1.7297624434091514e+00 
 1.7523961555451397e+00  1.7753260268022870e+00  1.7985559323834117e+00  1.8220897981978463e+00 
 1.8459316015249265e+00  1.8700853716861601e+00  1.8945551907261926e+00  1.9193451941026827e+00 
 1.9444595713852066e+00  1.9699025669632930e+00  1.9956784807637553e+00  2.0217916689773743e+00 
 2.0482465447951101e+00  2.0750475791539413e+00  2.1021993014924636e+00  2.1297063005163759e+00 
 2.1575732249739823e+00  2.1858047844418422e+00  2.2144057501207000e+00  2.2433809556418276e+00 
 2.2727352978839224e+00  2.3024737378006899e+00  2.3326013012592557e+00  2.3631230798895513e+00 
 2.3940442319448092e+00  2.4253699831733231e+00  2.4571056277016128e+00  2.4892565289291286e+00 
 2.5218281204347051e+00  2.5548259068948296e+00  2.5882554650139524e+00  2.6221224444669611e+00 
 2.6564325688539894e+00  2.6911916366677207e+00  2.7264055222733452e+00  2.7620801769013430e+00 
 2.7982216296532547e+00  2.8348359885206165e+00  2.8719294414172216e+00  2.9095082572248971e+00 
 2.9475787868529535e+00  2.9861474643115118e+00  3.0252208077988580e+00  3.0648054208030402e+00 
 3.1049079932178776e+00  3.1455353024735446e+00  3.1866942146820074e+00  3.2283916857973920e+00 
 3.2706347627915617e+00  3.3134305848450700e+00  3.3567863845537018e+00  3.4007094891508003e+00 
 3.4452073217455825e+00  3.4902874025776662e+00  3.5359573502880073e+00  3.5822248832064680e+00 
 3.6290978206562321e+00  3.6765840842752917e+00  3.7246916993552182e+00  3.7734287961974631e+00 
 3.8228036114873909e+00  3.8728244896863027e+00  3.9234998844416751e+00  3.9748383600158208e+00 
 4.0268485927333089e+00  4.0795393724472575e+00  4.1329196040248481e+00  4.1869983088522691e+00 
 4.2417846263593457e+00  4.2972878155641343e+00  4.3535172566377147e+00  4.4104824524894592e+00 
 4.4681930303730493e+00  4.5266587435135035e+00  4.5858894727554977e+00  4.6458952282332486e+00 
 4.7066861510622502e+00  4.7682725150531500e+00  4.8306647284480437e+00  4.8938733356794941e+00 
 4.9579090191525754e+00  5.0227826010501877e+00  5.0885050451620861e+00  5.1550874587377518e+00 
 5.2225410943635504e+00  5.2908773518644487e+00  5.3601077802306127e+00  5.4302440795692117e+00 
 5.5012981030817629e+00  5.5732818590673565e+00  5.6462075129520830e+00  5.7200873893450188e+00 
 5.7949339741211148e+00  5.8707599165313402e+00  5.9475780313404369e+00  6.0254013009926410e+00 
 6.1042428778057509e+00  6.1841160861938977e+00  6.2650344249194179e+00  6.3470115693741258e+00 
 6.4300613738905597e+00  6.5141978740833490e+00  6.5994352892212804e+00  6.6857880246303836e+00 
 6.7732706741284714e+00  6.8618980224915278e+00  6.9516850479523651e+00  7.0426469247319901e+00 
 7.1347990256040745e+00  7.2281569244929997e+00  7.3227363991058754e+00  7.4185534335990209e+00 
 7.5156242212793218e+00  7.6139651673409290e+00  7.7135928916377923e+00  7.8145242314924372e+00 
 7.9167762445415448e+00  8.0203662116186578e+00  8.1253116396747824e+00  8.2316302647370385e+00 
 8.3393400549061134e+00  8.4484592133929031e+00  8.5590061815949063e+00  8.6709996422128608e+00 
 8.7844585224081690e+00  8.8994019970016218e+00  9.0158494917140093e+00  9.1338206864490878e+00 
 9.2533355186195543e+00  9.3744141865165016e+00  9.4970771527229836e+00  9.6213451475722369e+00 
 9.7472391726511614e+00  9.8747805043496371e+00  1.0003990697456299e+01  1.0134891588801278e+01 
 1.0267505300946786e+01  1.0401854245925811e+01  1.0537961129029817e+01  1.0675848952645996e+01 
 1.0815541020144725e+01  1.0957060939817893e+01  1.1100432628868756e+01  1.1245680317453999e+01 
 1.1392828552778701e+01  1.1541902203244856e+01  1.1692926462654203e+01  1.1845926854466033e+01 
 1.2000929236110721e+01  1.2157959803359685e+01  1.2317045094752537e+01  1.2478211996082161e+01 
 1.2641487744938496e+01  1.2806899935311668e+01  1.2974476522255568e+01  1.3144245826612240e+01 
 1.3316236539798183e+01  1.3490477728653286e+01  1.3666998840353173e+01  1.3845829707385857e+01 
 1.4027000552593506e+01  1.4210541994280160e+01  1.4396485051386312e+01  1.4584861148731175e+01 
 1.4775702122323557e+01  1.4969040224742210e+01  1.5164908130586607e+01  1.5363338941999023e+01 
 1.5564366194258870e+01  1.5768023861450271e+01  1.5974346362203653e+01  1.6183368565512733e+01 
 1.6395125796627372e+01  1.6609653843023626e+01  1.6826988960451935e+01  1.7047167879064418e+01 
 1.7270227809622373e+01  1.7496206449784967e+01  1.7725141990480239e+01  1.7957073122359454e+01 
 1.8192039042335921e+01  1.8430079460209353e+01  1.8671234605376934e+01  1.8915545233632169e+01 
 1.9163052634052715e+01  1.9413798635978331e+01  1.9667825616080151e+01  1.9925176505522451e+01 
 2.0185894797217994e+01  2.0450024553178654e+01  2.0717610411961836e+01  2.0988697596214553e+01 
 2.1263331920316165e+01  2.1541559798121096e+01  2.1823428250802905e+01  2.2108984914800971e+01 
 2.2398278049871159e+01  2.2691356547241845e+01  2.2988269937876645e+01  2.3289068400845245e+01 
 2.3593802771803826e+01  2.3902524551586374e+01  2.4215285914908460e+01  2.4532139719184890e+01 
 2.4853139513462729e+01  2.5178339547471261e+01  2.5507794780790157e+01  2.5841560892138027e+01 
 2.6179694288782080e+01  2.6522252116071144e+01  2.6869292267093350e+01  2.7220873392460213e+01 
 2.7577054910218710e+01  2.7937897015893093e+01  2.8303460692658057e+01  2.8673807721645055e+01 
 2.9049000692383451e+01  2.9429103013378288e+01  2.9814178922826507e+01  3.0204293499473305e+01 
 3.0599512673610654e+01  3.0999903238219645e+01  3.1405532860258667e+01  3.1816470092099330e+01 
 3.2232784383111785e+01  3.2654546091402125e+01  3.3081826495702892e+01  3.3514697807419381e+01 
 3.3953233182833550e+01  3.4397506735467594e+01  3.4847593548609325e+01  3.5303569688001417e+01 
 3.5765512214696692e+01  3.6233499198081624e+01  3.6707609729070278e+01  3.7187923933470799e+01 
 3.7674522985526934e+01  3.8167489121636628e+01  3.8666905654250193e+01  3.9172856985950311e+01 
 3.9685428623716241e+01  4.0204707193374809e+01  4.0730780454240076e+01  4.1263737313945313e+01 
 4.1803667843468290e+01  4.2350663292353588e+01  4.2904816104133971e+01  4.3466219931953567e+01 
 4.4034969654395461e+01  4.4611161391516447e+01  4.5194892521091475e+01  4.5786261695070785e+01 
 4.6385368856252292e+01  4.6992315255172166e+01  4.7607203467216429e+01  4.8230137409956399e+01 
 4.8861222360711039e+01  4.9500564974339078e+01  5.0148273301263920e+01  5.0804456805734503e+01 
 5.1469226384324692e+01  5.2142694384675551e+01  5.2824974624482103e+01  5.3516182410728732e+01 
 5.4216434559176456e+01  5.4925849414105052e+01  5.5644546868313469e+01  5.6372648383382021e+01 
 5.7110277010199731e+01  5.7857557409760147e+01  5.8614615874229386e+01  5.9381580348289845e+01 
 6.0158580450763068e+01  6.0945747496515693e+01  6.1743214518652017e+01  6.2551116290996823e+01 
 6.3369589350872502e+01  6.4198772022174353e+01  6.5038804438747121e+01  6.5889828568068694e+01 
 6.6751988235242422e+01  6.7625429147304118e+01  6.8510298917846754e+01  6.9406747091967645e+01 
 7.0314925171541859e+01  7.1234986640826378e+01  7.2167086992399362e+01  7.3111383753438716e+01 
 7.4068036512344548e+01  7.5037206945710082e+01  7.6019058845645233e+01  7.7013758147458020e+01 
 7.8021472957697924e+01  7.9042373582566341e+01  8.0076632556698684e+01  8.1124424672323400e+01 
 8.2185927008801571e+01  8.3261318962554697e+01  8.4350782277382478e+01  8.5454501075178158e+01 
 8.6572661887045527e+01  8.7705453684823112e+01  8.8853067913020908e+01  9.0015698521174883e+01 
 9.1193541996625015e+01  9.2386797397722034e+01  9.3595666387468782e+01  9.4820353267601746e+01 
 9.6061065013118551e+01  9.7318011307257194e+01  9.8591404576933058e+01  9.9881460028639509e+01 
 1.0118839568481832e+02  1.0251243242070623e+02  1.0385379400166255e+02  1.0521270712098723e+02 
 1.0658940143823179e+02  1.0798410961801251e+02  1.0939706736933128e+02  1.1082851348541108e+02 
 1.1227868988405248e+02  1.1374784164851845e+02  1.1523621706895388e+02  1.1674406768434730e+02 
 1.1827164832504157e+02 
  </PP_R>
  <PP_RAB>
 3.0170327418483045e-07  3.0565102150955907e-07  3.0965042458440178e-07  3.1370215931799724e-07 
 3.1780691046315891e-07  3.2196537173260039e-07  3.2617824591617308e-07  3.3044624499964137e-07 
 3.3477009028500867e-07  3.3915051251241927e-07  3.4358825198365547e-07  3.4808405868725033e-07 
 3.5263869242523704e-07  3.5725292294155771e-07  3.6192753005215240e-07  3.6666330377674805e-07 
 3.7146104447237629e-07  3.7632156296863339e-07  3.8124568070471405e-07  3.8623422986823532e-07 
 3.9128805353587919e-07  3.9640800581587405e-07  4.0159495199234108e-07  4.0684976867153018e-07 
 4.1217334392996612e-07  4.1756657746453873e-07  4.2303038074455170e-07  4.2856567716576363e-07 
 4.3417340220644436e-07  4.3985450358547271e-07  4.4560994142250335e-07  4.5144068840022903e-07 
 4.5734772992876736e-07  4.6333206431219504e-07  4.6939470291726670e-07  4.7553667034433602e-07 
 4.8175900460051696e-07  4.8806275727510829e-07  4.9444899371731582e-07  5.0091879321629794e-07 
 5.0747324918356883e-07  5.1411346933778755e-07  5.2084057589196388e-07  5.2765570574311671e-07 
 5.3456001066441182e-07  5.4155465749981379e-07  5.4864082836128571e-07  5.5581972082856890e-07 
 5.6309254815157678e-07  5.7046053945543753e-07  5.7792493994821712e-07  5.8548701113136512e-07 
 5.9314803101291010e-07  6.0090929432344586e-07  6.0877211273494471e-07  6.1673781508243220e-07 
 6.2480774758856421e-07  6.3298327409114160e-07  6.4126577627360186e-07  6.4965665389852756e-07 
 6.5815732504420718e-07  6.6676922634429738e-07  6.7549381323061503e-07  6.8433256017910926e-07 
 6.9328696095905149e-07  7.0235852888548565e-07  7.1154879707498282e-07  7.2085931870474134e-07 
 7.3029166727507529e-07  7.3984743687534356e-07  7.4952824245335198e-07  7.5933572008828493e-07 
 7.6927152726720516e-07  7.7933734316517432e-07  7.8953486892903662e-07  7.9986582796491725e-07 
 8.1033196622948210e-07  8.2093505252500832e-07  8.3167687879831648e-07  8.4255926044361255e-07 
 8.5358403660929597e-07  8.6475307050877900e-07  8.7606824973537398e-07  8.8753148658130150e-07 
 8.9914471836087193e-07  9.1090990773789770e-07  9.2282904305738403e-07  9.3490413868156942e-07 
 9.4713723533035426e-07  9.5953040042618805e-07  9.7208572844346906e-07  9.8480534126251529e-07 
 9.9769138852816685e-07  1.0107460480130817e-06  1.0239715259857841e-06  1.0373700575835294e-06 
 1.0509439071900483e-06  1.0646953688182295e-06  1.0786267664978191e-06  1.0927404546681827e-06 
 1.1070388185762134e-06  1.1215242746794428e-06  1.1361992710544293e-06  1.1510662878104893e-06 
 1.1661278375088375e-06  1.1813864655872214e-06  1.1968447507901039e-06  1.2125053056044761e-06 
 1.2283707767013755e-06  1.2444438453831785e-06  1.2607272280367483e-06  1.2772236765925086e-06 
 1.2939359789895296e-06  1.3108669596466920e-06  1.3280194799400264e-06  1.3453964386862842e-06 
 1.3630007726328538e-06  1.3808354569540719e-06  1.3989035057540374e-06  1.4172079725760007e-06 
 1.4357519509184218e-06  1.4545385747577774e-06  1.4735710190782089e-06  1.4928525004081060e-06 
 1.5123862773637054e-06  1.5321756511998047e-06  1.5522239663676829e-06  1.5725346110803210e-06 
 1.5931110178850159e-06  1.6139566642434915e-06  1.6350750731195980e-06  1.6564698135746977e-06 
 1.6781445013708518e-06  1.7001027995818823e-06  1.7223484192124511e-06  1.7448851198252233e-06 
 1.7677167101762407e-06  1.7908470488586147e-06  1.8142800449546351e-06  1.8380196586964167e-06 
 1.8620699021351810e-06  1.8864348398193122e-06  1.9111185894812708e-06  1.9361253227334985e-06 
 1.9614592657734340e-06  1.9871247000977474e-06  2.0131259632259271e-06  2.0394674494333261e-06 
 2.0661536104938091e-06  2.0931889564321112e-06  2.1205780562860444e-06  2.1483255388786691e-06 
 2.1764360936005866e-06  2.2049144712024514e-06  2.2337654845978594e-06  2.2629940096767437e-06 
 2.2926049861294063e-06  2.3226034182813466e-06  2.3529943759389968e-06  2.3837829952465355e-06 
 2.4149744795539045e-06  2.4465741002961914e-06  2.4785871978845115e-06  2.5110191826085509e-06 
 2.5438755355509197e-06  2.5771618095134671e-06  2.6108836299557162e-06  2.6450466959455833e-06 
 2.6796567811225328e-06  2.7147197346733364e-06  2.7502414823205934e-06  2.7862280273242025e-06 
 2.8226854514959221e-06  2.8596199162272119e-06  2.8970376635305127e-06  2.9349450170941805e-06 
 2.9733483833511907e-06  3.0122542525618420e-06  3.0516691999106368e-06  3.0915998866174815e-06 
 3.1320530610634723e-06  3.1730355599313715e-06  3.2145543093610328e-06  3.2566163261199242e-06 
 3.2992287187889920e-06  3.3423986889640182e-06  3.3861335324727127e-06  3.4304406406077214e-06 
 3.4753275013757719e-06  3.5208017007631704e-06  3.5668709240178471e-06  3.6135429569481816e-06 
 3.6608256872388204e-06  3.7087271057837224e-06  3.7572553080366309e-06  3.8064184953792280e-06 
 3.8562249765071910e-06  3.9066831688343708e-06  3.9578015999153673e-06  4.0095889088867000e-06 
 4.0620538479268451e-06  4.1152052837353701e-06  4.1690521990314338e-06  4.2236036940718798e-06 
 4.2788689881892098e-06  4.3348574213496681e-06  4.3915784557317127e-06  4.4490416773251569e-06 
 4.5072567975512193e-06  4.5662336549037764e-06  4.6259822166120890e-06  4.6865125803252931e-06 
 4.7478349758189259e-06  4.8099597667237783e-06  4.8728974522773796e-06  4.9366586690983808e-06 
 5.0012541929841851e-06  5.0666949407320719e-06  5.1329919719841680e-06  5.2001564910965470e-06 
 5.2681998490327942e-06  5.3371335452823543e-06  5.4069692298039615e-06  5.4777187049945185e-06 
 5.5493939276837160e-06  5.6220070111547875e-06  5.6955702271916648e-06  5.7700960081529478e-06 
 5.8455969490729925e-06  5.9220858097905182e-06  5.9995755171050331e-06  6.0780791669615115e-06 
 6.1576100266636231e-06  6.2381815371159470e-06  6.3198073150955195e-06  6.4025011555530957e-06 
 6.4862770339445341e-06  6.5711491085926744e-06  6.6571317230801380e-06  6.7442394086734187e-06 
 6.8324868867787065e-06  6.9218890714298434e-06  7.0124610718088158e-06  7.1042181947992580e-06 
 7.1971759475733485e-06  7.2913500402125572e-06  7.3867563883626757e-06  7.4834111159236250e-06 
 7.5813305577744053e-06  7.6805312625337507e-06  7.7810299953568764e-06  7.8828437407688162e-06 
 7.9859897055348764e-06  8.0904853215686017e-06  8.1963482488778119e-06  8.3035963785491821e-06 
 8.4122478357718889e-06  8.5223209829008041e-06  8.6338344225597803e-06  8.7468070007855314e-06 
 8.8612578102126606e-06  8.9772061933003648e-06  9.0946717456013568e-06  9.2136743190735573e-06 
 9.3342340254351128e-06  9.4563712395633474e-06  9.5801066029381483e-06  9.7054610271304234e-06 
 9.8324556973362263e-06  9.9611120759570711e-06  1.0091451906227161e-05  1.0223497215888035e-05 
 1.0357270320911312e-05  1.0492793829270122e-05  1.0630090644759946e-05  1.0769183970869376e-05 
 1.0910097314701584e-05  1.1052854490947069e-05  1.1197479625908381e-05  1.1343997161577557e-05 
 1.1492431859766849e-05  1.1642808806293547e-05  1.1795153415219515e-05  1.1949491433146263e-05 
 1.2105848943566155e-05  1.2264252371270601e-05  1.2424728486815908e-05  1.2587304411047535e-05 
 1.2752007619683631e-05  1.2918865947958465e-05  1.3087907595326663e-05  1.3259161130228949e-05 
 1.3432655494920331e-05  1.3608420010361374e-05  1.3786484381173522e-05  1.3966878700659266e-05 
 1.4149633455887933e-05  1.4334779532848144e-05  1.4522348221667566e-05  1.4712371221901054e-05 
 1.4904880647887901e-05  1.5099909034179298e-05  1.5297489341036719e-05  1.5497654960002273e-05 
 1.5700439719542000e-05  1.5905877890762883e-05  1.6114004193204837e-05  1.6324853800708327e-05 
 1.6538462347358871e-05  1.6754865933509257e-05  1.6974101131880624e-05  1.7196204993743269e-05 
 1.7421215055178487e-05  1.7649169343422203e-05  1.7880106383291694e-05  1.8114065203696337e-05 
 1.8351085344233638e-05  1.8591206861871469e-05  1.8834470337717832e-05  1.9080916883879144e-05 
 1.9330588150408245e-05  1.9583526332343434e-05  1.9839774176839475e-05  2.0099374990391984e-05 
 2.0362372646156326e-05  2.0628811591362288e-05  2.0898736854825754e-05  2.1172194054558701e-05 
 2.1449229405478759e-05  2.1729889727219561e-05  2.2014222452043514e-05  2.2302275632857831e-05 
 2.2594097951335676e-05  2.2889738726143435e-05  2.3189247921275710e-05  2.3492676154499329e-05 
 2.3800074705907902e-05  2.4111495526588278e-05  2.4426991247400310e-05  2.4746615187871761e-05 
 2.5070421365209298e-05  2.5398464503427590e-05  2.5730800042597759e-05  2.6067484148216915e-05 
 2.6408573720700263e-05  2.6754126404997362e-05  2.7104200600334341e-05  2.7458855470083369e-05 
 2.7818150951761582e-05  2.8182147767160530e-05  2.8550907432608363e-05  2.8924492269366230e-05 
 2.9302965414160708e-05  2.9686390829854072e-05  3.0074833316254166e-05  3.0468358521065744e-05 
 3.0867032950984993e-05  3.1270923982939494e-05  3.1680099875474930e-05  3.2094629780291022e-05 
 3.2514583753928308e-05  3.2940032769607862e-05  3.3371048729225946e-05  3.3807704475505590e-05 
 3.4250073804307235e-05  3.4698231477100270e-05  3.5152253233598070e-05  3.5612215804558120e-05 
 3.6078196924749662e-05  3.6550275346091082e-05  3.7028530850959191e-05  3.7513044265672587e-05 
 3.8003897474151557e-05  3.8501173431756643e-05  3.9004956179308184e-05  3.9515330857289601e-05 
 4.0032383720236201e-05  4.0556202151312470e-05  4.1086874677079998e-05  4.1624490982458683e-05 
 4.2169141925883727e-05  4.2720919554660875e-05  4.3279917120522731e-05  4.3846229095388297e-05 
 4.4419951187329255e-05  4.5001180356744647e-05  4.5590014832747493e-05  4.6186554129765736e-05 
 4.6790899064360352e-05  4.7403151772263716e-05  4.8023415725640684e-05  4.8651795750575709e-05 
 4.9288398044788516e-05  4.9933330195582049e-05  5.0586701198024788e-05  5.1248621473371227e-05 
 5.1919202887723361e-05  5.2598558770936232e-05  5.3286803935771061e-05  5.3984054697298764e-05 
 5.4690428892557652e-05  5.5406045900467832e-05  5.6131026662006948e-05  5.6865493700649215e-05 
 5.7609571143072266e-05  5.8363384740134856e-05  5.9127061888129019e-05  5.9900731650310411e-05 
 6.0684524778710230e-05  6.1478573736232754e-05  6.2283012719041613e-05  6.3097977679239564e-05 
 6.3923606347844605e-05  6.4760038258066809e-05  6.5607414768889763e-05  6.6465879088960678e-05 
 6.7335576300792832e-05  6.8216653385285003e-05  6.9109259246561588e-05  7.0013544737137500e-05 
 7.0929662683413011e-05  7.1857767911501463e-05  7.2798017273395405e-05  7.3750569673474873e-05 
 7.4715586095362650e-05  7.5693229629130850e-05  7.6683665498863615e-05  7.7687061090580270e-05 
 7.8703585980523892e-05  7.9733411963820374e-05  8.0776713083511984e-05  8.1833665659971101e-05 
 8.2904448320698780e-05  8.3989242030513265e-05  8.5088230122133435e-05  8.6201598327162457e-05 
 8.7329534807476994e-05  8.8472230187026642e-05  8.9629877584050397e-05  9.0802672643713626e-05 
 9.1990813571172757e-05  9.3194501165072484e-05  9.4413938851481034e-05  9.5649332718269797e-05 
 9.6900891549942580e-05  9.8168826862920919e-05  9.9453352941290300e-05  1.0075468687301537e-04 
 1.0207304858662785e-04  1.0340866088839522e-04  1.0476174949997536e-04  1.0613254309656408e-04 
 1.0752127334554186e-04  1.0892817494562602e-04  1.1035348566653573e-04  1.1179744638917492e-04 
 1.1326030114634264e-04  1.1474229716397457e-04  1.1624368490292496e-04  1.1776471810129519e-04 
 1.1930565381731593e-04  1.2086675247279081e-04  1.2244827789710815e-04  1.2405049737182895e-04 
 1.2567368167585766e-04  1.2731810513120516e-04  1.2898404564934919e-04  1.3067178477820250e-04 
 1.3238160774969477e-04  1.3411380352797782e-04  1.3586866485826087e-04  1.3764648831628558e-04 
 1.3944757435844780e-04  1.4127222737257521e-04  1.4312075572937014e-04  1.4499347183452458e-04 
 1.4689069218151756e-04  1.4881273740510324e-04  1.5075993233549910e-04  1.5273260605328293e-04 
 1.5473109194500811e-04  1.5675572775954708e-04  1.5880685566517107e-04  1.6088482230737820e-04 
 1.6298997886747668e-04  1.6512268112193570e-04  1.6728328950251227e-04  1.6947216915716518e-04 
 1.7168969001176581e-04  1.7393622683261652e-04  1.7621215928978712e-04  1.7851787202127951e-04 
 1.8085375469803334e-04  1.8322020208978056e-04  1.8561761413176273e-04  1.8804639599232106e-04 
 1.9050695814137072e-04  1.9299971641977123e-04  1.9552509210960472e-04  1.9808351200537353e-04 
 2.0067540848612899e-04  2.0330121958854548e-04  2.0596138908094902e-04  2.0865636653831523e-04 
 2.1138660741824879e-04  2.1415257313795667e-04  2.1695473115222860e-04  2.1979355503243858e-04 
 2.2266952454657907e-04  2.2558312574034285e-04  2.2853485101926633e-04  2.3152519923194716e-04 
 2.3455467575435058e-04  2.3762379257521928e-04  2.4073306838260077e-04  2.4388302865150697e-04 
 2.4707420573272048e-04  2.5030713894276345e-04  2.5358237465504280e-04  2.5690046639218947e-04 
 2.6026197491960438e-04  2.6366746834022937e-04  2.6711752219055787e-04  2.7061271953790218e-04 
 2.7415365107893286e-04  2.7774091523950805e-04  2.8137511827580923e-04  2.8505687437679883e-04 
 2.8878680576802096e-04  2.9256554281675845e-04  2.9639372413856632e-04  3.0027199670519929e-04 
 3.0420101595395179e-04  3.0818144589842846e-04  3.1221395924076352e-04  3.1629923748530998e-04 
 3.2043797105381404e-04  3.2463085940209957e-04  3.2887861113827687e-04  3.3318194414249947e-04 
 3.3754158568828738e-04  3.4195827256543822e-04  3.4643275120454641e-04  3.5096577780315160e-04 
 3.5555811845353839e-04  3.6021054927220619e-04  3.6492385653103703e-04  3.6969883679017563e-04 
 3.7453629703265077e-04  3.7943705480075702e-04  3.8440193833422150e-04  3.8943178671017832e-04 
 3.9452744998497445e-04  3.9968978933783191e-04  4.0491967721638752e-04  4.1021799748414063e-04 
 4.1558564556982709e-04  4.2102352861874890e-04  4.2653256564608393e-04  4.3211368769220204e-04 
 4.3776783798001246e-04  4.4349597207437132e-04  4.4929905804357440e-04  4.5517807662296181e-04 
 4.6113402138066615e-04  4.6716789888552753e-04  4.7328072887720541e-04  4.7947354443851739e-04 
 4.8574739217003291e-04  4.9210333236695094e-04  4.9854243919829247e-04  5.0506580088843821e-04 
 5.1167451990103926e-04  5.1836971312533826e-04  5.2515251206492559e-04  5.3202406302896570e-04 
 5.3898552732592638e-04  5.4603808145984288e-04  5.5318291732914953e-04  5.6042124242811368e-04 
 5.6775428005090549e-04  5.7518326949833548e-04  5.8270946628730244e-04  5.9033414236297696e-04 
 5.9805858631376311e-04  6.0588410358907363e-04  6.1381201671995348e-04  6.2184366554259105e-04 
 6.2998040742475326e-04  6.3822361749518513e-04  6.4657468887600715e-04  6.5503503291815951e-04 
 6.6360607943992183e-04  6.7228927696855612e-04  6.8108609298511160e-04  6.8999801417243226e-04 
 6.9902654666641022e-04  7.0817321631052568e-04  7.1743956891371892e-04  7.2682717051163344e-04 
 7.3633760763128350e-04  7.4597248755917795e-04  7.5573343861295669e-04  7.6562211041657962e-04 
 7.7564017417911771e-04  7.8578932297719063e-04  7.9607127204110132e-04  8.0648775904471417e-04 
 8.1704054439912398e-04  8.2773141155017269e-04  8.3856216727985419e-04  8.4953464201166528e-04 
 8.6065069011995079e-04  8.7191219024329841e-04  8.8332104560203252e-04  8.9487918431986309e-04 
 9.0658855974974260e-04  9.1845115080398825e-04  9.3046896228872250e-04  9.4264402524268953e-04 
 9.5497839728050818e-04  9.6747416294040679e-04  9.8013343403652417e-04  9.9295835001580622e-04 
 1.0059510783195780e-03  1.0191138147498467e-03  1.0324487838403974e-03  1.0459582392327450e-03 
 1.0596444640570051e-03  1.0735097713177469e-03  1.0875565042848987e-03  1.1017870368897642e-03 
 1.1162037741262237e-03  1.1308091524571836e-03  1.1456056402263440e-03  1.1605957380753547e-03 
 1.1757819793664305e-03  1.1911669306104941e-03  1.2067531919009254e-03  1.2225433973529752e-03 
 1.2385402155489493e-03  1.2547463499891964e-03  1.2711645395490098e-03  1.2877975589415012e-03 
 1.3046482191865368e-03  1.3217193680858037e-03  1.3390138907040969e-03  1.3565347098569017e-03 
 1.3742847866043569e-03  1.3922671207516780e-03  1.4104847513561373e-03  1.4289407572406654e-03 
 1.4476382575141847e-03  1.4665804120987428e-03  1.4857704222635490e-03  1.5052115311659951e-03 
 1.5249070243997598e-03  1.5448602305500718e-03  1.5650745217562637e-03  1.5855533142816608e-03 
 1.6063000690909421e-03  1.6273182924350490e-03  1.6486115364437528e-03  1.6701833997259700e-03 
 1.6920375279779395e-03  1.7141776145993498e-03  1.7366074013175365e-03  1.7593306788198390e-03 
 1.7823512873942396e-03  1.8056731175783783e-03  1.8293001108170639e-03  1.8532362601283892e-03 
 1.8774856107785579e-03  1.9020522609655452e-03  1.9269403625117080e-03  1.9521541215654361e-03 
 1.9776977993120246e-03  2.0035757126938085e-03  2.0297922351397418e-03  2.0563517973045155e-03 
 2.0832588878173506e-03  2.1105180540405832e-03  2.1381339028381870e-03  2.1661111013543356e-03 
 2.1944543778021665e-03  2.2231685222628603e-03  2.2522583874951731e-03  2.2817288897555646e-03 
 2.3115850096290607e-03  2.3418317928709798e-03  2.3724743512596805e-03  2.4035178634604624e-03 
 2.4349675759007786e-03  2.4668288036568758e-03  2.4991069313520823e-03  2.5318074140668039e-03 
 2.5649357782604491e-03  2.5984976227054158e-03  2.6324986194332955e-03  2.6669445146934607e-03 
 2.7018411299241951e-03  2.7371943627365293e-03  2.7730101879109544e-03  2.8092946584071681e-03 
 2.8460539063870460e-03  2.8832941442509872e-03  2.9210216656878254e-03  2.9592428467384788e-03 
 2.9979641468735156e-03  3.0371921100848186e-03  3.0769333659915426e-03  3.1171946309605132e-03 
 3.1579827092413407e-03  3.1993044941163334e-03  3.2411669690654869e-03  3.2835772089467030e-03 
 3.3265423811914626e-03  3.3700697470161359e-03  3.4141666626491475e-03  3.4588405805741941e-03 
 3.5040990507897319e-03  3.5499497220849484e-03  3.5964003433324216e-03  3.6434587647976974e-03 
 3.6911329394660091e-03  3.7394309243863437e-03  3.7883608820331077e-03  3.8379310816855998e-03 
 3.8881499008255513e-03  3.9390258265529082e-03  3.9905674570202155e-03  4.0427835028856952e-03 
 4.0956827887853788e-03  4.1492742548244884e-03  4.2035669580883384e-03  4.2585700741729999e-03 
 4.3142928987360057e-03  4.3707448490673323e-03  4.4279354656809470e-03  4.4858744139271763e-03 
 4.5445714856261745e-03  4.6040366007227638e-03  4.6642798089629274e-03  4.7253112915922428e-03 
 4.7871413630765358e-03  4.8497804728450476e-03  4.9132392070564256e-03  4.9775282903877721e-03 
 5.0426585878471939e-03  5.1086411066099766e-03  5.1754869978788360e-03  5.2432075587684965e-03 
 5.3118142342149302e-03  5.3813186189095785e-03  5.4517324592588817e-03  5.5230676553694501e-03 
 5.5953362630592101e-03  5.6685504958948699e-03  5.7427227272560336e-03  5.8178654924263395e-03 
 5.8939914907119497e-03  5.9711135875877581e-03  6.0492448168716975e-03  6.1283983829274764e-03 
 6.2085876628961622e-03  6.2898262089569048e-03  6.3721277506173556e-03  6.4555061970339427e-03 
 6.5399756393625585e-03  6.6255503531399990e-03  6.7122448006965733e-03  6.8000736336002541e-03 
 6.8890516951328491e-03  6.9791940227985298e-03  7.0705158508652206e-03  7.1630326129392191e-03 
 7.2567599445735155e-03  7.3517136859102350e-03  7.4479098843576652e-03  7.5453647973022951e-03 
 7.6440948948563667e-03  7.7441168626413573e-03  7.8454476046078952e-03  7.9481042458925209e-03 
 8.0521041357119582e-03  8.1574648502951205e-03  8.2642041958535355e-03  8.3723402115906571e-03 
 8.4818911727505171e-03  8.5928755937062923e-03  8.7053122310892794e-03  8.8192200869588056e-03 
 8.9346184120136247e-03  9.0515267088453304e-03  9.1699647352343431e-03  9.2899525074890098e-03 
 9.4115103038284291e-03  9.5346586678095001e-03  9.6594184117988410e-03  9.7858106204901270e-03 
 9.9138566544674685e-03  1.0043578153815335e-02  1.0174997041775886e-02  1.0308135528453973e-02 
 1.0443016114570727e-02  1.0579661595266234e-02  1.0718095063951959e-02  1.0858339916213593e-02 
 1.1000419853764968e-02  1.1144358888453694e-02  1.1290181346319220e-02  1.1437911871703997e-02 
 1.1587575431418430e-02  1.1739197318960323e-02  1.1892803158789543e-02  1.2048418910658621e-02 
 1.2206070874000007e-02  1.2365785692370726e-02  1.2527590357955242e-02  1.2691512216127111e-02 
 1.2857578970070531e-02  1.3025818685462173e-02  1.3196259795214368e-02  1.3368931104280331e-02 
 1.3543861794522263e-02  1.3721081429643171e-02  1.3900619960183191e-02  1.4082507728581302e-02 
 1.4266775474303274e-02  1.4453454339036711e-02  1.4642575871954062e-02  1.4834172035044524e-02 
 1.5028275208515669e-02  1.5224918196265803e-02  1.5424134231427883e-02  1.5625956981986010e-02 
 1.5830420556465406e-02  1.6037559509696750e-02  1.6247408848656174e-02  1.6460004038381430e-02 
 1.6675381007965572e-02  1.6893576156629082e-02  1.7114626359871404e-02  1.7338568975703014e-02 
 1.7565441850958992e-02  1.7795283327695227e-02  1.8028132249668340e-02  1.8264027968900347e-02 
 1.8503010352329249e-02  1.8745119788546653e-02  1.8990397194623518e-02  1.9238884023025257e-02 
 1.9490622268617291e-02  1.9745654475762289e-02  2.0004023745510295e-02  2.0265773742882767e-02 
 2.0530948704252289e-02  2.0799593444818475e-02  2.1071753366181879e-02  2.1347474464016979e-02 
 2.1626803335845549e-02  2.1909787188911768e-02  2.2196473848160321e-02  2.2486911764318968e-02 
 2.2781150022086815e-02  2.3079238348429731e-02  2.3381227120984352e-02  2.3687167376572001e-02 
 2.3997110819824044e-02  2.4311109831920079e-02  2.4629217479440503e-02  2.4951487523334873e-02 
 2.5277974428007687e-02  2.5608733370522808e-02  2.5943820249928817e-02  2.6283291696705863e-02 
 2.6627205082336430e-02  2.6975618529001235e-02  2.7328590919402027e-02  2.7686181906712886e-02 
 2.8048451924661769e-02  2.8415462197743949e-02  2.8787274751569097e-02  2.9163952423343756e-02 
 2.9545558872490989e-02  2.9932158591408967e-02  3.0323816916370323e-02  3.0720600038564166e-02 
 3.1122575015282518e-02  3.1529809781253200e-02  3.1942373160120968e-02  3.2360334876078672e-02 
 3.2783765565651164e-02  3.3212736789632782e-02  3.3647321045181380e-02  3.4087591778070490e-02 
 3.4533623395101860e-02  3.4985491276680367e-02  3.5443271789553484e-02  3.5907042299717459e-02 
 3.6376881185492309e-02  3.6852867850768009e-02  3.7335082738423876e-02  3.7823607343923663e-02 
 3.8318524229088394e-02  3.8819917036049652e-02  3.9327870501385150e-02  3.9842470470439519e-02 
 4.0363803911832405e-02  4.0891958932156081e-02  4.1427024790866095e-02  4.1969091915366095e-02 
 4.2518251916290301e-02  4.3074597602985910e-02  4.3638222999198124e-02  4.4209223358960402e-02 
 4.4787695182692572e-02  4.5373736233509661e-02  4.5967445553744095e-02  4.6568923481684080e-02 
 4.7178271668531016e-02  4.7795593095578792e-02  4.8420992091617834e-02  4.9054574350567016e-02 
 4.9696446949336080e-02  5.0346718365921930e-02  5.1005498497741775e-02  5.1672898680205671e-02 
 5.2349031705533011e-02  5.3034011841814346e-02  5.3727954852323026e-02  5.4430978015079498e-02 
 5.5143200142671489e-02  5.5864741602333741e-02  5.6595724336290287e-02  5.7336271882362969e-02 
 5.8086509394849641e-02  5.8846563665675540e-02  5.9616563145821470e-02  6.0396637967032228e-02 
 6.1186919963809247e-02  6.1987542695690949e-02  6.2798641469824570e-02  6.3620353363833426e-02 
 6.4452817248983482e-02  6.5296173813652436e-02  6.6150565587107121e-02  6.7016136963590767e-02 
 6.7893034226726157e-02  6.8781405574237828e-02  6.9681401142997965e-02  7.0593173034399756e-02 
 7.1516875340062916e-02  7.2452664167875630e-02  7.3400697668377077e-02  7.4361136061485242e-02 
 7.5334141663574494e-02  7.6319878914907421e-02  7.7318514407425681e-02  7.8330216912904330e-02 
 7.9355157411474753e-02  8.0393509120520665e-02  8.1445447523952427e-02  8.2511150401863631e-02 
 8.3590797860577271e-02  8.4684572363083535e-02  8.5792658759876642e-02  8.6915244320194984e-02 
 8.8052518763670123e-02  8.9204674292389860e-02  9.0371905623380738e-02  9.1554410021515861e-02 
 9.2752387332852959e-02  9.3966040018408997e-02  9.5195573188376376e-02  9.6441194636787270e-02 
 9.7703114876631178e-02  9.8981547175432075e-02  1.0027670759129130e-01  1.0158881500940167e-01 
 1.0291809117904008e-01  1.0426476075104255e-01  1.0562905131577216e-01  1.0701119344158150e-01 
 1.0841142071377947e-01  1.0982996977410774e-01  1.1126708036073378e-01  1.1272299534876719e-01 
 1.1419796079130619e-01  1.1569222596102108e-01  1.1720604339228212e-01  1.1873966892383814e-01 
 1.2029336174205420e-01  1.2186738442471451e-01  1.2346200298539878e-01  1.2507748691843906e-01 
 1.2671410924446508e-01  1.2837214655654527e-01  1.3005187906693189e-01  1.3175359065441661e-01 
 1.3347756891230822e-01  1.3522410519703554e-01  1.3699349467738761e-01  1.3878603638439793e-01 
 1.4060203326188142e-01  1.4244179221763259e-01  1.4430562417529383e-01  1.4619384412690198e-01 
 1.4810677118612312e-01  1.5004472864218313e-01  1.5200804401450463e-01  1.5399704910805842e-01 
 1.5601208006943937e-01  1.5805347744367590e-01  1.6012158623178296e-01  1.6221675594906809e-01 
 1.6433934068420045e-01  1.6648969915905168e-01  1.6866819478932238e-01  1.7087519574595911e-01 
 1.7311107501737638e-01  1.7537621047249272e-01  1.7767098492459124e-01  1.7999578619601614e-01 
 1.8235100718371558e-01  1.8473704592564208e-01  1.8715430566802205e-01  1.8960319493350528e-01 
 1.9208412759020624e-01  1.9459752292164872e-01  1.9714380569762588e-01  1.9972340624598731e-01 
 2.0233676052536531e-01  2.0498431019885352e-01  2.0766650270864748e-01  2.1038379135166552e-01 
 2.1313663535615582e-01  2.1592549995930713e-01  2.1875085648587514e-01  2.2161318242783742e-01 
 2.2451296152509084e-01  2.2745068384720457e-01  2.3042684587624310e-01  2.3344195059067288e-01 
 2.3649650755036697e-01  2.3959103298272158e-01  2.4272604986990012e-01  2.4590208803721819e-01 
 2.4911968424268527e-01  2.5237938226771828e-01  2.5568173300904196e-01  2.5902729457179186e-01 
 2.6241663236383389e-01  2.6585031919132251e-01  2.6932893535550384e-01  2.7285306875078918e-01 
 2.7642331496411016e-01  2.8004027737557424e-01  2.8370456726043775e-01  2.8741680389241259e-01 
 2.9117761464832503e-01  2.9498763511414400e-01  2.9884750919239639e-01  3.0275788921098817e-01 
 3.0671943603344975e-01  3.1073281917062284e-01  3.1479871689380995e-01  3.1891781634940358e-01 
 3.2309081367501546e-01  3.2731841411712637e-01  3.3160133215027204e-01  3.3594029159779432e-01 
 3.4033602575416705e-01  3.4478927750892485e-01  3.4930079947221354e-01  3.5387135410198273e-01 
 3.5850171383284318e-01  3.6319266120661020e-01  3.6794498900455475e-01  3.7275950038138572e-01 
 3.7763700900098485e-01  3.8257833917391770e-01  3.8758432599674458e-01  3.9265581549315293e-01 
 3.9779366475693850e-01  4.0299874209685538e-01  4.0827192718336264e-01  4.1361411119729125e-01 
 4.1902619698045318e-01  4.2450909918822760e-01  4.3006374444413759e-01  4.3569107149645192e-01 
 4.4139203137683614e-01  4.4716758756107872e-01  4.5301871613192118e-01  4.5894640594401842e-01 
 4.6495165879105699e-01  4.7103548957506108e-01  4.7719892647791357e-01  4.8344301113512034e-01 
 4.8976879881185015e-01  4.9617735858127615e-01  5.0266977350525244e-01  5.0924714081735400e-01 
 5.1591057210831115e-01  5.2266119351387252e-01  5.2950014590512096e-01  5.3642858508128910e-01 
 5.4344768196508775e-01  5.5055862280059664e-01  5.5776260935374156e-01  5.6506085911539639e-01 
 5.7245460550714100e-01  5.7994509808971373e-01  5.8753360277418920e-01  5.9522140203592022e-01 
 6.0300979513127972e-01  6.1090009831723813e-01  6.1889364507381350e-01  6.2699178632943320e-01 
 6.3519589068924354e-01  6.4350734466640802e-01  6.5192755291643090e-01  6.6045793847454848e-01 
 6.6909994299622100e-01  6.7785502700078215e-01  6.8672467011826732e-01  6.9571037133947344e-01 
 7.0481364926929391e-01  7.1403604238336560e-01  7.2337910928807503e-01  7.3284442898396629e-01 
 7.4243360113259649e-01  7.5214824632688193e-01  7.6199000636498204e-01  7.7196054452776797e-01 
 7.8206154585991983e-01  7.9229471745470392e-01  8.0266178874247618e-01  8.1316451178295868e-01 
 8.2380466156134247e-01  8.3458403628826650e-01  8.4550445770371252e-01  8.5656777138489293e-01 
 8.6777584705815147e-01  8.7913057891495350e-01  8.9063388593200776e-01  9.0228771219557935e-01 
 9.1409402723004407e-01  9.2605482633074288e-01  9.3817213090119167e-01  9.5044798879470327e-01 
 9.6288447466047911e-01  9.7548369029423099e-01  9.8824776499338796e-01  1.0011788559169543e+00 
 1.0142791484500731e+00  1.0275508565733624e+00  1.0409962232370829e+00  1.0546175207402042e+00 
 1.0684170511144204e+00  1.0823971465132110e+00  1.0965601696059721e+00  1.1109085139773160e+00 
 1.1254446045315918e+00  1.1401708979027003e+00  1.1550898828692717e+00  1.1702040807752734e+00 
 1.1855160459561251e+00  1.2010283661703864e+00  1.2167436630370940e+00  1.2326645924788227e+00 
 1.2487938451705412e+00  1.2651341469943436e+00  1.2816882595001298e+00  1.2984589803723137e+00 
 1.3154491439026381e+00  1.3326616214691809e+00  1.3500993220216131e+00  1.3677651925728340e+00 
 1.3856622186970131e+00  1.4037934250341626e+00  1.4221618758013066e+00  1.4407706753103440e+00 
 1.4596229684926822e+00  1.4787219414307398e+00  1.4980708218964003e+00  1.5176728798965149e+00 
 1.5375314282255403e+00 
  </PP_RAB>
</PP_MESH>


<PP_LOCAL>
1.5770159371341140e+02 1.5770159370592407e+02 1.5770159369811327e+02 1.5770159369038336e+02 
1.5770159368215880e+02 1.5770159367377730e+02 1.5770159366504444e+02 1.5770159365633594e+02 
1.5770159364719939e+02 1.5770159363785373e+02 1.5770159362822287e+02 1.5770159361870628e+02 
1.5770159360847430e+02 1.5770159359810549e+02 1.5770159358775936e+02 1.5770159357669891e+02 
1.5770159356566450e+02 1.5770159355423874e+02 1.5770159354249091e+02 1.5770159353042877e+02 
1.5770159351804864e+02 1.5770159350523608e+02 1.5770159349222220e+02 1.5770159347895964e+02 
1.5770159346531057e+02 1.5770159345109016e+02 1.5770159343664045e+02 1.5770159342194478e+02 
1.5770159340654584e+02 1.5770159339103844e+02 1.5770159337502457e+02 1.5770159335849601e+02 
1.5770159334159891e+02 1.5770159332432084e+02 1.5770159330650228e+02 1.5770159328814850e+02 
1.5770159326934663e+02 1.5770159325020151e+02 1.5770159323041995e+02 1.5770159321014503e+02 
1.5770159318938212e+02 1.5770159316785151e+02 1.5770159314621012e+02 1.5770159312352928e+02 
1.5770159310044085e+02 1.5770159307678824e+02 1.5770159305252119e+02 1.5770159302756292e+02 
1.5770159300197321e+02 1.5770159297565402e+02 1.5770159294868117e+02 1.5770159292102431e+02 
1.5770159289257040e+02 1.5770159286334817e+02 1.5770159283348409e+02 1.5770159280269050e+02 
1.5770159277125333e+02 1.5770159273881259e+02 1.5770159270560004e+02 1.5770159267151087e+02 
1.5770159263643262e+02 1.5770159260061203e+02 1.5770159256362669e+02 1.5770159252593209e+02 
1.5770159248709666e+02 1.5770159244720236e+02 1.5770159240626515e+02 1.5770159236428685e+02 
1.5770159232125414e+02 1.5770159227702734e+02 1.5770159223156639e+02 1.5770159218509821e+02 
1.5770159213721413e+02 1.5770159208819561e+02 1.5770159203775083e+02 1.5770159198607229e+02 
1.5770159193307910e+02 1.5770159187859517e+02 1.5770159182277376e+02 1.5770159176537615e+02 
1.5770159170655421e+02 1.5770159164606673e+02 1.5770159158407762e+02 1.5770159152048268e+02 
1.5770159145510809e+02 1.5770159138809649e+02 1.5770159131931680e+02 1.5770159124861382e+02 
1.5770159117624374e+02 1.5770159110184213e+02 1.5770159102552716e+02 1.5770159094715277e+02 
1.5770159086679402e+02 1.5770159078421048e+02 1.5770159069954650e+02 1.5770159061257868e+02 
1.5770159052336632e+02 1.5770159043175497e+02 1.5770159033771972e+02 1.5770159024129475e+02 
1.5770159014229370e+02 1.5770159004070848e+02 1.5770158993638620e+02 1.5770158982933532e+02 
1.5770158971949974e+02 1.5770158960671293e+02 1.5770158949101432e+02 1.5770158937223059e+02 
1.5770158925035585e+02 1.5770158912521615e+02 1.5770158899683818e+02 1.5770158886501781e+02 
1.5770158872976700e+02 1.5770158859090776e+02 1.5770158844849257e+02 1.5770158830226282e+02 
1.5770158815216459e+02 1.5770158799805924e+02 1.5770158783998977e+02 1.5770158767774925e+02 
1.5770158751116873e+02 1.5770158734026930e+02 1.5770158716485312e+02 1.5770158698482402e+02 
1.5770158680001535e+02 1.5770158661038548e+02 1.5770158641571635e+02 1.5770158621589167e+02 
1.5770158601086399e+02 1.5770158580039885e+02 1.5770158558446457e+02 1.5770158536276480e+02 
1.5770158513528051e+02 1.5770158490172480e+02 1.5770158466209949e+02 1.5770158441614305e+02 
1.5770158416367727e+02 1.5770158390453696e+02 1.5770158363865826e+02 1.5770158336568417e+02 
1.5770158308554886e+02 1.5770158279806844e+02 1.5770158250300929e+02 1.5770158220013948e+02 
1.5770158188933797e+02 1.5770158157031830e+02 1.5770158124292010e+02 1.5770158090683535e+02 
1.5770158056198281e+02 1.5770158020797626e+02 1.5770157984468631e+02 1.5770157947182284e+02 
1.5770157908913498e+02 1.5770157869637995e+02 1.5770157829327033e+02 1.5770157787952698e+02 
1.5770157745488868e+02 1.5770157701906669e+02 1.5770157657172899e+02 1.5770157611266967e+02 
1.5770157564146157e+02 1.5770157515790424e+02 1.5770157466156144e+02 1.5770157415216138e+02 
1.5770157362933588e+02 1.5770157309274248e+02 1.5770157254199319e+02 1.5770157197680822e+02 
1.5770157139665457e+02 1.5770157080126302e+02 1.5770157019016628e+02 1.5770156956300627e+02 
1.5770156891928491e+02 1.5770156825859590e+02 1.5770156758054813e+02 1.5770156688461401e+02 
1.5770156617034922e+02 1.5770156543726165e+02 1.5770156468487843e+02 1.5770156391266843e+02 
1.5770156312012861e+02 1.5770156230670392e+02 1.5770156147185901e+02 1.5770156061502149e+02 
1.5770155973560685e+02 1.5770155883302397e+02 1.5770155790665106e+02 1.5770155695589617e+02 
1.5770155598011053e+02 1.5770155497859383e+02 1.5770155395069847e+02 1.5770155289574669e+02 
1.5770155181297932e+02 1.5770155070171288e+02 1.5770154956114649e+02 1.5770154839055709e+02 
1.5770154718913150e+02 1.5770154595603887e+02 1.5770154469047904e+02 1.5770154339159578e+02 
1.5770154205847609e+02 1.5770154069022789e+02 1.5770153928595744e+02 1.5770153784468823e+02 
1.5770153636546812e+02 1.5770153484725583e+02 1.5770153328907278e+02 1.5770153168983657e+02 
1.5770153004846293e+02 1.5770152836385867e+02 1.5770152663487971e+02 1.5770152486034715e+02 
1.5770152303909055e+02 1.5770152116983556e+02 1.5770151925135104e+02 1.5770151728232983e+02 
1.5770151526143533e+02 1.5770151318729290e+02 1.5770151105853193e+02 1.5770150887369033e+02 
1.5770150663129513e+02 1.5770150432981865e+02 1.5770150196771482e+02 1.5770149954340161e+02 
1.5770149705520694e+02 1.5770149450148975e+02 1.5770149188049183e+02 1.5770148919045303e+02 
1.5770148642954098e+02 1.5770148359590388e+02 1.5770148068761472e+02 1.5770147770273113e+02 
1.5770147463919440e+02 1.5770147149497600e+02 1.5770146826790486e+02 1.5770146495584771e+02 
1.5770146155653092e+02 1.5770145806766953e+02 1.5770145448689564e+02 1.5770145081179822e+02 
1.5770144703989294e+02 1.5770144316861121e+02 1.5770143919536028e+02 1.5770143511742569e+02 
1.5770143093208299e+02 1.5770142663648039e+02 1.5770142222771460e+02 1.5770141770280725e+02 
1.5770141305870419e+02 1.5770140829224880e+02 1.5770140340024753e+02 1.5770139837935335e+02 
1.5770139322620676e+02 1.5770138793730098e+02 1.5770138250907229e+02 1.5770137693784631e+02 
1.5770137121985519e+02 1.5770136535122774e+02 1.5770135932800227e+02 1.5770135314610894e+02 
1.5770134680135774e+02 1.5770134028945122e+02 1.5770133360602074e+02 1.5770132674651228e+02 
1.5770131970628867e+02 1.5770131248061469e+02 1.5770130506458059e+02 1.5770129745317763e+02 
1.5770128964126042e+02 1.5770128162355272e+02 1.5770127339461800e+02 1.5770126494891264e+02 
1.5770125628071264e+02 1.5770124738414307e+02 1.5770123825320792e+02 1.5770122888172517e+02 
1.5770121926335872e+02 1.5770120939160876e+02 1.5770119925978693e+02 1.5770118886105348e+02 
1.5770117818836476e+02 1.5770116723452097e+02 1.5770115599209873e+02 1.5770114445349552e+02 
1.5770113261091748e+02 1.5770112045635224e+02 1.5770110798157933e+02 1.5770109517815817e+02 
1.5770108203744249e+02 1.5770106855053137e+02 1.5770105470830302e+02 1.5770104050141143e+02 
1.5770102592023881e+02 1.5770101095492046e+02 1.5770099559534381e+02 1.5770097983112069e+02 
1.5770096365158165e+02 1.5770094704579262e+02 1.5770093000251808e+02 1.5770091251023567e+02 
1.5770089455710647e+02 1.5770087613100111e+02 1.5770085721944685e+02 1.5770083780965984e+02 
1.5770081788850581e+02 1.5770079744251751e+02 1.5770077645786435e+02 1.5770075492035585e+02 
1.5770073281542369e+02 1.5770071012811661e+02 1.5770068684309155e+02 1.5770066294459946e+02 
1.5770063841647328e+02 1.5770061324211946e+02 1.5770058740452347e+02 1.5770056088619890e+02 
1.5770053366921863e+02 1.5770050573516488e+02 1.5770047706514225e+02 1.5770044763976850e+02 
1.5770041743913094e+02 1.5770038644281081e+02 1.5770035462983051e+02 1.5770032197868380e+02 
1.5770028846727715e+02 1.5770025407294679e+02 1.5770021877242434e+02 1.5770018254183461e+02 
1.5770014535666786e+02 1.5770010719177134e+02 1.5770006802133298e+02 1.5770002781884966e+02 
1.5769998655712692e+02 1.5769994420825549e+02 1.5769990074358918e+02 1.5769985613372384e+02 
1.5769981034848368e+02 1.5769976335689310e+02 1.5769971512716293e+02 1.5769966562667224e+02 
1.5769961482193077e+02 1.5769956267856597e+02 1.5769950916130304e+02 1.5769945423394239e+02 
1.5769939785932186e+02 1.5769933999930424e+02 1.5769928061474269e+02 1.5769921966546292e+02 
1.5769915711022787e+02 1.5769909290671956e+02 1.5769902701150295e+02 1.5769895937999067e+02 
1.5769888996642811e+02 1.5769881872385139e+02 1.5769874560406146e+02 1.5769867055758371e+02 
1.5769859353364498e+02 1.5769851448013063e+02 1.5769843334355267e+02 1.5769835006900871e+02 
1.5769826460016179e+02 1.5769817687917399e+02 1.5769808684669732e+02 1.5769799444180546e+02 
1.5769789960197866e+02 1.5769780226304053e+02 1.5769770235912389e+02 1.5769759982263301e+02 
1.5769749458417709e+02 1.5769738657254845e+02 1.5769727571465268e+02 1.5769716193547498e+02 
1.5769704515801826e+02 1.5769692530325875e+02 1.5769680229008580e+02 1.5769667603525707e+02 
1.5769654645332679e+02 1.5769641345660420e+02 1.5769627695507955e+02 1.5769613685637668e+02 
1.5769599306567889e+02 1.5769584548567190e+02 1.5769569401647468e+02 1.5769553855557555e+02 
1.5769537899775216e+02 1.5769521523501945e+02 1.5769504715653324e+02 1.5769487464853734e+02 
1.5769469759426715e+02 1.5769451587388474e+02 1.5769432936438920e+02 1.5769413793953913e+02 
1.5769394146976236e+02 1.5769373982206770e+02 1.5769353285996417e+02 1.5769332044335408e+02 
1.5769310242844992e+02 1.5769287866767053e+02 1.5769264900954033e+02 1.5769241329859645e+02 
1.5769217137527005e+02 1.5769192307578655e+02 1.5769166823205279e+02 1.5769140667153812e+02 
1.5769113821716925e+02 1.5769086268719536e+02 1.5769057989508107e+02 1.5769028964936149e+02 
1.5768999175352849e+02 1.5768968600589167e+02 1.5768937219943672e+02 1.5768905012169202e+02 
1.5768871955458323e+02 1.5768838027428060e+02 1.5768803205105522e+02 1.5768767464911426e+02 
1.5768730782644872e+02 1.5768693133466365e+02 1.5768654491881637e+02 1.5768614831723420e+02 
1.5768574126134817e+02 1.5768532347549751e+02 1.5768489467675550e+02 1.5768445457473118e+02 
1.5768400287137104e+02 1.5768353926076364e+02 1.5768306342892322e+02 1.5768257505358221e+02 
1.5768207380397325e+02 1.5768155934060132e+02 1.5768103131501533e+02 1.5768048936957211e+02 
1.5767993313719390e+02 1.5767936224111676e+02 1.5767877629463862e+02 1.5767817490085392e+02 
1.5767755765238675e+02 1.5767692413111180e+02 1.5767627390787368e+02 1.5767560654219312e+02 
1.5767492158196805e+02 1.5767421856317273e+02 1.5767349700953091e+02 1.5767275643220535e+02 
1.5767199632945727e+02 1.5767121618631080e+02 1.5767041547420339e+02 1.5766959365062002e+02 
1.5766875015873796e+02 1.5766788442703466e+02 1.5766699586891210e+02 1.5766608388228994e+02 
1.5766514784920085e+02 1.5766418713537132e+02 1.5766320108979048e+02 1.5766218904426748e+02 
1.5766115031297804e+02 1.5766008419200213e+02 1.5765898995883995e+02 1.5765786687192895e+02 
1.5765671417013408e+02 1.5765553107223542e+02 1.5765431677639634e+02 1.5765307045961828e+02 
1.5765179127718454e+02 1.5765047836208592e+02 1.5764913082443007e+02 1.5764774775084027e+02 
1.5764632820383716e+02 1.5764487122119499e+02 1.5764337581529756e+02 1.5764184097246161e+02 
1.5764026565225225e+02 1.5763864878677467e+02 1.5763698927995165e+02 1.5763528600677614e+02 
1.5763353781255256e+02 1.5763174351210785e+02 1.5762990188899161e+02 1.5762801169464873e+02 
1.5762607164757097e+02 1.5762408043243047e+02 1.5762203669918338e+02 1.5761993906215747e+02 
1.5761778609910959e+02 1.5761557635026054e+02 1.5761330831730641e+02 1.5761098046240193e+02 
1.5760859120711498e+02 1.5760613893135670e+02 1.5760362197228591e+02 1.5760103862317635e+02 
1.5759838713226227e+02 1.5759566570154789e+02 1.5759287248559150e+02 1.5759000559025102e+02 
1.5758706307140156e+02 1.5758404293361536e+02 1.5758094312881204e+02 1.5757776155486701e+02 
1.5757449605418878e+02 1.5757114441225553e+02 1.5756770435611574e+02 1.5756417355284646e+02 
1.5756054960797351e+02 1.5755683006384876e+02 1.5755301239798803e+02 1.5754909402135769e+02 
1.5754507227662643e+02 1.5754094443636356e+02 1.5753670770119234e+02 1.5753235919789628e+02 
1.5752789597747395e+02 1.5752331501314441e+02 1.5751861319829749e+02 1.5751378734439493e+02 
1.5750883417881255e+02 1.5750375034262805e+02 1.5749853238834913e+02 1.5749317677758506e+02 
1.5748767987865523e+02 1.5748203796413532e+02 1.5747624720833960e+02 1.5747030368473827e+02 
1.5746420336330746e+02 1.5745794210780733e+02 1.5745151567299408e+02 1.5744491970175392e+02 
1.5743814972216686e+02 1.5743120114449195e+02 1.5742406925807344e+02 1.5741674922816964e+02 
1.5740923609269410e+02 1.5740152475887766e+02 1.5739360999984046e+02 1.5738548645107673e+02 
1.5737714860684656e+02 1.5736859081647634e+02 1.5735980728056202e+02 1.5735079204707486e+02 
1.5734153900736649e+02 1.5733204189206961e+02 1.5732229426689460e+02 1.5731228952831748e+02 
1.5730202089915491e+02 1.5729148142402809e+02 1.5728066396470777e+02 1.5726956119534037e+02 
1.5725816559755191e+02 1.5724646945542611e+02 1.5723446485035410e+02 1.5722214365575127e+02 
1.5720949753164081e+02 1.5719651791909720e+02 1.5718319603454987e+02 1.5716952286393916e+02 
1.5715548915672662e+02 1.5714108541975085e+02 1.5712630191092813e+02 1.5711112863279402e+02 
1.5709555532588072e+02 1.5707957146192771e+02 1.5706316623692052e+02 1.5704632856395418e+02 
1.5702904706591821e+02 1.5701131006799696e+02 1.5699310558998138e+02 1.5697442133839070e+02 
1.5695524469839540e+02 1.5693556272553872e+02 1.5691536213725377e+02 1.5689462930416934e+02 
1.5687335024119932e+02 1.5685151059841374e+02 1.5682909565168265e+02 1.5680609029309156e+02 
1.5678247902111997e+02 1.5675824593058158e+02 1.5673337470231579e+02 1.5670784859263023e+02 
1.5668165042248694e+02 1.5665476256642484e+02 1.5662716694121670e+02 1.5659884499425129e+02 
1.5656977769163731e+02 1.5653994550602314e+02 1.5650932840412531e+02 1.5647790583396093e+02 
1.5644565671177756e+02 1.5641255940867646e+02 1.5637859173691788e+02 1.5634373093591032e+02 
1.5630795365786921e+02 1.5627123595314580e+02 1.5623355325521587e+02 1.5619488036532277e+02 
1.5615519143677020e+02 1.5611445995885700e+02 1.5607265874044771e+02 1.5602975989317372e+02 
1.5598573481425726e+02 1.5594055416895438e+02 1.5589418787260755e+02 1.5584660507230524e+02 
1.5579777412813985e+02 1.5574766259405970e+02 1.5569623719830756e+02 1.5564346382344263e+02 
1.5558930748593730e+02 1.5553373231534505e+02 1.5547670153303460e+02 1.5541817743048327e+02 
1.5535812134712651e+02 1.5529649364775796e+02 1.5523325369947540e+02 1.5516835984816976e+02 
1.5510176939455167e+02 1.5503343856971262e+02 1.5496332251021832e+02 1.5489137523273016e+02 
1.5481754960815354e+02 1.5474179733531074e+02 1.5466406891413627e+02 1.5458431361839564e+02 
1.5450247946792499e+02 1.5441851320039407e+02 1.5433236024259236e+02 1.5424396468123993e+02 
1.5415326923332717e+02 1.5406021521598456e+02 1.5396474251588913e+02 1.5386678955821077e+02 
1.5376629327510551e+02 1.5366318907376427e+02 1.5355741080402379e+02 1.5344889072555009e+02 
1.5333755947460611e+02 1.5322334603041625e+02 1.5310617768113977e+02 1.5298597998947193e+02 
1.5286267675788687e+02 1.5273618999354329e+02 1.5260643987287338e+02 1.5247334470587799e+02 
1.5233682090015208e+02 1.5219678292466978e+02 1.5205314327335657e+02 1.5190581242848225e+02 
1.5175469882390854e+02 1.5159970880822939e+02 1.5144074660784383e+02 1.5127771429000623e+02 
1.5111051172589896e+02 1.5093903655377906e+02 1.5076318414225156e+02 1.5058284755372884e+02 
1.5039791750813504e+02 1.5020828234692269e+02 1.5001382799747194e+02 1.4981443793794560e+02 
1.4960999316267998e+02 1.4940037214819623e+02 1.4918545081992099e+02 1.4896510251971162e+02 
1.4873919797428675e+02 1.4850760526466911e+02 1.4827018979675236e+02 1.4802681427311239e+02 
1.4777733866618883e+02 1.4752162019296907e+02 1.4725951329131604e+02 1.4699086959808676e+02 
1.4671553792919818e+02 1.4643336426180346e+02 1.4614419171875062e+02 1.4584786055550597e+02 
1.4554420814973071e+02 1.4523306899370985e+02 1.4491427468984429e+02 1.4458765394942216e+02 
1.4425303259490033e+02 1.4391023356593365e+02 1.4355907692940329e+02 1.4319937989370467e+02 
1.4283095682756692e+02 1.4245361928368723e+02 1.4206717602747682e+02 1.4167143307122373e+02 
1.4126619371399312e+02 1.4085125858759613e+02 1.4042642570897044e+02 1.3999149053932999e+02 
1.3954624605045112e+02 1.3909048279847775e+02 1.3862398900563747e+02 1.3814655065027668e+02 
1.3765795156563138e+02 1.3715797354776475e+02 1.3664639647311384e+02 1.3612299842609789e+02 
1.3558755583725514e+02 1.3503984363238072e+02 1.3447963539315279e+02 1.3390670352974095e+02 
1.3332081946589892e+02 1.3272175383705340e+02 1.3210927670190486e+02 1.3148315776806291e+02 
1.3084316663224263e+02 1.3018907303554985e+02 1.2952064713438520e+02 1.2883765978749580e+02 
1.2813988285969791e+02 1.2742708954279290e+02 1.2669905469418718e+02 1.2595555519371847e+02 
1.2519637031917631e+02 1.2442128214098963e+02 1.2363007593653323e+02 1.2282254062448122e+02 
1.2199846921961040e+02 1.2115765930842076e+02 1.2029991354590906e+02 1.1942504017378617e+02 
1.1853285356038522e+02 1.1762317476245546e+02 1.1669583210897892e+02 1.1575066180708423e+02 
1.1478750857006179e+02 1.1380622626740819e+02 1.1280667859674324e+02 1.1178873977735398e+02 
1.1075229526501988e+02 1.0969724248766678e+02 1.0862349160128404e+02 1.0753096626541451e+02 
1.0641960443739634e+02 1.0528935918439461e+02 1.0414019951211102e+02 1.0297211120890205e+02 
1.0178509770386751e+02 1.0057918093729521e+02 9.9354402241661731e+01 9.8110823231194487e+01 
9.6848526697797325e+01 9.5567617510931797e+01 9.4268223518823987e+01 9.2950496448146012e+01 
9.1614612799081016e+01 9.0260774732450827e+01 8.8889210945334440e+01 8.7500177531363590e+01 
8.6093958821630721e+01 8.4670868201894166e+01 8.3231248901517574e+01 8.1775474749332474e+01 
8.0303950891371045e+01 7.8817114465181007e+01 7.7315435225208333e+01 7.5799416113518021e+01 
7.4269593769925891e+01 7.2726538975429548e+01 7.1170857022667846e+01 6.9603188007001009e+01 
6.8024207031695170e+01 6.6434624320619932e+01 6.4835185231822877e+01 6.3226670165352282e+01 
6.1609894358734259e+01 5.9985707563608663e+01 5.8354993597170434e+01 5.6718669762265300e+01 
5.5077686130251415e+01 5.3433024681066982e+01 5.1785698295339962e+01 5.0136749593846631e+01 
4.8487249620169273e+01 4.6838296363028427e+01 4.5191013115468053e+01 4.3546546668858738e+01 
4.1906065340553482e+01 4.0270756834982933e+01 3.8641825939011156e+01 3.7020492053488994e+01 
3.5407986564129935e+01 3.3805550056103492e+01 3.2214429378067244e+01 3.0635874562751351e+01 
2.9071135612651833e+01 2.7521459160870982e+01 2.5988085018655553e+01 2.4472242622711672e+01 
2.2975147396902091e+01 2.1497997044445970e+01 2.0041967788218599e+01 1.8608210578173367e+01 
1.7197847286259805e+01 1.5811966910465548e+01 1.4451621810746943e+01 1.3117824000605969e+01 
1.1811541518901286e+01 1.0533694907121474e+01 9.2851538177737645e+00 8.0667337797432435e+00 
6.8791931464118603e+00 5.7232302520001994e+00 4.5994808009733417e+00 3.5085155144323901e+00 
2.4508380561809151e+00 1.4268832596084731e+00 4.3701567466827146e-01 -5.1847154795123995e-01 
-1.4393574208409221e+00 -2.3254935202199247e+00 -3.1768040138005511e+00 -3.9932853106225412e+00 
-4.7750053307868496e+00 -5.5221023966607463e+00 -6.2347837508870692e+00 -6.9133237103603129e+00 
-7.5580614691792283e+00 -8.1693985673815916e+00 -8.7477960459647779e+00 -9.2937713122179186e+00 
-9.8078947426843861e+00 -1.0290786054069256e+01 -1.0743110475048267e+01 -1.1165574754163661e+01 
-1.1558923040760209e+01 -1.1923932677176587e+01 -1.2261409941127766e+01 -1.2572185777369159e+01 
-1.2857111557306263e+01 -1.3117054904203169e+01 -1.3352895620057636e+01 -1.3565521748071975e+01 
-1.3755825801991456e+01 -1.3924701190452302e+01 -1.4073038860937441e+01 -1.4201724184046631e+01 
-1.4311634094627687e+01 -1.4403634501968281e+01 -1.4478577976803994e+01 -1.4537301718447859e+01 
-1.4580625800982672e+01 -1.4609351693268366e+01 -1.4624261043589076e+01 -1.4626114716176424e+01 
-1.4615652063666516e+01 -1.4593590416838239e+01 -1.4560624770785866e+01 -1.4517427645033997e+01 
-1.4464649094027136e+01 -1.4402916843924819e+01 -1.4332836531697277e+01 -1.4254992023123405e+01 
-1.4169945787406073e+01 -1.4078239307692682e+01 -1.3980393508762152e+01 -1.3876909185448030e+01 
-1.3768267417936661e+01 -1.3654929962831934e+01 -1.3537339611732925e+01 -1.3415920511946572e+01 
-1.3291078446774462e+01 -1.3163201075494451e+01 -1.3032658135633259e+01 -1.2899801612331956e+01 
-1.2764965881487232e+01 -1.2628467834863580e+01 -1.2490606996482271e+01 -1.2351665640282054e+01 
-1.2211908919307385e+01 -1.2071585016519577e+01 -1.1930925326764173e+01 -1.1790144678499036e+01 
-1.1649441602634658e+01 -1.1508998654318853e+01 -1.1368982791774583e+01 -1.1229545814442558e+01 
-1.1090824860762496e+01 -1.0952942964022144e+01 -1.0816009662882626e+01 -1.0680121661517980e+01 
-1.0545363532843821e+01 -1.0411808457102374e+01 -1.0279518987153766e+01 -1.0148547831218734e+01 
-1.0018938643533875e+01 -9.8907268134114918e+00 -9.7639402435241092e+00 -9.6386001088288449e+00 
-9.5147215883697296e+00 -9.3923145632021114e+00 -9.2713842748197841e+00 -9.1519319396828873e+00 
-9.0339553166900242e+00 -8.9174492256644928e+00 -8.8024060160889892e+00 -8.6888159863902761e+00 
-8.5766677550168477e+00 -8.4659485853493326e+00 -8.3566446671243106e+00 -8.2487413575339534e+00 
-8.1422233854909880e+00 -8.0370750227307468e+00 -7.9332802254746024e+00 -7.8308227503199426e+00 
-7.7296862478714097e+00 -7.6298543374072105e+00 -7.5313106656027342e+00 -7.4340389520318357e+00 
-7.3380230238486881e+00 -7.2432468417362941e+00 -7.1496945189017733e+00 -7.0573503346123765e+00 
-6.9661987435057684e+00 -6.8762243816766064e+00 -6.7874120703405785e+00 -6.6997468177061021e+00 
-6.6132138195416381e+00 -6.5277984588102962e+00 -6.4434863046503130e+00 -6.3602631109067627e+00 
-6.2781148143634002e+00 -6.1970275327807736e+00 -6.1169875628149049e+00 -6.0379813778677818e+00 
-5.9599956259040185e+00 -5.8830171272567586e+00 -5.8070328724375004e+00 -5.7320300199592822e+00 
-5.6579958941790061e+00 -5.5849179831623061e+00 -5.5127839365729283e+00 -5.4415815635876372e+00 
-5.3712988308370688e+00 -5.3019238603726544e+00 -5.2334449276595247e+00 -5.1658504595951804e+00 
-5.0991290325536918e+00 -5.0332693704551081e+00 -4.9682603428597929e+00 -4.9040909630873593e+00 
-4.8407503863598871e+00 -4.7782279079691730e+00 -4.7165129614675498e+00 -4.6555951168821714e+00 
-4.5954640789523138e+00 -4.5361096853894480e+00 -4.4775219051597928e+00 -4.4196908367890435e+00 
-4.3626067066890046e+00 -4.3062598675058226e+00 -4.2506407964895638e+00 -4.1957400938848473e+00 
-4.1415484813422649e+00 -4.0880568003503166e+00 -4.0352560106875961e+00 -3.9831371888949829e+00 
-3.9316915267675441e+00 -3.8809103298659360e+00 -3.8307850160470096e+00 -3.7813071140134413e+00 
-3.7324682618820182e+00 -3.6842602057704887e+00 -3.6366747984026295e+00 -3.5897039977313390e+00 
-3.5433398655795076e+00 -3.4975745662984505e+00 -3.4524003654436641e+00 -3.4078096284676840e+00 
-3.3637948194298319e+00 -3.3203484997226203e+00 -3.2774633268146127e+00 -3.2351320530095169e+00 
-3.1933475242213056e+00 -3.1521026787651651e+00 -3.1113905461640443e+00 -3.0712042459706366e+00 
-3.0315369866045550e+00 -2.9923820642045666e+00 -2.9537328614955878e+00 -2.9155828466703717e+00 
-2.8779255722856116e+00 -2.8407546741723091e+00 -2.8040638703602130e+00 -2.7678469600161510e+00 
-2.7320978223960748e+00 -2.6968104158106416e+00 -2.6619787766041494e+00 -2.6275970181466706e+00 
-2.5936593298391935e+00 -2.5601599761316192e+00 -2.5270932955534393e+00 -2.4944536997569351e+00 
-2.4622356725727306e+00 -2.4304337690775499e+00 -2.3990426146740069e+00 -2.3680569041823016e+00 
-2.3374714009436075e+00 -2.3072809359350810e+00 -2.2774804068962791e+00 -2.2480647774668663e+00 
-2.2190290763354574e+00 -2.1903683963994527e+00 -2.1620778939357281e+00 -2.1341527877820337e+00 
-2.1065883585289642e+00 -2.0793799477223702e+00 -2.0525229570760670e+00 -2.0260128476947128e+00 
-1.9998451393067254e+00 -1.9740154095071059e+00 -1.9485192930100406e+00 -1.9233524809111582e+00 
-1.8985107199593116e+00 -1.8739898118377809e+00 -1.8497856124547276e+00 -1.8258940312428478e+00 
-1.8023110304680527e+00 -1.7790326245470811e+00 -1.7560548793739277e+00 -1.7333739116549691e+00 
-1.7109858882526776e+00 -1.6888870255378130e+00 -1.6670735887499786e+00 -1.6455418913664395e+00 
-1.6242882944790900e+00 -1.6033092061794707e+00 -1.5826010809517272e+00 -1.5621604190734077e+00 
-1.5419837660240048e+00 -1.5220677119011279e+00 -1.5024088908442332e+00 -1.4830039804657700e+00 
-1.4638497012896980e+00 -1.4449428161972480e+00 -1.4262801298798389e+00 -1.4078584882990646e+00 
-1.3896747781536518e+00 -1.3717259263533077e+00 -1.3540088994993575e+00 -1.3365207033720952e+00 
-1.3192583824247508e+00 -1.3022190192839991e+00 -1.2853997342569137e+00 -1.2687976848442930e+00 
-1.2524100652602725e+00 -1.2362341059581385e+00 -1.2202670731622676e+00 -1.2045062684061130e+00 
-1.1889490280761625e+00 -1.1735927229617704e+00 -1.1584347578108234e+00 -1.1434725708911331e+00 
-1.1287036335574987e+00 -1.1141254498243593e+00 -1.0997355559439665e+00 -1.0855315199900055e+00 
-1.0715109414465929e+00 -1.0576714508025842e+00 -1.0440107091511213e+00 -1.0305264077943519e+00 
-1.0172162678532519e+00 -1.0040780398824924e+00 -9.9110950349027616e-01 -9.7830846696308593e-01 
-9.6567276689528136e-01 -9.5320026782347511e-01 -9.4088886186564147e-01 -9.2873646836486956e-01 
-9.1674103353773417e-01 -9.0490053012719884e-01 -8.9321295706000592e-01 -8.8167633910848919e-01 
-8.7028872655675682e-01 -8.5904819487118400e-01 -8.4795284437516227e-01 -8.3700079992804977e-01 
-8.2619021060826781e-01 -8.1551924940049136e-01 -8.0498611288687805e-01 -7.9458902094228778e-01 
-7.8432621643343536e-01 -7.7419596492193254e-01 -7.6419655437116274e-01 -7.5432629485694214e-01 
-7.4458351828192315e-01 -7.3496657809367472e-01 -7.2547384900641565e-01 -7.1610372672633660e-01 
-7.0685462768047036e-01 -6.9772498874906452e-01 -6.8871326700141033e-01 -6.7981793943508362e-01 
-6.7103750271855378e-01 -6.6237047293711770e-01 -6.5381538534211359e-01 -6.4537079410337628e-01 
-6.3703527206488730e-01 -6.2880741050358291e-01 -6.2068581889127628e-01 -6.1266912465965429e-01 
-6.0475597296831163e-01 -5.9694502647577730e-01 -5.8923496511350548e-01 -5.8162448586277382e-01 
-5.7411230253447565e-01 -5.6669714555174866e-01 -5.5937776173541387e-01 -5.5215291409218548e-01 
-5.4502138160561631e-01 -5.3798195902974177e-01 -5.3103345668539248e-01 -5.2417470025913404e-01 
-5.1740453060480596e-01 -5.1072180354762287e-01 -5.0412538969080656e-01 -4.9761417422471527e-01 
-4.9118705673843782e-01 -4.8484295103382186e-01 -4.7858078494190370e-01 -4.7239950014170851e-01 
-4.6629805198139457e-01 -4.6027540930170013e-01 -4.5433055426167746e-01 -4.4846248216667572e-01 
-4.4267020129854440e-01 -4.3695273274803026e-01 -4.3130911024934032e-01 -4.2573838001684006e-01 
-4.2023960058386112e-01 -4.1481184264359172e-01 -4.0945418889202151e-01 -4.0416573387291443e-01 
-3.9894558382478551e-01 -3.9379285652985213e-01 -3.8870668116493734e-01 -3.8368619815429889e-01 
-3.7873055902435887e-01 -3.7383892626030857e-01 -3.6901047316456981e-01 -3.6424438371707646e-01 
-3.5953985243736825e-01 -3.5489608424846142e-01 -3.5031229434247968e-01 -3.4578770804801900e-01 
-3.4132156069922659e-01 -3.3691309750657072e-01 -3.3256157342927922e-01 -3.2826625304942592e-01 
-3.2402641044764352e-01 -3.1984132908044083e-01 -3.1571030165910619e-01 -3.1163263003017289e-01 
-3.0760762505743056e-01 -3.0363460650545876e-01 -2.9971290292466624e-01 -2.9584185153781306e-01 
-2.9202079812800258e-01 -2.8824909692811346e-01 -2.8452611051166593e-01 -2.8085120968509458e-01 
-2.7722377338141302e-01 -2.7364318855525233e-01 -2.7010885007925467e-01 -2.6662016064180571e-01 
-2.6317653064608693e-01 -2.5977737811043294e-01 -2.5642212856997493e-01 -2.5311021497955472e-01 
-2.4984107761789281e-01 -2.4661416399299430e-01 -2.4342892874877614e-01 -2.4028483357290092e-01 
-2.3718134710580072e-01 -2.3411794485087548e-01 -2.3109410908585384e-01 -2.2810932877529408e-01 
-2.2516309948421956e-01 -2.2225492329286781e-01 -2.1938430871254083e-01 -2.1655077060254210e-01 
-2.1375383008818705e-01 -2.1099301447987165e-01 -2.0826785719318713e-01 -2.0557789767006593e-01 
-2.0292268130094623e-01 
</PP_LOCAL>


<PP_NONLOCAL>
  <PP_BETA>
  1  1      Beta    L
  1189  
 -7.3366273977706754e-11  -7.5298811227610474e-11  -7.7282253342047641e-11  -7.9317941203453173e-11 
 -8.1407251014378172e-11  -8.3551595227855528e-11  -8.5752423502272079e-11  -8.8011223681392695e-11 
 -9.0329522800199476e-11  -9.2708888117225969e-11  -9.5150928174083451e-11  -9.7657293882896536e-11 
 -1.0022967964238269e-10  -1.0286982448333061e-10  -1.0557951324425117e-10  -1.0836057777799665e-10 
 -1.1121489819016287e-10  -1.1414440411011251e-10  -1.1715107599547830e-10  -1.2023694647102784e-10 
 -1.2340410170279552e-10  -1.2665468280841046e-10  -1.2999088730457391e-10  -1.3341497059266399e-10 
 -1.3692924748347440e-10  -1.4053609376211285e-10  -1.4423794779412458e-10  -1.4803731217391910e-10 
 -1.5193675541662116e-10  -1.5593891369448295e-10  -1.6004649261903943e-10  -1.6426226907020372e-10 
 -1.6858909307354434e-10  -1.7302988972701225e-10  -1.7758766117841763e-10  -1.8226548865499691e-10 
 -1.8706653454644072e-10  -1.9199404454278975e-10  -1.9705134982864501e-10  -2.0224186933517710e-10 
 -2.0756911205145313e-10  -2.1303667939664807e-10  -2.1864826765474238e-10  -2.2440767047335086e-10 
 -2.3031878142837342e-10  -2.3638559665620157e-10  -2.4261221755525986e-10  -2.4900285355870734e-10 
 -2.5556182498017657e-10  -2.6229356593447094e-10  -2.6920262733519448e-10  -2.7629367997134619e-10 
 -2.8357151766495043e-10  -2.9104106051186456e-10  -2.9870735820795303e-10  -3.0657559346287468e-10 
 -3.1465108550379292e-10  -3.2293929367137804e-10  -3.3144582111052975e-10  -3.4017641855831749e-10 
 -3.4913698823170284e-10  -3.5833358781765979e-10  -3.6777243456840596e-10  -3.7745990950450420e-10 
 -3.8740256172867622e-10  -3.9760711285324696e-10  -4.0808046154421503e-10  -4.1882968818501318e-10 
 -4.2986205966312194e-10  -4.4118503428276111e-10  -4.5280626680699546e-10  -4.6473361363264323e-10 
 -4.7697513810150593e-10  -4.8953911595149648e-10  -5.0243404091135689e-10  -5.1566863044274401e-10 
 -5.2925183163357282e-10  -5.4319282724658670e-10  -5.5750104192726576e-10  -5.7218614857524289e-10 
 -5.8725807488356223e-10  -6.0272701005018025e-10  -6.1860341166625619e-10  -6.3489801278588607e-10 
 -6.5162182918206505e-10  -6.6878616679377156e-10  -6.8640262936922087e-10  -7.0448312631044361e-10 
 -7.2303988072450651e-10  -7.4208543768680278e-10  -7.6163267272200706e-10  -7.8169480050842883e-10 
 -8.0228538381165056e-10  -8.2341834265347493e-10  -8.4510796372240271e-10  -8.6736891003199088e-10 
 -8.9021623083361123e-10  -9.1366537179033448e-10  -9.3773218541879549e-10  -9.6243294180610712e-10 
 -9.8778433960907400e-10  -1.0138035173431349e-09  -1.0405080649686638e-09  -1.0679160357824651e-09 
 -1.0960459586225099e-09  -1.1249168503941484e-09  -1.1545482289262806e-09  -1.1849601261661682e-09 
 -1.2161731017218154e-09  -1.2482082567610648e-09  -1.2810872482768102e-09  -1.3148323037279734e-09 
 -1.3494662360661342e-09  -1.3850124591579770e-09  -1.4214950036139833e-09  -1.4589385330340733e-09 
 -1.4973683606811563e-09  -1.5368104665938928e-09  -1.5772915151502281e-09  -1.6188388730935543e-09 
 -1.6614806280337086e-09  -1.7052456074353041e-09  -1.7501633981062309e-09  -1.7962643661995094e-09 
 -1.8435796777420002e-09  -1.8921413197038844e-09  -1.9419821216231098e-09  -1.9931357777994703e-09 
 -2.0456368700732687e-09  -2.0995208912040427e-09  -2.1548242688650565e-09  -2.2115843902698646e-09 
 -2.2698396274475633e-09  -2.3296293631838070e-09  -2.3909940176451454e-09  -2.4539750757046664e-09 
 -2.5186151149874417e-09  -2.5849578346546911e-09  -2.6530480849461937e-09  -2.7229318975008214e-09 
 -2.7946565164758096e-09  -2.8682704304856883e-09  -2.9438234053825454e-09  -3.0213665178997645e-09 
 -3.1009521901819609e-09  -3.1826342252244682e-09  -3.2664678432463469e-09  -3.3525097190215157e-09 
 -3.4408180201931818e-09  -3.5314524465975586e-09  -3.6244742706234061e-09  -3.7199463786346298e-09 
 -3.8179333134840979e-09  -3.9185013181472235e-09  -4.0217183805049552e-09  -4.1276542793064007e-09 
 -4.2363806313421327e-09  -4.3479709398601116e-09  -4.4625006442569334e-09  -4.5800471710779935e-09 
 -4.7006899863610770e-09  -4.8245106493587056e-09  -4.9515928676756142e-09  -5.0820225538586091e-09 
 -5.2158878834770822e-09  -5.3532793547333654e-09  -5.4942898496434140e-09  -5.6390146968289475e-09 
 -5.7875517359636529e-09  -5.9400013839169960e-09  -6.0964667026403137e-09  -6.2570534688411088e-09 
 -6.4218702454926601e-09  -6.5910284552272778e-09  -6.7646424556628444e-09  -6.9428296167134812e-09 
 -7.1257103999367893e-09  -7.3134084399710805e-09  -7.5060506281178352e-09  -7.7037671981257999e-09 
 -7.9066918142347761e-09  -8.1149616615385446e-09  -8.3287175387280956e-09  -8.5481039532778726e-09 
 -8.7732692191392239e-09  -9.0043655570074281e-09  -9.2415491972296509e-09  -9.4849804854238127e-09 
 -9.7348239908795290e-09  -9.9912486178144890e-09  -1.0254427719561428e-08  -1.0524539215763070e-08 
 -1.0801765712653987e-08  -1.1086294626510959e-08  -1.1378318310355158e-08  -1.1678034183991878e-08 
 -1.1985644867475586e-08  -1.2301358318090790e-08  -1.2625387970941084e-08  -1.2957952883241523e-08 
 -1.3299277882411913e-08  -1.3649593718071037e-08  -1.4009137218034728e-08  -1.4378151448423090e-08 
 -1.4756885877985214e-08  -1.5145596546752415e-08  -1.5544546239134251e-08  -1.5954004661573862e-08 
 -1.6374248624883325e-08  -1.6805562231381784e-08  -1.7248237066963294e-08  -1.7702572398223930e-08 
 -1.8168875374781601e-08  -1.8647461236925306e-08  -1.9138653528734141e-08  -1.9642784316810472e-08 
 -2.0160194414774573e-08  -2.0691233613673168e-08  -2.1236260918457177e-08  -2.1795644790688651e-08 
 -2.2369763397641339e-08  -2.2959004867962601e-08  -2.3563767554070403e-08  -2.4184460301461965e-08 
 -2.4821502725116659e-08  -2.5475325493179950e-08  -2.6146370618120017e-08  -2.6835091755554128e-08 
 -2.7541954510946630e-08  -2.8267436754385920e-08  -2.9012028943653474e-08  -2.9776234455803037e-08 
 -3.0560569927474266e-08  -3.1365565604171133e-08  -3.2191765698740873e-08  -3.3039728759296218e-08 
 -3.3910028046829414e-08  -3.4803251922773219e-08  -3.5720004246771720e-08  -3.6660904784928580e-08 
 -3.7626589628809978e-08  -3.8617711625485087e-08  -3.9634940818894193e-08  -4.0678964902844489e-08 
 -4.1750489685937796e-08  -4.2850239568746456e-08  -4.3978958033558697e-08  -4.5137408147025206e-08 
 -4.6326373076046834e-08  -4.7546656617252131e-08  -4.8799083740421968e-08  -5.0084501146230780e-08 
 -5.1403777838678827e-08  -5.2757805712604645e-08  -5.4147500156674290e-08  -5.5573800672254555e-08 
 -5.7037671508589858e-08  -5.8540102314710949e-08  -6.0082108808517555e-08  -6.1664733463486728e-08 
 -6.3289046213471401e-08  -6.4956145176065962e-08  -6.6667157395027987e-08  -6.8423239602258620e-08 
 -7.0225578999856181e-08  -7.2075394062773071e-08  -7.3973935362618034e-08  -7.5922486413161508e-08 
 -7.7922364538115741e-08  -7.9974921761776637e-08  -8.2081545723130964e-08  -8.4243660614045240e-08 
 -8.6462728142172737e-08  -8.8740248519229118e-08  -9.1077761475305613e-08  -9.3476847299905804e-08 
 -9.5939127910409799e-08  -9.8466267948688527e-08  -1.0105997590661061e-07  -1.0372200528120178e-07 
 -1.0645415576023810e-07  -1.0925827443907627e-07  -1.1213625706954079e-07  -1.1509004934171460e-07 
 -1.1812164819949906e-07  -1.2123310319083153e-07  -1.2442651785347442e-07  -1.2770405113731149e-07 
 -1.3106791886411391e-07  -1.3452039522576122e-07  -1.3806381432192951e-07  -1.4170057173825678e-07 
 -1.4543312616599655e-07  -1.4926400106443637e-07  -1.5319578636714840e-07  -1.5723114023319385e-07 
 -1.6137279084446824e-07  -1.6562353825040363e-07  -1.6998625626127232e-07  -1.7446389439137759e-07 
 -1.7905947985344179e-07  -1.8377611960554586e-07  -1.8861700245199955e-07  -1.9358540119956953e-07 
 -1.9868467487052092e-07  -2.0391827097396961e-07  -2.0928972783708529e-07  -2.1480267699771853e-07 
 -2.2046084566007496e-07  -2.2626805921509444e-07  -2.3222824382724566e-07  -2.3834542908948181e-07 
 -2.4462375074815691e-07  -2.5106745349974627e-07  -2.5768089386126636e-07  -2.6446854311633070e-07 
 -2.7143499033884270e-07  -2.7858494549636865e-07  -2.8592324263529056e-07  -2.9345484314989928e-07 
 -3.0118483913763436e-07  -3.0911845684274835e-07  -3.1726106019072440e-07  -3.2561815441583749e-07 
 -3.3419538978431923e-07  -3.4299856541564587e-07  -3.5203363320453580e-07  -3.6130670184631175e-07 
 -3.7082404096835641e-07  -3.8059208537045731e-07  -3.9061743937691136e-07  -4.0090688130333861e-07 
 -4.1146736804122880e-07  -4.2230603976333000e-07  -4.3343022475305713e-07  -4.4484744436120149e-07 
 -4.5656541809329795e-07  -4.6859206883108625e-07  -4.8093552819161764e-07  -4.9360414202762769e-07 
 -5.0660647607290607e-07  -5.1995132173648987e-07  -5.3364770204960235e-07  -5.4770487776937217e-07 
 -5.6213235364346407e-07  -5.7693988483987825e-07  -5.9213748354625783e-07  -6.0773542574319813e-07 
 -6.2374425815613526e-07  -6.4017480539053249e-07  -6.5703817725520289e-07  -6.7434577627873374e-07 
 -6.9210930542410420e-07  -7.1034077600673571e-07  -7.2905251582134154e-07  -7.4825717748308839e-07 
 -7.6796774698872800e-07  -7.8819755250350343e-07  -8.0896027337980576e-07  -8.3026994941366999e-07 
 -8.5214099034543433e-07  -8.7458818561097162e-07  -8.9762671435013093e-07  -9.2127215567918307e-07 
 -9.4554049923423801e-07  -9.7044815599279052e-07  -9.9601196938075654e-07  -1.0222492266725173e-06 
 -1.0491776706917485e-06  -1.0768155118209450e-06  -1.1051814403278300e-06  -1.1342946390170084e-06 
 -1.1641747962154630e-06  -1.1948421191007279e-06  -1.2263173473807732e-06  -1.2586217673349496e-06 
 -1.2917772262254722e-06  -1.3258061470893112e-06  -1.3607315439204937e-06  -1.3965770372531910e-06 
 -1.4333668701561482e-06  -1.4711259246493829e-06  -1.5098797385542858e-06  -1.5496545227886238e-06 
 -1.5904771791182057e-06  -1.6323753183772942e-06  -1.6753772791701845e-06  -1.7195121470666813e-06 
 -1.7648097743045548e-06  -1.8113008000124021e-06  -1.8590166709666973e-06  -1.9079896628971838e-06 
 -1.9582529023551258e-06  -2.0098403891593651e-06  -2.0627870194354427e-06  -2.1171286092635682e-06 
 -2.1729019189515309e-06  -2.2301446779491438e-06  -2.2888956104212314e-06  -2.3491944614966349e-06 
 -2.4110820242111514e-06  -2.4746001671628462e-06  -2.5397918628986140e-06  -2.6067012170514442e-06 
 -2.6753734982482662e-06  -2.7458551688088875e-06  -2.8181939162570028e-06  -2.8924386856648625e-06 
 -2.9686397128537977e-06  -3.0468485584732190e-06  -3.1271181429816164e-06  -3.2095027825534082e-06 
 -3.2940582259363554e-06  -3.3808416922847546e-06  -3.4699119099944454e-06  -3.5613291565662640e-06 
 -3.6551552995253352e-06  -3.7514538384243076e-06  -3.8502899479594464e-06  -3.9517305222292073e-06 
 -4.0558442201657568e-06  -4.1627015121707351e-06  -4.2723747279873434e-06  -4.3849381058417777e-06 
 -4.5004678428878756e-06  -4.6190421469898075e-06  -4.7407412898784650e-06  -4.8656476617183513e-06 
 -4.9938458271226129e-06  -5.1254225826549717e-06  -5.2604670158582656e-06  -5.3990705658505671e-06 
 -5.5413270855307327e-06  -5.6873329054365277e-06  -5.8371868992996402e-06  -5.9909905513430077e-06 
 -6.1488480253672510e-06  -6.3108662356741184e-06  -6.4771549198763861e-06  -6.6478267136447479e-06 
 -6.8229972274438189e-06  -7.0027851253106614e-06  -7.1873122057308657e-06  -7.3767034846684940e-06 
 -7.5710872808080650e-06  -7.7705953030679441e-06  -7.9753627404466132e-06  -8.1855283542645046e-06 
 -8.4012345728662493e-06  -8.6226275888496257e-06  -8.8498574588896406e-06  -9.0830782062277107e-06 
 -9.3224479258982750e-06  -9.5681288927667708e-06  -9.8202876724552514e-06  -1.0079095235233892e-05 
 -1.0344727072958897e-05  -1.0617363319139429e-05  -1.0897188872218767e-05  -1.1184393522156887e-05 
 -1.1479172080404443e-05  -1.1781724513360596e-05  -1.2092256079409487e-05  -1.2410977469633073e-05 
 -1.2738104952300813e-05  -1.3073860521239304e-05  -1.3418472048188128e-05  -1.3772173439250949e-05 
 -1.4135204795554192e-05  -1.4507812578228788e-05  -1.4890249777833631e-05  -1.5282776088342877e-05 
 -1.5685658085822743e-05  -1.6099169411926978e-05  -1.6523590962343925e-05  -1.6959211080331865e-05 
 -1.7406325755483476e-05  -1.7865238827863711e-05  -1.8336262197670695e-05  -1.8819716040572088e-05 
 -1.9315929028875240e-05  -1.9825238558693068e-05  -2.0347990983272571e-05  -2.0884541852658193e-05 
 -2.1435256159866780e-05  -2.2000508593755997e-05  -2.2580683798774186e-05  -2.3176176641784126e-05 
 -2.3787392486159944e-05  -2.4414747473361365e-05  -2.5058668812196099e-05  -2.5719595075987471e-05 
 -2.6397976507870643e-05  -2.7094275334447701e-05  -2.7808966088038359e-05  -2.8542535937770988e-05 
 -2.9295485029765070e-05  -3.0068326836664718e-05  -3.0861588516790166e-05  -3.1675811283182395e-05 
 -3.2511550782824725e-05  -3.3369377486333626e-05  -3.4249877088420478e-05  -3.5153650919433907e-05 
 -3.6081316368304325e-05  -3.7033507317220164e-05  -3.8010874588376110e-05  -3.9014086403144896e-05 
 -4.0043828854034970e-05  -4.1100806389807138e-05  -4.2185742314135626e-05  -4.3299379298211830e-05 
 -4.4442479907699808e-05  -4.5615827144467783e-05  -4.6820225003532335e-05  -4.8056499045665837e-05 
 -4.9325496986132864e-05  -5.0628089300036343e-05  -5.1965169844768940e-05  -5.3337656500082860e-05 
 -5.4746491826306428e-05  -5.6192643741254516e-05  -5.7677106216396928e-05  -5.9200899992868624e-05 
 -6.0765073317923576e-05  -6.2370702702455795e-05  -6.4018893700230813e-05  -6.5710781709492946e-05 
 -6.7447532797636746e-05  -6.9230344549652738e-05  -7.1060446941083427e-05  -7.2939103236250902e-05 
 -7.4867610912541122e-05  -7.6847302611559947e-05  -7.8879547118002570e-05  -8.0965750367107921e-05 
 -8.3107356481599138e-05  -8.5305848839044814e-05  -8.7562751170605535e-05  -8.9879628692168649e-05 
 -9.2258089268904805e-05  -9.4699784614321169e-05  -9.7206411524922514e-05  -9.9779713151631208e-05 
 -1.0242148030915957e-04  -1.0513355282457197e-04  -1.0791782092631715e-04  -1.1077622667506049e-04 
 -1.1371076543769266e-04  -1.1672348740594387e-04  -1.1981649916108637e-04  -1.2299196528625775e-04 
 -1.2625211002800546e-04  -1.2959921900870076e-04  -1.3303564099154290e-04  -1.3656378969993259e-04 
 -1.4018614569306646e-04  -1.4390525829967155e-04  -1.4772374761187342e-04  -1.5164430654127179e-04 
 -1.5566970293937028e-04  -1.5980278178459972e-04  -1.6404646743825487e-04  -1.6840376597175715e-04 
 -1.7287776756775428e-04  -1.7747164899766175e-04  -1.8218867617835838e-04  -1.8703220681085537e-04 
 -1.9200569310386890e-04  -1.9711268458534777e-04  -2.0235683100512864e-04  -2.0774188533201818e-04 
 -2.1327170684873873e-04  -2.1895026434831408e-04  -2.2478163943561317e-04  -2.3077002993792956e-04 
 -2.3691975342863286e-04  -2.4323525086808787e-04  -2.4972109036622183e-04  -2.5638197107129832e-04 
 -2.6322272718964413e-04  -2.7024833214128009e-04  -2.7746390285660966e-04  -2.8487470421954570e-04 
 -2.9248615366266788e-04  -3.0030382592026331e-04  -3.0833345794532846e-04  -3.1658095399689050e-04 
 -3.2505239090426690e-04  -3.3375402351516948e-04  -3.4269229033486131e-04  -3.5187381936388159e-04 
 -3.6130543414217883e-04  -3.7099416000784240e-04  -3.8094723057896588e-04  -3.9117209446756036e-04 
 -4.0167642223482171e-04  -4.1246811359746356e-04  -4.2355530489525357e-04  -4.3494637683034532e-04 
 -4.4664996248945513e-04  -4.5867495566043198e-04  -4.7103051945527106e-04  -4.8372609525216935e-04 
 -4.9677141196976583e-04  -5.1017649568731443e-04  -5.2395167962512553e-04  -5.3810761450028531e-04 
 -5.5265527927329794e-04  -5.6760599230202776e-04  -5.8297142292002837e-04  -5.9876360345712974e-04 
 -6.1499494172094884e-04  -6.3167823395882171e-04  -6.4882667832055329e-04  -6.6645388884326744e-04 
 -6.8457390998062542e-04  -7.0320123169966540e-04  -7.2235080516956955e-04  -7.4203805906775458e-04 
 -7.6227891652982374e-04  -7.8308981277111500e-04  -8.0448771340881791e-04  -8.2649013351494415e-04 
 -8.4911515743177162e-04  -8.7238145938282581e-04  -8.9630832491391940e-04  -9.2091567320031127e-04 
 -9.4622408025767373e-04  -9.7225480309619575e-04  -9.9902980485893820e-04  -1.0265717809873239e-03 
 -1.0549041864585799e-03  -1.0840512641419025e-03  -1.1140380743221508e-03  -1.1448905254420260e-03 
 -1.1766354061158784e-03  -1.2093004184706342e-03  -1.2429142128716345e-03  -1.2775064240937556e-03 
 -1.3131077090006607e-03  -1.3497497857977278e-03  -1.3874654749269628e-03  -1.4262887416750158e-03 
 -1.4662547405683744e-03  -1.5073998616328666e-03  -1.5497617785976789e-03  -1.5933794991273733e-03 
 -1.6382934171686595e-03  -1.6845453675021110e-03  -1.7321786825924672e-03  -1.7812382518347927e-03 
 -1.8317705832973600e-03  -1.8838238680658687e-03  -1.9374480472974175e-03  -1.9926948820964763e-03 
 -2.0496180263289972e-03  -2.1082731024947236e-03  -2.1687177807817614e-03  -2.2310118614313288e-03 
 -2.2952173605446636e-03  -2.3613985994678441e-03  -2.4296222978942871e-03  -2.4999576708282737e-03 
 -2.5724765295566353e-03  -2.6472533867791855e-03  -2.7243655660517539e-03  -2.8038933156987662e-03 
 -2.8859199273551326e-03  -2.9705318592995801e-03  -3.0578188647435796e-03  -3.1478741252417065e-03 
 -3.2407943893900462e-03  -3.3366801169798202e-03  -3.4356356287728700e-03  -3.5377692620644718e-03 
 -3.6431935321967176e-03  -3.7520253001823577e-03  -3.8643859465945125e-03  -3.9804015518715751e-03 
 -4.1002030831791747e-03  -4.2239265879615660e-03  -4.3517133943036159e-03  -4.4837103182107565e-03 
 -4.6200698778982897e-03  -4.7609505151623953e-03  -4.9065168238832451e-03  -5.0569397856849770e-03 
 -5.2123970127480827e-03  -5.3730729977360210e-03  -5.5391593707595872e-03  -5.7108551632591258e-03 
 -5.8883670786351898e-03  -6.0719097694029436e-03  -6.2617061205828221e-03  -6.4579875389699573e-03 
 -6.6609942478461828e-03  -6.8709755866108195e-03  -7.0881903147086032e-03  -7.3129069191242534e-03 
 -7.5454039245928277e-03  -7.7859702055406961e-03  -8.0349052986245176e-03  -8.2925197145720143e-03 
 -8.5591352478482669e-03  -8.8350852824731659e-03  -9.1207150920980043e-03  -9.4163821322102818e-03 
 -9.7224563220743871e-03  -1.0039320313729980e-02  -1.0367369745057788e-02  -1.0707013473582544e-02 
 -1.1058673787312821e-02  -1.1422786588516216e-02  -1.1799801545892472e-02  -1.2190182210136749e-02 
 -1.2594406087376072e-02  -1.3012964664414501e-02  -1.3446363379133110e-02  -1.3895121528758506e-02 
 -1.4359772108037742e-02  -1.4840861568634385e-02  -1.5338949490292497e-02  -1.5854608153498897e-02 
 -1.6388422002510804e-02  -1.6940986986705531e-02  -1.7512909767253455e-02  -1.8104806775114678e-02 
 -1.8717303105319608e-02  -1.9351031231414892e-02  -2.0006629522846282e-02  -2.0684740546914802e-02 
 -2.1386009135789426e-02  -2.2111080197900593e-02  -2.2860596251883952e-02  -2.3635194660109621e-02 
 -2.4435504537733587e-02  -2.5262143312166231e-02  -2.6115712906889479e-02  -2.6996795522696283e-02 
 -2.7905948988699386e-02  -2.8843701654898263e-02  -2.9810546797733321e-02  -3.0806936509938498e-02 
 -3.1833275046166877e-02  -3.2889911596355133e-02  -3.3977132459654877e-02  -3.5095152593051397e-02 
 -3.6244106510548074e-02  -3.7424038511087360e-02  -3.8634892216239260e-02  -3.9876499402182665e-02 
 -4.1148568114667855e-02  -4.2450670060536023e-02  -4.3782227275024427e-02  -4.5142498070548327e-02 
 -4.6530562279964417e-02  -4.7945305815544612e-02  -4.9385404574068106e-02  -5.0849307728659726e-02 
 -5.2335220459361523e-02  -5.3841086187050601e-02  -5.5364568389401431e-02  -5.6903032093371102e-02 
 -5.8453525156461773e-02  -6.0012759469180534e-02  -6.1577092234094549e-02  -6.3142507503203466e-02 
 -6.4704598185505197e-02  -6.6258548771152906e-02  -6.7799119057870338e-02  -6.9320629209559073e-02 
 -7.0816946526213259e-02  -7.2281474357918221e-02  -7.3707143652818510e-02  -7.5086407687866286e-02 
 -7.6411240589448232e-02  -7.7673140305367358e-02  -7.8863136735878331e-02  -7.9971805764449191e-02 
 -8.0989289942674375e-02  -8.1905326571786674e-02  -8.2709283878795212e-02  -8.3390205902269393e-02 
 -8.3936866576419203e-02  -8.4337833330314166e-02  -8.4581540303364761e-02  -8.4656371024692603e-02 
 -8.4550750123476820e-02  -8.4253243343924561e-02  -8.3752664847770858e-02  -8.3038190512913820e-02 
 -8.2099475688201598e-02  -8.0926775644369245e-02  -7.9511066766474847e-02  -7.7844166356852693e-02 
 -7.5918848752546259e-02  -7.3728955304137256e-02  -7.1269495617778858e-02  -6.8536737341364326e-02 
 -6.5528281700249519e-02  -6.2243121985928566e-02  -5.8681682305232769e-02  -5.4845834141158532e-02 
 -5.0738888686158987e-02  -4.6365563497286030e-02  -4.1731922778159562e-02  -3.6845291472509152e-02 
 -3.1714144284306314e-02  -2.6347971628467505e-02  -2.0757125278660308e-02  -1.4952647066378017e-02 
 -8.9460844080595219e-03  -2.7492967630639623e-03  3.6257425420812795e-03  1.0167144269142427e-02 
 1.6863295776422638e-02  2.3703041109932720e-02  3.0675841950838192e-02  3.7771913249026290e-02 
 4.4982323444103425e-02  5.2299051823712403e-02  5.9714995061975473e-02  6.7223915837933412e-02 
 7.4820327837691741e-02  8.2499313313921879e-02  9.0256271682285227e-02  9.8086600294019499e-02 
 1.0598531143877302e-01  1.1394659269139600e-01  1.2196332080129701e-01  1.3002654230785751e-01 
 1.3812493682091009e-01  1.4624428130221301e-01  1.5436693559669043e-01  1.6247137077463739e-01 
 1.7053176245611612e-01  1.7851767111480699e-01  1.8639383034448598e-01  1.9412006219108560e-01 
 2.0165133591479220e-01  2.0893798299352201e-01  2.1592607689123700e-01  2.2255798120726608e-01 
 2.2877306444322157e-01  2.3450857394728700e-01  2.3970065581799135e-01  2.4428550188177661e-01 
 2.4820059951742043e-01  2.5138605529991032e-01  2.5378595937922643e-01  2.5534975437850799e-01 
 2.5603357054557085e-01  2.5580148804154090e-01  2.5462668767848451e-01  2.5249245315909097e-01 
 2.4939299090989939e-01  2.4533403786771549e-01  2.4033323297249465e-01  2.3442023448240948e-01 
 2.2763657234853860e-01  2.2003523254488874e-01  2.1167997818762743e-01  2.0264442021374976e-01 
 1.9301085804424606e-01  1.8286891775152178e-01  1.7231402152271696e-01  1.6144572742369184e-01 
 1.5036598242403437e-01  1.3917733418900868e-01  1.2798114818141887e-01  1.1687587610488287e-01 
 1.0595541968204346e-01  9.5307630279770031e-02  8.5012980109512554e-02  7.5143434838015749e-02 
 6.5761550678119882e-02  5.6919811660439093e-02  4.8660215103843711e-02  4.1014105601494308e-02 
 3.4002250409147110e-02  2.7635142232495219e-02  2.1913509298095286e-02  1.6829007454126087e-02 
 1.2365065029808622e-02  8.4978483796382693e-03  5.1973144889136827e-03  2.4283167042041653e-03 
 1.5173051032903048e-04  -1.6744318070754886e-03  -3.0939459445321928e-03  -4.1513645730289683e-03 
 -4.8910911908709356e-03  -5.3565550300894776e-03  -5.5894986033106124e-03  -5.6293849106133723e-03 
 -5.5129269658689998e-03  -5.2737382937579954e-03  -4.9420995081852484e-03  -4.5448330952944501e-03 
 -4.1052761437181447e-03  -3.6433390138303763e-03  -3.1756368113055162e-03  -2.7156799972928329e-03 
 -2.2741104764812249e-03  -1.8589699866574671e-03  -1.4759884899045242e-03  -1.1288814498249030e-03 
 -8.1964628348320581e-04  -5.4884981541916667e-04  -3.1590015456637362e-04  -1.1929799251719900e-04 
 4.3136176653789065e-05  1.7406103633574196e-04  2.7644052854861143e-04  3.5339689876110245e-04 
 4.0808971981616039e-04  4.4361925570772894e-04  4.6295205558086124e-04  4.6886636695368718e-04 
 4.6391480484548383e-04  4.5040168699562799e-04  4.3037252007406925e-04  4.0561327320962103e-04 
 3.7765728233101891e-04  3.4779786318582577e-04  3.1710497099563244e-04  2.8644449542485339e-04 
 2.5649902648880598e-04  2.2778915387291836e-04  2.0069456632347524e-04  1.7547439638801481e-04 
 1.5228640830804540e-04  1.3120475419376991e-04  1.1223612766666232e-04  9.5334227504046085e-05 
 8.0412509207831393e-05  6.7355252708400248e-05  5.6027012144824118e-05  4.6280541155024516e-05 
 3.7963306362750099e-05  3.0922714283272428e-05  2.5010184026097122e-05  2.0084200967502357e-05 
 1.6012485728195934e-05  1.2673409062553621e-05  9.9567771079377622e-06  7.7641033918322277e-06 
 6.0084744423557424e-06  4.6141052697458455e-06  3.5156697175318107e-06  2.6574791655427703e-06 
 1.9925715973327895e-06  1.4817619807642961e-06  1.0926944841749365e-06  7.9892750216171702e-07 
 5.7907392580382353e-07  4.1601168242390134e-07  2.9617330547379281e-07  2.0891819055212108e-07 
 1.4598717282135709e-07  1.0103605628824098e-07  6.9242607924211212e-08  4.6980190942143222e-08 
 3.1550503109124240e-08  2.0967687391361977e-08  1.3786270478741751e-08  8.9658400823788321e-09 
 5.7660126978241470e-09  3.6659756339219044e-09  2.3036597286176266e-09  1.4303541883444561e-09 
 8.7729046407234722e-10  5.3136382799635495e-10  3.1773111457919963e-10  1.8750507218024101e-10 
 1.0917278035620506e-10  6.2693438113199731e-11  3.5496900028283994e-11  1.9809305668220507e-11 
 1.0891926580321244e-11  5.8984533606390800e-12  3.1448771192695675e-12  1.6502099635260825e-12 
 8.5186381698121063e-13  4.3242736224410922e-13  2.1577423164675697e-13  1.0578609827918404e-13 
 5.0935493529503627e-14  2.4069489608766295e-14  1.1167430857395893e-14  5.0796823735936425e-15 
 2.2633835673034678e-15  9.8675795512531830e-16  4.2285649031774067e-16  1.7489969621455953e-16 
 7.4074025068762433e-17  3.1188403189613519e-17  1.2042448144689739e-17  3.6112959140663978e-18 
 0.0000000000000000e+00  0.0000000000000000e+00  0.0000000000000000e+00  0.0000000000000000e+00 
 0.0000000000000000e+00  0.0000000000000000e+00  0.0000000000000000e+00  0.0000000000000000e+00 
 0.0000000000000000e+00  0.0000000000000000e+00  0.0000000000000000e+00  0.0000000000000000e+00 
 0.0000000000000000e+00  0.0000000000000000e+00  0.0000000000000000e+00  0.0000000000000000e+00 
 0.0000000000000000e+00  0.0000000000000000e+00  0.0000000000000000e+00  0.0000000000000000e+00 
 0.0000000000000000e+00  0.0000000000000000e+00  0.0000000000000000e+00  0.0000000000000000e+00 
 0.0000000000000000e+00  0.0000000000000000e+00  0.0000000000000000e+00  0.0000000000000000e+00 
 0.0000000000000000e+00  0.0000000000000000e+00  0.0000000000000000e+00  0.0000000000000000e+00 
 0.0000000000000000e+00  0.0000000000000000e+00  0.0000000000000000e+00  0.0000000000000000e+00 
 0.0000000000000000e+00  0.0000000000000000e+00  0.0000000000000000e+00  0.0000000000000000e+00 
 0.0000000000000000e+00  0.0000000000000000e+00  0.0000000000000000e+00  0.0000000000000000e+00 
 0.0000000000000000e+00  0.0000000000000000e+00  0.0000000000000000e+00  0.0000000000000000e+00 
 0.0000000000000000e+00  0.0000000000000000e+00  0.0000000000000000e+00  0.0000000000000000e+00 
 0.0000000000000000e+00  0.0000000000000000e+00  0.0000000000000000e+00  0.0000000000000000e+00 
 0.0000000000000000e+00  0.0000000000000000e+00  0.0000000000000000e+00  0.0000000000000000e+00 
 0.0000000000000000e+00  0.0000000000000000e+00  0.0000000000000000e+00  0.0000000000000000e+00 
 0.0000000000000000e+00  0.0000000000000000e+00  0.0000000000000000e+00  0.0000000000000000e+00 
 0.0000000000000000e+00  0.0000000000000000e+00  0.0000000000000000e+00  0.0000000000000000e+00 
 0.0000000000000000e+00  0.0000000000000000e+00  0.0000000000000000e+00  0.0000000000000000e+00 
 0.0000000000000000e+00  0.0000000000000000e+00  0.0000000000000000e+00  0.0000000000000000e+00 
 0.0000000000000000e+00  0.0000000000000000e+00  0.0000000000000000e+00  0.0000000000000000e+00 
 0.0000000000000000e+00  0.0000000000000000e+00  0.0000000000000000e+00  0.0000000000000000e+00 
 0.0000000000000000e+00  0.0000000000000000e+00  0.0000000000000000e+00  0.0000000000000000e+00 
 0.0000000000000000e+00  0.0000000000000000e+00  0.0000000000000000e+00  0.0000000000000000e+00 
 0.0000000000000000e+00  0.0000000000000000e+00  0.0000000000000000e+00  0.0000000000000000e+00 
 0.0000000000000000e+00  0.0000000000000000e+00  0.0000000000000000e+00  0.0000000000000000e+00 
 0.0000000000000000e+00  0.0000000000000000e+00  0.0000000000000000e+00  0.0000000000000000e+00 
 0.0000000000000000e+00  0.0000000000000000e+00  0.0000000000000000e+00  0.0000000000000000e+00 
 0.0000000000000000e+00  0.0000000000000000e+00  0.0000000000000000e+00  0.0000000000000000e+00 
 0.0000000000000000e+00  0.0000000000000000e+00  0.0000000000000000e+00  0.0000000000000000e+00 
 0.0000000000000000e+00  0.0000000000000000e+00  0.0000000000000000e+00  0.0000000000000000e+00 
 0.0000000000000000e+00  0.0000000000000000e+00  0.0000000000000000e+00  0.0000000000000000e+00 
 0.0000000000000000e+00  0.0000000000000000e+00  0.0000000000000000e+00  0.0000000000000000e+00 
 0.0000000000000000e+00  0.0000000000000000e+00  0.0000000000000000e+00  0.0000000000000000e+00 
 0.0000000000000000e+00  0.0000000000000000e+00  0.0000000000000000e+00  0.0000000000000000e+00 
 0.0000000000000000e+00  0.0000000000000000e+00  0.0000000000000000e+00  0.0000000000000000e+00 
 0.0000000000000000e+00  0.0000000000000000e+00  0.0000000000000000e+00  0.0000000000000000e+00 
 0.0000000000000000e+00  0.0000000000000000e+00  0.0000000000000000e+00  0.0000000000000000e+00 
 0.0000000000000000e+00  0.0000000000000000e+00  0.0000000000000000e+00  0.0000000000000000e+00 
 0.0000000000000000e+00  0.0000000000000000e+00  0.0000000000000000e+00  0.0000000000000000e+00 
 0.0000000000000000e+00  0.0000000000000000e+00  0.0000000000000000e+00  0.0000000000000000e+00 
 0.0000000000000000e+00  0.0000000000000000e+00  0.0000000000000000e+00  0.0000000000000000e+00 
 0.0000000000000000e+00  0.0000000000000000e+00  0.0000000000000000e+00  0.0000000000000000e+00 
 0.0000000000000000e+00  0.0000000000000000e+00  0.0000000000000000e+00  0.0000000000000000e+00 
 0.0000000000000000e+00  0.0000000000000000e+00  0.0000000000000000e+00  0.0000000000000000e+00 
 0.0000000000000000e+00  0.0000000000000000e+00  0.0000000000000000e+00  0.0000000000000000e+00 
 0.0000000000000000e+00  0.0000000000000000e+00  0.0000000000000000e+00  0.0000000000000000e+00 
 0.0000000000000000e+00 
  </PP_BETA>
  <PP_BETA>
  2  1      Beta    L
  1189  
 -3.9273431291562005e-11  -4.0307930725530696e-11  -4.1369679856005127e-11  -4.2459396465848167e-11 
 -4.3577817245004751e-11  -4.4725698288532322e-11  -4.5903815607750059e-11  -4.7112965654851877e-11 
 -4.8353965861338623e-11  -4.9627655190633095e-11  -5.0934894705251082e-11  -5.2276568148912701e-11 
 -5.3653582543986674e-11  -5.5066868804672316e-11  -5.6517382366332731e-11  -5.8006103831405930e-11 
 -5.9534039632329223e-11  -6.1102222711926104e-11  -6.2711713221715071e-11  -6.4363599238612437e-11 
 -6.6058997500513830e-11  -6.7799054161251672e-11  -6.9584945565439094e-11  -7.1417879043723417e-11 
 -7.3299093728988647e-11  -7.5229861394055246e-11  -7.7211487311448516e-11  -7.9245311135811630e-11 
 -8.1332707809564325e-11  -8.3475088492415307e-11  -8.5673901515361345e-11  -8.7930633359813560e-11 
 -9.0246809662515795e-11  -9.2623996246933839e-11  -9.5063800181811367e-11  -9.7567870867609896e-11 
 -1.0013790115156685e-10  -1.0277562847212497e-10  -1.0548283603350663e-10  -1.0826135401122897e-10 
 -1.1111306078937167e-10  -1.1403988423043668e-10  -1.1704380297865749e-10  -1.2012684779763786e-10 
 -1.2329110294322562e-10  -1.2653870757254970e-10  -1.2987185719017220e-10  -1.3329280513233284e-10 
 -1.3680386409029161e-10  -1.4040740767379612e-10  -1.4410587201573189e-10  -1.4790175741904311e-10 
 -1.5179763004703175e-10  -1.5579612365818269e-10  -1.5989994138668566e-10  -1.6411185756985733e-10 
 -1.6843471962369945e-10  -1.7287144996786159e-10  -1.7742504800130877e-10  -1.8209859213002916e-10 
 -1.8689524184815727e-10  -1.9181823987391018e-10  -1.9687091434179045e-10  -2.0205668105253420e-10 
 -2.0737904578232131e-10  -2.1284160665281582e-10  -2.1844805656363458e-10  -2.2420218568888855e-10 
 -2.3010788403948706e-10  -2.3616914409293270e-10  -2.4239006349239220e-10  -2.4877484781685846e-10 
 -2.5532781342428465e-10  -2.6205339036960854e-10  -2.6895612539963926e-10  -2.7604068502683334e-10 
 -2.8331185868403747e-10  -2.9077456196232772e-10  -2.9843383993414088e-10  -3.0629487056393552e-10 
 -3.1436296820869699e-10  -3.2264358721064694e-10  -3.3114232558458888e-10  -3.3986492880238195e-10 
 -3.4881729367710311e-10  -3.5800547234951851e-10  -3.6743567637956504e-10  -3.7711428094560464e-10 
 -3.8704782915429150e-10  -3.9724303646396528e-10  -4.0770679522455929e-10  -4.1844617933709702e-10 
 -4.2946844903592362e-10  -4.4078105579690316e-10  -4.5239164737490550e-10  -4.6430807297398816e-10 
 -4.7653838855375727e-10  -4.8909086227551329e-10  -5.0197398009184675e-10  -5.1519645148347103e-10 
 -5.2876721534717094e-10  -5.4269544603884442e-10  -5.5699055957572342e-10  -5.7166222000196614e-10 
 -5.8672034592193188e-10  -6.0217511720553786e-10  -6.1803698187025263e-10  -6.3431666314436057e-10 
 -6.5102516671628401e-10  -6.6817378817485866e-10  -6.8577412064559095e-10  -7.0383806262806609e-10 
 -7.2237782603979991e-10  -7.4140594447196942e-10  -7.6093528166261341e-10  -7.8097904019302869e-10 
 -8.0155077041322511e-10  -8.2266437960249670e-10  -8.4433414137129274e-10  -8.6657470531073475e-10 
 -8.8940110689632046e-10  -9.1282877765249553e-10  -9.3687355558497314e-10  -9.6155169588785209e-10 
 -9.8687988193276550e-10  -1.0128752365475067e-09  -1.0395553335917321e-09  -1.0669382098375927e-09 
 -1.0950423771632987e-09  -1.1238868350678952e-09  -1.1534910835156700e-09  -1.1838751361189057e-09 
 -1.2150595336678848e-09  -1.2470653580172780e-09  -1.2799142463383222e-09  -1.3136284057464074e-09 
 -1.3482306283139860e-09  -1.3837443064789134e-09  -1.4201934488586917e-09  -1.4576026964812403e-09 
 -1.4959973394432418e-09  -1.5354033340072496e-09  -1.5758473201491780e-09  -1.6173566395679987e-09 
 -1.6599593541698418e-09  -1.7036842650389738e-09  -1.7485609319085015e-09  -1.7946196931439599e-09 
 -1.8418916862532720e-09  -1.8904088689369869e-09  -1.9402040406929889e-09  -1.9913108649902850e-09 
 -2.0437638920269177e-09  -2.0975985820872974e-09  -2.1528513295148209e-09  -2.2095594873159577e-09 
 -2.2677613924124129e-09  -2.3274963915584868e-09  -2.3888048679411072e-09  -2.4517282684805421e-09 
 -2.5163091318502558e-09  -2.5825911172348182e-09  -2.6506190338453564e-09  -2.7204388712124461e-09 
 -2.7920978302769934e-09  -2.8656443553000293e-09  -2.9411281666131190e-09  -3.0186002942313888e-09 
 -3.0981131123519931e-09  -3.1797203747613091e-09  -3.2634772511747966e-09  -3.3494403645340879e-09 
 -3.4376678292865321e-09  -3.5282192906730740e-09  -3.6211559650510226e-09  -3.7165406812789513e-09 
 -3.8144379231917646e-09  -3.9149138731945750e-09  -4.0180364570049137e-09  -4.1238753895735077e-09 
 -4.2325022222146756e-09  -4.3439903909781637e-09  -4.4584152662952084e-09  -4.5758542039323064e-09 
 -4.6963865972871589e-09  -4.8200939310622322e-09  -4.9470598363520530e-09  -5.0773701471816354e-09 
 -5.2111129585342134e-09  -5.3483786859074721e-09  -5.4892601264385582e-09  -5.6338525216392743e-09 
 -5.7822536217837235e-09  -5.9345637519920715e-09  -6.0908858800550200e-09  -6.2513256860448936e-09 
 -6.4159916337603427e-09  -6.5849950440530545e-09  -6.7584501700859690e-09  -6.9364742745738955e-09 
 -7.1191877090587851e-09  -7.3067139952732033e-09  -7.4991799086471055e-09  -7.6967155640142053e-09 
 -7.8994545035760716e-09  -8.1075337871832591e-09  -8.3210940849947062e-09  -8.5402797725777539e-09 
 -8.7652390285134330e-09  -8.9961239345726636e-09  -9.2330905785314088e-09  -9.4762991596940673e-09 
 -9.7259140971965274e-09  -9.9821041411621415e-09  -1.0245042486785689e-08  -1.0514906891422599e-08 
 -1.0791879794762388e-08  -1.1076148442167764e-08  -1.1367905011262722e-08  -1.1667346741855035e-08 
 -1.1974676069281410e-08  -1.2290100761264917e-08  -1.2613834058377737e-08  -1.2946094818203824e-08 
 -1.3287107663299086e-08  -1.3637103133049225e-08  -1.3996317839527695e-08  -1.4364994627459354e-08 
 -1.4743382738397863e-08  -1.5131737979227753e-08  -1.5530322895105334e-08  -1.5939406946955139e-08 
 -1.6359266693641967e-08  -1.6790185978941811e-08  -1.7232456123437904e-08  -1.7686376121471828e-08 
 -1.8152252843282693e-08  -1.8630401242470954e-08  -1.9121144568927684e-08  -1.9624814587372409e-08 
 -2.0141751801648054e-08  -2.0672305684924317e-08  -2.1216834915964813e-08  -2.1775707621618572e-08 
 -2.2349301625698815e-08  -2.2938004704418196e-08  -2.3542214848552616e-08  -2.4162340532511063e-08 
 -2.4798800990493645e-08  -2.5452026499924136e-08  -2.6122458672348725e-08  -2.6810550751998355e-08 
 -2.7516767922215343e-08  -2.8241587619952543e-08  -2.8985499858557229e-08  -2.9749007559057842e-08 
 -3.0532626890178284e-08  -3.1336887617308604e-08  -3.2162333460669341e-08  -3.3009522462910681e-08 
 -3.3879027366395629e-08  -3.4771436000422187e-08  -3.5687351678646367e-08  -3.6627393606975092e-08 
 -3.7592197302204438e-08  -3.8582415021686940e-08  -3.9598716204318076e-08  -4.0641787923140726e-08 
 -4.1712335349873207e-08  -4.2811082231675560e-08  -4.3938771380476887e-08  -4.5096165175193736e-08 
 -4.6284046077180273e-08  -4.7503217159258551e-08  -4.8754502648686665e-08  -5.0038748484432259e-08 
 -5.1356822889128193e-08  -5.2709616956097105e-08  -5.4098045251842189e-08  -5.5523046434411483e-08 
 -5.6985583888053238e-08  -5.8486646374592862e-08  -6.0027248701970149e-08  -6.1608432410389789e-08 
 -6.3231266476548853e-08  -6.4896848036416825e-08  -6.6606303127057266e-08  -6.8360787447991776e-08 
 -7.0161487142622040e-08  -7.2009619600236877e-08  -7.3906434279146470e-08  -7.5853213551484083e-08 
 -7.7851273570216847e-08  -7.9901965159048715e-08  -8.2006674725787298e-08  -8.4166825199774443e-08 
 -8.6383876994016379e-08  -8.8659328992664472e-08  -9.0994719564512666e-08  -9.3391627603199270e-08 
 -9.5851673594815846e-08  -9.8376520713646355e-08  -1.0096787594677644e-07  -1.0362749124833562e-07 
 -1.0635716472415236e-07  -1.0915874184762315e-07  -1.1203411670761991e-07  -1.1498523328927845e-07 
 -1.1801408678853608e-07  -1.2112272496130608e-07  -1.2431324950820541e-07  -1.2758781749576882e-07 
 -1.3094864281511345e-07  -1.3439799767904085e-07  -1.3793821415859046e-07  -1.4157168576008201e-07 
 -1.4530086904371671e-07  -1.4912828528483223e-07  -1.5305652217893508e-07  -1.5708823559166600e-07 
 -1.6122615135488119e-07  -1.6547306711006653e-07  -1.6983185420033413e-07  -1.7430545961227736e-07 
 -1.7889690796900500e-07  -1.8360930357569926e-07  -1.8844583251908645e-07  -1.9340976482223730e-07 
 -1.9850445665616172e-07  -2.0373335260969042e-07  -2.0909998801918421e-07  -2.1460799135964649e-07 
 -2.2026108669885958e-07  -2.2606309621620781e-07  -2.3201794278789007e-07  -2.3812965264027672e-07 
 -2.4440235807320834e-07  -2.5084030025507615e-07  -2.5744783209158469e-07  -2.6422942117013514e-07 
 -2.7118965278182601e-07  -2.7833323302312062e-07  -2.8566499197927960e-07  -2.9318988699171894e-07 
 -3.0091300601150521e-07  -3.0883957104126632e-07  -3.1697494166784042e-07  -3.2532461868807067e-07 
 -3.3389424783019206e-07  -3.4268962357334100e-07  -3.5171669306777380e-07  -3.6098156015845386e-07 
 -3.7049048951473404e-07  -3.8024991086893571e-07  -3.9026642336670122e-07  -4.0054680003206704e-07 
 -4.1109799235029015e-07  -4.2192713497153033e-07  -4.3304155053859181e-07  -4.4444875464198117e-07 
 -4.5615646090566690e-07  -4.6817258620697044e-07  -4.8050525603414676e-07  -4.9316280998528426e-07 
 -5.0615380741225830e-07  -5.1948703321356913e-07  -5.3317150378000511e-07  -5.4721647309715115e-07 
 -5.6163143900891392e-07  -5.7642614964628973e-07  -5.9161061002576370e-07  -6.0719508882181472e-07 
 -6.2319012531812566e-07  -6.3960653654223436e-07  -6.5645542458845302e-07  -6.7374818413406974e-07 
 -6.9149651015389721e-07  -7.0971240583845786e-07  -7.2840819072115776e-07  -7.4759650902000161e-07 
 -7.6729033819950362e-07  -7.8750299775863854e-07  -8.0824815825079792e-07  -8.2953985054190170e-07 
 -8.5139247531296706e-07  -8.7382081281359590e-07  -8.9684003287303547e-07  -9.2046570517562478e-07 
 -9.4471380980762955e-07  -9.6960074808265111e-07  -9.9514335365299045e-07  -1.0213589039145431e-06 
 -1.0482651317129934e-06  -1.0758802373593115e-06  -1.1042229009627207e-06  -1.1333122950895825e-06 
 -1.1631680977568188e-06  -1.1938105057687476e-06  -1.2252602484064364e-06  -1.2575386014789380e-06 
 -1.2906674017459878e-06  -1.3246690617220351e-06  -1.3595665848717210e-06  -1.3953835812072057e-06 
 -1.4321442832979949e-06  -1.4698735627042354e-06  -1.5085969468447237e-06  -1.5483406363111665e-06 
 -1.5891315226405928e-06  -1.6309972065580077e-06  -1.6739660167019014e-06  -1.7180670288453570e-06 
 -1.7633300856260053e-06  -1.8097858167983159e-06  -1.8574656600221691e-06  -1.9064018822019432e-06 
 -1.9566276013908101e-06  -2.0081768092752621e-06  -2.0610843942553575e-06  -2.1153861651365309e-06 
 -2.1711188754493034e-06  -2.2283202484136063e-06  -2.2870290025649221e-06  -2.3472848780599140e-06 
 -2.4091286636796608e-06  -2.4726022245491466e-06  -2.5377485305921111e-06  -2.6046116857409162e-06 
 -2.6732369579216373e-06  -2.7436708098350665e-06  -2.8159609305549334e-06  -2.8901562679652344e-06 
 -2.9663070620591041e-06  -3.0444648791223073e-06  -3.1246826468250875e-06  -3.2070146902466510e-06 
 -3.2915167688573926e-06  -3.3782461144844549e-06  -3.4672614702871095e-06  -3.5586231307690148e-06 
 -3.6523929828552387e-06  -3.7486345480626516e-06  -3.8474130257931285e-06  -3.9487953377797274e-06 
 -4.0528501737169568e-06  -4.1596480381069311e-06  -4.2692612983543070e-06  -4.3817642341435710e-06 
 -4.4972330881333768e-06  -4.6157461180034224e-06  -4.7373836498904892e-06  -4.8622281332511089e-06 
 -4.9903641971895678e-06  -5.1218787082908198e-06  -5.2568608299991606e-06  -5.3954020835845028e-06 
 -5.5375964107394052e-06  -5.6835402378510378e-06  -5.8333325419937118e-06  -5.9870749186886383e-06 
 -6.1448716514791056e-06  -6.3068297833705156e-06  -6.4730591901860553e-06  -6.6436726558903181e-06 
 -6.8187859499346005e-06  -6.9985179066791742e-06  -7.1829905069492704e-06  -7.3723289617833014e-06 
 -7.5666617984332671e-06  -7.7661209486793537e-06  -7.9708418395220677e-06  -8.1809634863173807e-06 
 -8.3966285884221199e-06  -8.6179836274186760e-06  -8.8451789679903645e-06  -9.0783689615203278e-06 
 -9.3177120524896238e-06  -9.5633708877516017e-06  -9.8155124287626440e-06  -1.0074308066850938e-05 
 -1.0339933741607939e-05  -1.0612570062489297e-05  -1.0892402433714472e-05  -1.1179621182557363e-05 
 -1.1474421691122355e-05  -1.1777004531703362e-05  -1.2087575605826286e-05  -1.2406346287077985e-05 
 -1.2733533567828419e-05  -1.3069360209955230e-05  -1.3414054899683594e-05  -1.3767852406657532e-05 
 -1.4130993747362230e-05  -1.4503726353020657e-05  -1.4886304242091162e-05  -1.5278988197496944e-05 
 -1.5682045948722010e-05  -1.6095752358912330e-05  -1.6520389617125222e-05  -1.6956247435874119e-05 
 -1.7403623254120750e-05  -1.7862822445871016e-05  -1.8334158534536187e-05  -1.8817953413224993e-05 
 -1.9314537571138810e-05  -1.9824250326246340e-05  -2.0347440064419783e-05  -2.0884464485220752e-05 
 -2.1435690854529797e-05  -2.2001496264219167e-05  -2.2582267899075230e-05  -2.3178403311183462e-05 
 -2.3790310701995146e-05  -2.4418409212302690e-05  -2.5063129220357203e-05  -2.5724912648369712e-05 
 -2.6404213277644823e-05  -2.7101497072604496e-05  -2.7817242513966789e-05  -2.8551940941354457e-05 
 -2.9306096905615829e-05  -3.0080228531150875e-05  -3.0874867888544414e-05  -3.1690561377818576e-05 
 -3.2527870122626852e-05  -3.3387370375723063e-05  -3.4269653936049808e-05  -3.5175328577801904e-05 
 -3.6105018491833560e-05  -3.7059364739788955e-05  -3.8039025721350058e-05  -3.9044677655009033e-05 
 -4.0077015072785179e-05  -4.1136751329322434e-05  -4.2224619125817821e-05  -4.3341371049246901e-05 
 -4.4487780127368456e-05  -4.5664640400008151e-05  -4.6872767507137551e-05  -4.8112999294284273e-05 
 -4.9386196435826750e-05  -5.0693243076748214e-05  -5.2035047493444235e-05  -5.3412542774199409e-05 
 -5.4826687519971584e-05  -5.6278466566145262e-05  -5.7768891725938946e-05  -5.9299002556177461e-05 
 -6.0869867146165477e-05  -6.2482582930426195e-05  -6.4138277526097929e-05  -6.5838109595808464e-05 
 -6.7583269736881912e-05  -6.9374981397760330e-05  -7.1214501822559052e-05  -7.3103123024707251e-05 
 -7.5042172790663590e-05  -7.7033015714732202e-05  -7.9077054266044920e-05  -8.1175729888818338e-05 
 -8.3330524137031998e-05  -8.5542959844725160e-05  -8.7814602333151966e-05  -9.0147060656082685e-05 
 -9.2541988884594281e-05  -9.5001087432740797e-05  -9.7526104425552245e-05  -1.0011883711086902e-04 
 -1.0278113331657592e-04  -1.0551489295486547e-04  -1.0832206957522515e-04  -1.1120467196790992e-04 
 -1.1416476581973478e-04  -1.1720447542409712e-04  -1.2032598544721337e-04  -1.2353154275263948e-04 
 -1.2682345828622909e-04  -1.3020410902376970e-04  -1.3367593998363212e-04  -1.3724146630686711e-04 
 -1.4090327540728002e-04  -1.4466402919412403e-04  -1.4852646637016160e-04  -1.5249340480796180e-04 
 -1.5656774400741674e-04  -1.6075246763759489e-04  -1.6505064616617344e-04  -1.6946543957983582e-04 
 -1.7400010019916234e-04  -1.7865797559169305e-04  -1.8344251158700114e-04  -1.8835725539778164e-04 
 -1.9340585885112697e-04  -1.9859208173435104e-04  -2.0391979525990445e-04  -2.0939298565412386e-04 
 -2.1501575787476825e-04  -2.2079233946250572e-04  -2.2672708453174266e-04  -2.3282447790642721e-04 
 -2.3908913940669729e-04  -2.4552582829251391e-04  -2.5213944787067725e-04  -2.5893505027191935e-04 
 -2.6591784140504976e-04  -2.7309318609545157e-04  -2.8046661341553597e-04  -2.8804382221511455e-04 
 -2.9583068685998839e-04  -3.0383326318743223e-04  -3.1205779468763018e-04  -3.2051071892052959e-04 
 -3.2919867417799403e-04  -3.3812850640157772e-04  -3.4730727636671167e-04  -3.5674226714455567e-04 
 -3.6644099185328884e-04  -3.7641120171112198e-04  -3.8666089440386980e-04  -3.9719832278048656e-04 
 -4.0803200389056610e-04  -4.1917072837842757e-04  -4.3062357024905760e-04  -4.4239989702185410e-04 
 -4.5450938028881749e-04  -4.6696200669457726e-04  -4.7976808935639928e-04  -4.9293827974311621e-04 
 -5.0648358003276212e-04  -5.2041535596953313e-04  -5.3474535024162595e-04  -5.4948569640240368e-04 
 -5.6464893335833534e-04  -5.8024802044815164e-04  -5.9629635313870433e-04  -6.1280777936410498e-04 
 -6.2979661653583536e-04  -6.4727766925271068e-04  -6.6526624774073859e-04  -6.8377818705422531e-04 
 -7.0282986707070677e-04  -7.2243823331366087e-04  -7.4262081863831321e-04  -7.6339576581725753e-04 
 -7.8478185106407568e-04  -8.0679850853464707e-04  -8.2946585584735256e-04  -8.5280472066496529e-04 
 -8.7683666838263015e-04  -9.0158403096797285e-04  -9.2706993700103935e-04  -9.5331834296350469e-04 
 -9.8035406582826245e-04  -1.0082028170022865e-03  -1.0368912376773922e-03  -1.0664469356452947e-03 
 -1.0968985236350991e-03  -1.1282756592331238e-03  -1.1606090864466905e-03  -1.1939306789751666e-03 
 -1.2282734852532571e-03  -1.2636717753330537e-03  -1.3001610896729628e-03  -1.3377782899029263e-03 
 -1.3765616116367513e-03  -1.4165507194034799e-03  -1.4577867637707051e-03  -1.5003124407335510e-03 
 -1.5441720534436103e-03  -1.5894115763523823e-03  -1.6360787218437582e-03  -1.6842230094297448e-03 
 -1.7338958375827833e-03  -1.7851505582768086e-03  -1.8380425543074042e-03  -1.8926293194590055e-03 
 -1.9489705415840863e-03  -2.0071281886553855e-03  -2.0671665978476209e-03  -2.1291525676994006e-03 
 -2.1931554533994265e-03  -2.2592472652330350e-03  -2.3275027702159517e-03  -2.3979995969312883e-03 
 -2.4708183435733851e-03  -2.5460426891878115e-03  -2.6237595080804929e-03  -2.7040589873502485e-03 
 -2.7870347474779401e-03  -2.8727839658814498e-03  -2.9614075033186898e-03  -3.0530100329905037e-03 
 -3.1477001721610925e-03  -3.2455906160754723e-03  -3.3467982739106106e-03  -3.4514444064493261e-03 
 -3.5596547651127884e-03  -3.6715597319284931e-03  -3.7872944599450249e-03  -3.9069990135322096e-03 
 -4.0308185079250547e-03  -4.1589032472808289e-03  -4.2914088604208691e-03  -4.4284964333206915e-03 
 -4.5703326372931712e-03  -4.7170898516791290e-03  -4.8689462797165432e-03  -5.0260860561026806e-03 
 -5.1886993445918496e-03  -5.3569824237839816e-03  -5.5311377590546162e-03  -5.7113740583539675e-03 
 -5.8979063093601344e-03  -6.0909557952082850e-03  -6.2907500857316504e-03  -6.4975230008410450e-03 
 -6.7115145423349834e-03  -6.9329707900716896e-03  -7.1621437580457158e-03  -7.3992912054937693e-03 
 -7.6446763977066848e-03  -7.8985678107440470e-03  -8.1612387737365049e-03  -8.4329670419144871e-03 
 -8.7140342929229262e-03  -9.0047255383672066e-03  -9.3053284418878092e-03  -9.6161325343786814e-03 
 -9.9374283162496253e-03  -1.0269506235886528e-02  -1.0612655532687740e-02  -1.0967162932253484e-02 
 -1.1333311180480725e-02  -1.1711377402475071e-02  -1.2101631271338439e-02  -1.2504332971034910e-02 
 -1.2919730936685693e-02  -1.3348059354807824e-02  -1.3789535405202549e-02  -1.4244356225432115e-02 
 -1.4712695578112819e-02  -1.5194700200617918e-02  -1.5690485816242775e-02  -1.6200132785462614e-02 
 -1.6723681375630579e-02  -1.7261126627351124e-02  -1.7812412795842857e-02  -1.8377427345915357e-02 
 -1.8955994479745275e-02  -1.9547868177494238e-02  -2.0152724731986052e-02  -2.0770154760198646e-02 
 -2.1399654676255566e-02  -2.2040617612962346e-02  -2.2692323781763335e-02  -2.3353930264333203e-02 
 -2.4024460232909425e-02  -2.4702791600970945e-02  -2.5387645111030289e-02  -2.6077571872208664e-02 
 -2.6770940367001263e-02  -2.7465922954324189e-02  -2.8160481904723908e-02  -2.8852355013703871e-02 
 -2.9539040850709342e-02  -3.0217783714682152e-02  -3.0885558382549132e-02  -3.1539054754887857e-02 
 -3.2174662523638015e-02  -3.2788456010428534e-02  -3.3376179351094791e-02  -3.3933232232400176e-02 
 -3.4454656420766942e-02  -3.4935123359649600e-02  -3.5368923151363675e-02  -3.5749955279655278e-02 
 -3.6071721469499392e-02  -3.6327321118501316e-02  -3.6509449767231299e-02  -3.6610401100763280e-02 
 -3.6622072987081505e-02  -3.6535978056107123e-02  -3.6343259302160168e-02  -3.6034711149478385e-02 
 -3.5600806352713975e-02  -3.5031729011564525e-02  -3.4317413862397478e-02  -3.3447591873932626e-02 
 -3.2411842025013946e-02  -3.1199648987861452e-02  -2.9800466287648663e-02  -2.8203784364831574e-02 
 -2.6399202833427084e-02  -2.4376506105940454e-02  -2.2125741440564964e-02  -1.9637298354228536e-02 
 -1.6901988233020106e-02  -1.3911122860088478e-02  -1.0656590476320983e-02  -7.1309279029508786e-03 
 -3.3273872054312829e-03  7.6000461383761322e-04  5.1363943170914762e-03  9.8060607602537056e-03 
 1.4772383781866079e-02  2.0037824179634928e-02  2.5603914824013210e-02  3.1471262461273478e-02 
 3.7639559315107728e-02  4.4107603276992507e-02  5.0873325325807191e-02  5.7933822831351449e-02 
 6.5285397511533283e-02  7.2923596922712108e-02  8.0843258350505459e-02  8.9038553897888367e-02 
 9.7503035953285383e-02  1.0622967539467792e-01  1.1521089549919523e-01  1.2443859939813925e-01 
 1.3390417808448013e-01  1.4359849979946063e-01  1.5351187508621517e-01  1.6363399291866484e-01 
 1.7395382421568839e-01  1.8445949011352225e-01  1.9513809371560895e-01  2.0597551561340582e-01 
 2.1695617521385782e-01  2.2806276175639503e-01  2.3927594078923228e-01  2.5057404373414721e-01 
 2.6193274993088211e-01  2.7332477214534423e-01  2.8471955787785008e-01  2.9608301984867785e-01 
 3.0737730970262778e-01  3.1856064920460647e-01  3.2958723294796149e-01  3.4040721583405659e-01 
 3.5096679728990654e-01  3.6120841237385154e-01  3.7107103760040616e-01  3.8049061653829741e-01 
 3.8940060706370022e-01  3.9773264866581520e-01  4.0541734450252065e-01  4.1238514910149193e-01 
 4.1856734881851482e-01  4.2389711852710454e-01  4.2831063465101304e-01  4.3174822168987054e-01 
 4.3415550694670041e-01  4.3548455635142885e-01  4.3569496317736128e-01  4.3475486114133149e-01 
 4.3264183390977035e-01  4.2934369441830872e-01  4.2485910965945572e-01  4.1919804966834162e-01 
 4.1238204325691225e-01  4.0444422753609310e-01  3.9542918330772681e-01  3.8539255384977733e-01 
 3.7440045030044405e-01  3.6252865258999123e-01  3.4986162048491815e-01  3.3649133460692660e-01 
 3.2251599208338422e-01  3.0803858560379416e-01  2.9316539794579716e-01  2.7800444636944349e-01 
 2.6266391256876903e-01  2.4725059406258262e-01  2.3186841199086169e-01  2.1661700829208516e-01 
 2.0159046224461882e-01  1.8687615247648978e-01  1.7255378593136686e-01  1.5869461010109229e-01 
 1.4536081929350533e-01  1.3260516000588868e-01  1.2047073482803582e-01  1.0899099890522691e-01 
 9.8189938033890561e-02  8.8082413100348533e-02  7.8674651933777914e-02  6.9964866820726238e-02 
 6.1943973975052864e-02  5.4596390190135548e-02  4.7900881699003618e-02  4.1831440878465520e-02 
 3.6358167771797276e-02  3.1448135364807277e-02  2.7066220008480996e-02  2.3175881205041764e-02 
 1.9739878026649040e-02  1.6720912584152512e-02  1.4082194082987222e-02  1.1787919984059840e-02 
 9.8036735355823360e-03  8.0967393835240896e-03  6.6363410503996294e-03  5.3938057622072719e-03 
 4.3426633888537739e-03  3.4586871502172026e-03  2.7198842490431243e-03  2.1064447573132129e-03 
 1.6006569478454692e-03  1.1867968775377696e-03  8.5099944556417406e-04  5.8111742220757177e-04 
 3.6657412302896635e-04  1.9821453524422483e-04  6.8158830073117630e-05  -3.0338649432899036e-05 
 -1.0302262334082590e-04  -1.5476074226730935e-04  -1.8965711874985519e-04  -2.1115507945895798e-04 
 -2.2212912281845563e-04  -2.2496639977760647e-04  -2.2163828099880091e-04  -2.1376274067189937e-04 
 -2.0265838666160010e-04  -1.8939101001625073e-04  -1.7481352581185240e-04  -1.5960014272333028e-04 
 -1.4427554069026174e-04  -1.2923976327168724e-04  -1.1478945105367821e-04  -1.0113596066729669e-04 
 -8.8420834939544800e-05  -7.6729016603843372e-05  -6.6100132710483100e-05  -5.6538120591719058e-05 
 -4.8019418628512310e-05  -4.0499906812377629e-05  -3.3920751085344053e-05  -2.8213281795391931e-05 
 -2.3303018511691637e-05  -1.9112940009310289e-05  -1.5566088264088072e-05  -1.2587587787214119e-05 
 -1.0106155796604543e-05  -8.0551737921997983e-06  -6.3733866374506770e-06  -5.0052908100752077e-06 
 -3.9012689212394372e-06  -3.0175227362341472e-06  -2.3158518021553594e-06  -1.7633194173994007e-06 
 -1.3318422034343028e-06  -9.9773404712035379e-07  -7.4122984249143500e-07  -5.4600938808663623e-07 
 -3.9873709417336269e-07  -2.8862892569759095e-07  -2.0705430075431701e-07  -1.4717751181661522e-07 
 -1.0364064935253649e-07  -7.2287955770442614e-08  -4.9929997971964014e-08  -3.4144949960565524e-08 
 -2.3113574587319891e-08  -1.5484122792703199e-08  -1.0263247597190865e-08  -6.7291191506970562e-09 
 -4.3631475996582460e-09  -2.7970449089191420e-09  -1.7723227469854850e-09  -1.1097173649728268e-09 
 -6.8641505026120427e-10  -4.1931556365337033e-10  -2.5289823554887810e-10  -1.5054576710383927e-10 
 -8.8424386696895067e-11  -5.1228981724404624e-11  -2.9265357848674618e-11  -1.6479271455563515e-11 
 -9.1435362642844975e-12  -4.9971618243668945e-12  -2.6890879280004703e-12  -1.4242598176635414e-12 
 -7.4216751083947100e-13  -3.8034813767006985e-13  -1.9161789049711498e-13  -9.4847483645128365e-14 
 -4.6122824861127758e-14  -2.2011735384968245e-14  -1.0315146432875575e-14  -4.7395472255091490e-15 
 -2.1334419577413416e-15  -9.3972471430916547e-16  -4.0690786222477568e-16  -1.7007939587210376e-16 
 -6.7947302165290624e-17  -2.6556495141349801e-17  -8.0621652426938497e-18  -7.3328812506627025e-18 
 0.0000000000000000e+00  0.0000000000000000e+00  0.0000000000000000e+00  0.0000000000000000e+00 
 0.0000000000000000e+00  0.0000000000000000e+00  0.0000000000000000e+00  0.0000000000000000e+00 
 0.0000000000000000e+00  0.0000000000000000e+00  0.0000000000000000e+00  0.0000000000000000e+00 
 0.0000000000000000e+00  0.0000000000000000e+00  0.0000000000000000e+00  0.0000000000000000e+00 
 0.0000000000000000e+00  0.0000000000000000e+00  0.0000000000000000e+00  0.0000000000000000e+00 
 0.0000000000000000e+00  0.0000000000000000e+00  0.0000000000000000e+00  0.0000000000000000e+00 
 0.0000000000000000e+00  0.0000000000000000e+00  0.0000000000000000e+00  0.0000000000000000e+00 
 0.0000000000000000e+00  0.0000000000000000e+00  0.0000000000000000e+00  0.0000000000000000e+00 
 0.0000000000000000e+00  0.0000000000000000e+00  0.0000000000000000e+00  0.0000000000000000e+00 
 0.0000000000000000e+00  0.0000000000000000e+00  0.0000000000000000e+00  0.0000000000000000e+00 
 0.0000000000000000e+00  0.0000000000000000e+00  0.0000000000000000e+00  0.0000000000000000e+00 
 0.0000000000000000e+00  0.0000000000000000e+00  0.0000000000000000e+00  0.0000000000000000e+00 
 0.0000000000000000e+00  0.0000000000000000e+00  0.0000000000000000e+00  0.0000000000000000e+00 
 0.0000000000000000e+00  0.0000000000000000e+00  0.0000000000000000e+00  0.0000000000000000e+00 
 0.0000000000000000e+00  0.0000000000000000e+00  0.0000000000000000e+00  0.0000000000000000e+00 
 0.0000000000000000e+00  0.0000000000000000e+00  0.0000000000000000e+00  0.0000000000000000e+00 
 0.0000000000000000e+00  0.0000000000000000e+00  0.0000000000000000e+00  0.0000000000000000e+00 
 0.0000000000000000e+00  0.0000000000000000e+00  0.0000000000000000e+00  0.0000000000000000e+00 
 0.0000000000000000e+00  0.0000000000000000e+00  0.0000000000000000e+00  0.0000000000000000e+00 
 0.0000000000000000e+00  0.0000000000000000e+00  0.0000000000000000e+00  0.0000000000000000e+00 
 0.0000000000000000e+00  0.0000000000000000e+00  0.0000000000000000e+00  0.0000000000000000e+00 
 0.0000000000000000e+00  0.0000000000000000e+00  0.0000000000000000e+00  0.0000000000000000e+00 
 0.0000000000000000e+00  0.0000000000000000e+00  0.0000000000000000e+00  0.0000000000000000e+00 
 0.0000000000000000e+00  0.0000000000000000e+00  0.0000000000000000e+00  0.0000000000000000e+00 
 0.0000000000000000e+00  0.0000000000000000e+00  0.0000000000000000e+00  0.0000000000000000e+00 
 0.0000000000000000e+00  0.0000000000000000e+00  0.0000000000000000e+00  0.0000000000000000e+00 
 0.0000000000000000e+00  0.0000000000000000e+00  0.0000000000000000e+00  0.0000000000000000e+00 
 0.0000000000000000e+00  0.0000000000000000e+00  0.0000000000000000e+00  0.0000000000000000e+00 
 0.0000000000000000e+00  0.0000000000000000e+00  0.0000000000000000e+00  0.0000000000000000e+00 
 0.0000000000000000e+00  0.0000000000000000e+00  0.0000000000000000e+00  0.0000000000000000e+00 
 0.0000000000000000e+00  0.0000000000000000e+00  0.0000000000000000e+00  0.0000000000000000e+00 
 0.0000000000000000e+00  0.0000000000000000e+00  0.0000000000000000e+00  0.0000000000000000e+00 
 0.0000000000000000e+00  0.0000000000000000e+00  0.0000000000000000e+00  0.0000000000000000e+00 
 0.0000000000000000e+00  0.0000000000000000e+00  0.0000000000000000e+00  0.0000000000000000e+00 
 0.0000000000000000e+00  0.0000000000000000e+00  0.0000000000000000e+00  0.0000000000000000e+00 
 0.0000000000000000e+00  0.0000000000000000e+00  0.0000000000000000e+00  0.0000000000000000e+00 
 0.0000000000000000e+00  0.0000000000000000e+00  0.0000000000000000e+00  0.0000000000000000e+00 
 0.0000000000000000e+00  0.0000000000000000e+00  0.0000000000000000e+00  0.0000000000000000e+00 
 0.0000000000000000e+00  0.0000000000000000e+00  0.0000000000000000e+00  0.0000000000000000e+00 
 0.0000000000000000e+00  0.0000000000000000e+00  0.0000000000000000e+00  0.0000000000000000e+00 
 0.0000000000000000e+00  0.0000000000000000e+00  0.0000000000000000e+00  0.0000000000000000e+00 
 0.0000000000000000e+00  0.0000000000000000e+00  0.0000000000000000e+00  0.0000000000000000e+00 
 0.0000000000000000e+00  0.0000000000000000e+00  0.0000000000000000e+00  0.0000000000000000e+00 
 0.0000000000000000e+00  0.0000000000000000e+00  0.0000000000000000e+00  0.0000000000000000e+00 
 0.0000000000000000e+00  0.0000000000000000e+00  0.0000000000000000e+00  0.0000000000000000e+00 
 0.0000000000000000e+00  0.0000000000000000e+00  0.0000000000000000e+00  0.0000000000000000e+00 
 0.0000000000000000e+00  0.0000000000000000e+00  0.0000000000000000e+00  0.0000000000000000e+00 
 0.0000000000000000e+00 
  </PP_BETA>
  <PP_BETA>
  3  2      Beta    L
  1189  
 -6.9574204587079334e-13  -7.2341204365627233e-13  -7.5218249064827865e-13  -7.8209715224460583e-13 
 -8.1320153441412486e-13  -8.4554295292014208e-13  -8.7917060529680786e-13  -9.1413564568804670e-13 
 -9.5049126266288071e-13  -9.8829276012550778e-13  -1.0275976414432029e-12  -1.0684656969200349e-12 
 -1.1109590947494501e-12  -1.1551424755840924e-12  -1.2010830508667028e-12  -1.2488507050716914e-12 
 -1.2985181020129029e-12  -1.3501607953792958e-12  -1.4038573436666843e-12  -1.4596894296803625e-12 
 -1.5177419847904101e-12  -1.5781033181286945e-12  -1.6408652509240996e-12  -1.7061232561803248e-12 
 -1.7739766039087609e-12  -1.8445285121373067e-12  -1.9178863039249295e-12  -1.9941615706207303e-12 
 -2.0734703416159347e-12  -2.1559332608469635e-12  -2.2416757703181660e-12  -2.3308283009233007e-12 
 -2.4235264708560956e-12  -2.5199112919117026e-12  -2.6201293839928436e-12  -2.7243331981469787e-12 
 -2.8326812484737778e-12  -2.9453383532556560e-12  -3.0624758856781946e-12  -3.1842720345218352e-12 
 -3.3109120752214062e-12  -3.4425886517058171e-12  -3.5795020694466812e-12  -3.7218606001615797e-12 
 -3.8698807986355673e-12  -4.0237878321427928e-12  -4.1838158229694092e-12  -4.3502082045587568e-12 
 -4.5232180918206393e-12  -4.7031086661679747e-12  -4.8901535758665324e-12  -5.0846373523067920e-12 
 -5.2868558428311297e-12  -5.4971166607747513e-12  -5.7157396534049915e-12  -5.9430573884707704e-12 
 -6.1794156601023684e-12  -6.4251740148310956e-12  -6.6807062985290002e-12  -6.9464012251006473e-12 
 -7.2226629677921028e-12  -7.5099117740164516e-12  -7.8085846046313395e-12  -8.1191357986408442e-12 
 -8.4420377643329112e-12  -8.7777816979035915e-12  -9.1268783306614150e-12  -9.4898587059483771e-12 
 -9.8672749869595246e-12  -1.0259701296689831e-11  -1.0667734591286300e-11  -1.1091995568133604e-11 
 -1.1533129610054834e-11  -1.1991807767063497e-11  -1.2468727777160350e-11  -1.2964615127727780e-11 
 -1.3480224159136434e-11  -1.4016339212242723e-11  -1.4573775821523036e-11  -1.5153381955659337e-11 
 -1.5756039307463557e-11  -1.6382664635102976e-11  -1.7034211156666624e-11  -1.7711670000194540e-11 
 -1.8416071711375220e-11  -1.9148487821205072e-11  -1.9910032475994383e-11  -2.0701864132199498e-11 
 -2.1525187318659381e-11  -2.2381254468917126e-11  -2.3271367826413789e-11  -2.4196881425452894e-11 
 -2.5159203150948841e-11  -2.6159796880092398e-11  -2.7200184709191547e-11  -2.8281949269074834e-11 
 -2.9406736132579418e-11  -3.0576256317786225e-11  -3.1792288890810102e-11  -3.3056683672104059e-11 
 -3.4371364050394808e-11  -3.5738329908530048e-11  -3.7159660665687778e-11  -3.8637518440576302e-11 
 -4.0174151340436166e-11  -4.1771896880847293e-11  -4.3433185541543685e-11  -4.5160544463644821e-11 
 -4.6956601293927672e-11  -4.8824088181987664e-11  -5.0765845936368552e-11  -5.2784828345983833e-11 
 -5.4884106673403556e-11  -5.7066874326841092e-11  -5.9336451717947547e-11  -6.1696291312803611e-11 
 -6.4149982883790794e-11  -6.6701258970333668e-11  -6.9354000556818045e-11  -7.2112242976323202e-11 
 -7.4980182049148278e-11  -7.7962180465471888e-11  -8.1062774421852782e-11  -8.4286680521667990e-11 
 -8.7638802949985088e-11  -9.1124240933783213e-11  -9.4748296498870632e-11  -9.8516482535299488e-11 
 -1.0243453118354607e-10  -1.0650840255421503e-10  -1.1074429379452962e-10  -1.1514864851540177e-10 
 -1.1972816659342273e-10  -1.2448981436268309e-10  -1.2944083521192775e-10  -1.3458876060316488e-10 
 -1.3994142152849301e-10  -1.4550696042256982e-10  -1.5129384354884851e-10  -1.5731087387842148e-10 
 -1.6356720448106172e-10  -1.7007235244883503e-10  -1.7683621337346053e-10  -1.8386907639944618e-10 
 -1.9118163987589452e-10  -1.9878502763079002e-10  -2.0669080589252427e-10  -2.1491100088440077e-10 
 -2.2345811711888254e-10  -2.3234515641941280e-10  -2.4158563769874580e-10  -2.5119361752387070e-10 
 -2.6118371149881896e-10  -2.7157111649787424e-10  -2.8237163378301370e-10  -2.9360169304074311e-10 
 -3.0527837737488967e-10  -3.1741944929337580e-10  -3.3004337772850206e-10  -3.4316936613184202e-10 
 -3.5681738168649086e-10  -3.7100818568110116e-10  -3.8576336509191509e-10  -4.0110536542083192e-10 
 -4.1705752483946827e-10  -4.3364410969114588e-10  -4.5089035140482290e-10  -4.6882248487710913e-10 
 -4.8746778838076226e-10  -5.0685462506037094e-10  -5.2701248607834897e-10  -5.4797203547687323e-10 
 -5.6976515682401102e-10  -5.9242500171499537e-10  -6.1598604020243229e-10  -6.4048411323214367e-10 
 -6.6595648716443098e-10  -6.9244191046367585e-10  -7.1998067264253664e-10  -7.4861466555038743e-10 
 -7.7838744709925270e-10  -8.0934430752415494e-10  -8.4153233827869771e-10  -8.7500050367066560e-10 
 -9.0979971534663125e-10  -9.4598290973887150e-10  -9.8360512859239678e-10  -1.0227236026946118e-09 
 -1.0633978389349638e-09  -1.1056897108270204e-09  -1.1496635526306786e-09  -1.1953862572176995e-09 
 -1.2429273778294153e-09  -1.2923592338814387e-09  -1.3437570209762994e-09  -1.3971989252913841e-09 
 -1.4527662425161696e-09  -1.5105435015196945e-09  -1.5706185929363971e-09  -1.6330829028659074e-09 
 -1.6980314518902128e-09  -1.7655630396196391e-09  -1.8357803949875789e-09  -1.9087903325225522e-09 
 -1.9847039148353668e-09  -2.0636366215685184e-09  -2.1457085250649126e-09  -2.2310444730230342e-09 
 -2.3197742784165490e-09  -2.4120329169671445e-09  -2.5079607324710878e-09  -2.6077036502918131e-09 
 -2.7114133993433345e-09  -2.8192477429021491e-09  -2.9313707185987787e-09  -3.0479528879540348e-09 
 -3.1691715958395944e-09  -3.2952112402576022e-09  -3.4262635528497191e-09  -3.5625278905622917e-09 
 -3.7042115389114429e-09  -3.8515300273092548e-09  -4.0047074569309699e-09  -4.1639768416217417e-09 
 -4.3295804623617212e-09  -4.5017702358286350e-09  -4.6808080976185329e-09  -4.8669664007077447e-09 
 -5.0605283297621238e-09  -5.2617883319239453e-09  -5.4710525647317493e-09  -5.6886393618545492e-09 
 -5.9148797173489231e-09  -6.1501177891756766e-09  -6.3947114227420573e-09  -6.6490326952660182e-09 
 -6.9134684817905891e-09  -7.1884210437094641e-09  -7.4743086406992039e-09  -7.7715661669888454e-09 
 -8.0806458129348806e-09  -8.4020177529082641e-09  -8.7361708605396164e-09  -9.0836134524109805e-09 
 -9.4448740613254045e-09  -9.8205022403307401e-09  -1.0211069398720828e-08  -1.0617169671285915e-08 
 -1.1039420822134710e-08  -1.1478465184463043e-08  -1.1934970637698807e-08  -1.2409631623509889e-08 
 -1.2903170202220551e-08  -1.3416337151243597e-08  -1.3949913107199402e-08  -1.4504709753459249e-08 
 -1.5081571054919801e-08  -1.5681374541887105e-08  -1.6305032645023474e-08  -1.6953494083388281e-08 
 -1.7627745307684078e-08  -1.8328812000904196e-08  -1.9057760638664646e-08  -1.9815700111594252e-08 
 -2.0603783412251360e-08  -2.1423209389133742e-08  -2.2275224570450082e-08  -2.3161125060427967e-08 
 -2.4082258511043462e-08  -2.5040026172172138e-08  -2.6035885023280967e-08  -2.7071349989904003e-08 
 -2.8147996248274592e-08  -2.9267461621620326e-08  -3.0431449071766670e-08  -3.1641729289840377e-08 
 -3.2900143390014295e-08  -3.4208605710392029e-08  -3.5569106725294162e-08  -3.6983716073376933e-08 
 -3.8454585706190525e-08  -3.9983953161967884e-08  -4.1574144969624368e-08  -4.3227580188148014e-08 
 -4.4946774086765237e-08  -4.6734341971481125e-08  -4.8593003163816736e-08  -5.0525585137796222e-08 
 -5.2535027821479325e-08  -5.4624388069582835e-08  -5.6796844313996105e-08  -5.9055701399254151e-08 
 -6.1404395610301719e-08  -6.3846499900272685e-08  -6.6385729326216614e-08  -6.9025946701031600e-08 
 -7.1771168470203317e-08  -7.4625570822293839e-08  -7.7593496042476384e-08  -8.0679459118786486e-08 
 -8.3888154611139717e-08  -8.7224463793571271e-08  -9.0693462080564240e-08  -9.4300426748767941e-08 
 -9.8050844965857150e-08  -1.0195042213875038e-07  -1.0600509059389094e-07  -1.1022101860280138e-07 
 -1.1460461976664558e-07  -1.1916256277408036e-07  -1.2390178154724829e-07  -1.2882948579135004e-07 
 -1.3395317196385355e-07  -1.3928063468003297e-07  -1.4481997857219701e-07  -1.5057963062065455e-07 
 -1.5656835297518478e-07  -1.6279525628652808e-07  -1.6926981356818516e-07  -1.7600187460962550e-07 
 -1.8300168096283981e-07  -1.9027988152504991e-07  -1.9784754874129350e-07  -2.0571619545154374e-07 
 -2.1389779240801250e-07  -2.2240478648929555e-07  -2.3125011963909101e-07  -2.4044724855831497e-07 
 -2.5001016518059422e-07  -2.5995341796230413e-07  -2.7029213401956046e-07  -2.8104204214586794e-07 
 -2.9221949674546351e-07  -3.0384150271879337e-07  -3.1592574133800766e-07  -3.2849059715186802e-07 
 -3.4155518596103278e-07  -3.5513938390630982e-07  -3.6926385771416485e-07  -3.8395009614554384e-07 
 -3.9922044269588554e-07  -4.1509812959612325e-07  -4.3160731316644354e-07  -4.4877311057664242e-07 
 -4.6662163806905197e-07  -4.8518005070225223e-07  -5.0447658367608324e-07  -5.2454059530090094e-07 
 -5.4540261167651393e-07  -5.6709437314884758e-07  -5.8964888261509374e-07  -6.1310045575091881e-07 
 -6.3748477323623417e-07  -6.6283893505908428e-07  -6.8920151698036398e-07  -7.1661262924538896e-07 
 -7.4511397763175058e-07  -7.7474892692646187e-07  -8.0556256692910706e-07  -8.3760178108153617e-07 
 -8.7091531782870154e-07  -9.0555386481933073e-07  -9.4157012605953134e-07  -9.7901890213687124e-07 
 -1.0179571736372072e-06  -1.0584441878813678e-06  -1.1005415491138928e-06  -1.1443133122812766e-06 
 -1.1898260805426637e-06  -1.2371491066616090e-06  -1.2863543984334725e-06  -1.3375168283091697e-06 
 -1.3907142473823767e-06  -1.4460276039140028e-06  -1.5035410665746119e-06  -1.5633421525927555e-06 
 -1.6255218610045640e-06  -1.6901748112078644e-06  -1.7573993870320734e-06  -1.8272978865436366e-06 
 -1.8999766778154799e-06  -1.9755463608981065e-06  -2.0541219362393985e-06  -2.1358229798100824e-06 
 -2.2207738252020557e-06  -2.3091037529774041e-06  -2.4009471875570795e-06  -2.4964439019496703e-06 
 -2.5957392306327732e-06  -2.6989842909118436e-06  -2.8063362130944765e-06  -2.9179583798314621e-06 
 -3.0340206749900590e-06  -3.1546997424395116e-06  -3.2801792551439242e-06  -3.4106501949735477e-06 
 -3.5463111436617696e-06  -3.6873685853523250e-06  -3.8340372211988675e-06  -3.9865402964976449e-06 
 -4.1451099408530625e-06  -4.3099875218960611e-06  -4.4814240130959127e-06  -4.6596803762276617e-06 
 -4.8450279590799503e-06  -5.0377489090113006e-06  -5.2381366029872740e-06  -5.4464960947562046e-06 
 -5.6631445798476014e-06  -5.8884118791044144e-06  -6.1226409414892206e-06  -6.3661883669336222e-06 
 -6.6194249500312112e-06  -6.8827362454062940e-06  -7.1565231556240831e-06  -7.4412025425424925e-06 
 -7.7372078630420751e-06  -8.0449898301076890e-06  -8.3650171002749623e-06  -8.6977769884949026e-06 
 -9.0437762115123913e-06  -9.4035416608980834e-06  -9.7776212069190937e-06  -1.0166584534481308e-05 
 -1.0571024012425577e-05  -1.0991555597511639e-05  -1.1428819774476942e-05  -1.1883482533613440e-05 
 -1.2356236387363333e-05  -1.2847801427494820e-05  -1.3358926424481906e-05  -1.3890389970777474e-05 
 -1.4443001669736640e-05  -1.5017603372018214e-05  -1.5615070461365440e-05  -1.6236313191743849e-05 
 -1.6882278077893515e-05  -1.7553949341435819e-05  -1.8252350414761133e-05  -1.8978545505013469e-05 
 -1.9733641220581195e-05  -2.0518788262600534e-05  -2.1335183184079181e-05  -2.2184070219352705e-05 
 -2.3066743186696112e-05  -2.3984547467026122e-05  -2.4938882061749332e-05  -2.5931201732933746e-05 
 -2.6963019229110606e-05  -2.8035907600145967e-05  -2.9151502604762004e-05  -3.0311505214431405e-05 
 -3.1517684217520122e-05  -3.2771878927709919e-05  -3.4076002000895913e-05  -3.5432042364924356e-05 
 -3.6842068266712505e-05  -3.8308230441477139e-05  -3.9832765408990380e-05  -4.1417998901980385e-05 
 -4.3066349432003268e-05  -4.4780331998329098e-05  -4.6562561945609836e-05  -4.8415758976331988e-05 
 -5.0342751324301947e-05  -5.2346480095665801e-05  -5.4430003784230876e-05  -5.6596502968132155e-05 
 -5.8849285195174821e-05  -6.1191790064483458e-05  -6.3627594512400158e-05  -6.6160418310898944e-05 
 -6.8794129787122421e-05  -7.1532751772999584e-05  -7.4380467794270432e-05  -7.7341628508625045e-05 
 -8.0420758403066224e-05  -8.3622562761016152e-05  -8.6951934910124145e-05  -9.0413963762180972e-05 
 -9.4013941657016328e-05  -9.7757372522745879e-05  -1.0164998036524313e-04  -1.0569771810024608e-04 
 -1.0990677674206056e-04  -1.1428359496340025e-04  -1.1883486904150764e-04  -1.2356756320632605e-04 
 -1.2848892040714840e-04  -1.3360647351485144e-04  -1.3892805697753377e-04  -1.4446181894812085e-04 
 -1.5021623390327181e-04  -1.5620011577373118e-04  -1.6242263160710818e-04  -1.6889331578494673e-04 
 -1.7562208481686285e-04  -1.8261925273548385e-04  -1.8989554711691361e-04  -1.9746212575249850e-04 
 -2.0533059399874157e-04  -2.1351302283335356e-04  -2.2202196764660521e-04  -2.3087048779837818e-04 
 -2.4007216697260301e-04  -2.4964113436211002e-04  -2.5959208671832279e-04  -2.6994031130168808e-04 
 -2.8070170977026742e-04  -2.9189282304549995e-04  -3.0353085719582825e-04  -3.1563371038060813e-04 
 -3.2822000089854160e-04  -3.4130909638677577e-04  -3.5492114421879344e-04  -3.6907710315128899e-04 
 -3.8379877627239166e-04  -3.9910884530586520e-04  -4.1503090632826818e-04  -4.3158950695854477e-04 
 -4.4881018508208497e-04  -4.6671950917401099e-04  -4.8534512028925613e-04  -5.0471577578996936e-04 
 -5.2486139488386026e-04  -5.4581310605033445e-04  -5.6760329643464568e-04  -5.9026566329383617e-04 
 -6.1383526758192642e-04  -6.3834858976569359e-04  -6.6384358796643520e-04  -6.9035975852734270e-04 
 -7.1793819911057145e-04  -7.4662167443271664e-04  -7.7645468475230704e-04  -8.0748353722799506e-04 
 -8.3975642027147896e-04  -8.7332348102479699e-04  -9.0823690609747047e-04  -9.4455100570513370e-04 
 -9.8232230135773487e-04  -1.0216096172520998e-03  -1.0624741755307812e-03  -1.1049796955764793e-03 
 -1.1491924975191227e-03  -1.1951816101408678e-03  -1.2430188833727884e-03  -1.2927791055860438e-03 
 -1.3445401258897073e-03  -1.3983829816573267e-03  -1.4543920315146619e-03  -1.5126550940319184e-03 
 -1.5732635923752676e-03  -1.6363127051843682e-03  -1.7019015239553158e-03  -1.7701332172215881e-03 
 -1.8411152018395307e-03  -1.9149593216995170e-03  -1.9917820341992559e-03  -2.0717046048319590e-03 
 -2.1548533102588633e-03  -2.2413596502536951e-03  -2.3313605689251914e-03  -2.4249986856436853e-03 
 -2.5224225361184576e-03  -2.6237868240944007e-03  -2.7292526841595074e-03  -2.8389879561789670e-03 
 -2.9531674718969512e-03  -3.0719733542741395e-03  -3.1955953301571523e-03  -3.3242310569058073e-03 
 -3.4580864636353831e-03  -3.5973761077641732e-03  -3.7423235475911270e-03  -3.8931617316652310e-03 
 -4.0501334057467184e-03  -4.2134915382008977e-03  -4.3834997647083148e-03  -4.5604328532201262e-03 
 -4.7445771901353032e-03  -4.9362312887265307e-03  -5.1357063208947807e-03  -5.3433266733884871e-03 
 -5.5594305296823325e-03  -5.7843704787730998e-03  -6.0185141522156376e-03  -6.2622448907918389e-03 
 -6.5159624422784579e-03  -6.7800836918575228e-03  -7.0550434267945758e-03  -7.3412951370966104e-03 
 -7.6393118539528973e-03  -7.9495870278582636e-03  -8.2726354484204973e-03  -8.6089942079612125e-03 
 -8.9592237111335675e-03  -9.3239087329004509e-03  -9.7036595273442047e-03  -1.0099112989913648e-02 
 -1.0510933875856285e-02  -1.0939816077734471e-02  -1.1386483965083277e-02  -1.1851693789436511e-02 
 -1.2336235158125443e-02  -1.2840932580443422e-02  -1.3366647089969198e-02  -1.3914277947052784e-02 
 -1.4484764425691266e-02  -1.5079087689258603e-02  -1.5698272759803750e-02  -1.6343390585896202e-02 
 -1.7015560214279427e-02  -1.7715951070888469e-02  -1.8445785357103853e-02  -1.9206340567445631e-02 
 -1.9998952135264834e-02  -2.0825016213362420e-02  -2.1685992596861110e-02  -2.2583407796074446e-02 
 -2.3518858267559721e-02  -2.4494013812011817e-02  -2.5510621148150947e-02  -2.6570507672284173e-02 
 -2.7675585413777098e-02  -2.8827855197262765e-02  -3.0029411023038934e-02  -3.1282444677765794e-02 
 -3.2589250588277580e-02  -3.3952230932060797e-02  -3.5373901018737851e-02  -3.6856894957723749e-02 
 -3.8403971628102877e-02  -4.0018020967702385e-02  -4.1702070599321787e-02  -4.3459292813119263e-02 
 -4.5293011925254874e-02  -4.7206712034055631e-02  -4.9204045196195603e-02  -5.1288840046686004e-02 
 -5.3465110887843975e-02  -5.5737067273858416e-02  -5.8109124119107236e-02  -6.0585912359995761e-02 
 -6.3172290201795975e-02  -6.5873354983768229e-02  -6.8694455697747014e-02  -7.1641206197376739e-02 
 -7.4719499137293532e-02  -7.7935520683774295e-02  -8.1295766040711606e-02  -8.4807055837238868e-02 
 -8.8476553425914289e-02  -9.2311783143094045e-02  -9.6320649585979731e-02  -1.0051145796381843e-01 
 -1.0489293558387372e-01  -1.0947425453607140e-01  -1.1426505564366542e-01  -1.1927547375085679e-01 
 -1.2451616442205365e-01  -1.2999833213136697e-01  -1.3573376002500784e-01  -1.4173484134347841e-01 
 -1.4801461259484175e-01  -1.5458678857489966e-01  -1.6146579933480545e-01  -1.6866682920148743e-01 
 -1.7620585796124552e-01  -1.8409970432199813e-01  -1.9236607177488937e-01  -2.0102359698130978e-01 
 -2.1009190081678872e-01  -2.1959164220870719e-01  -2.2954457491027991e-01  -2.3997360735876677e-01 
 -2.5090286577134768e-01  -2.6235776063747113e-01  -2.7436505677174955e-01  -2.8695294709652319e-01 
 -3.0015113032801710e-01  -3.1399089274445852e-01  -3.2850519421856378e-01  -3.4372875870028363e-01 
 -3.5969816933856136e-01  -3.7645196843292661e-01  -3.9403076240692503e-01  -4.1247733199545700e-01 
 -4.3183674783693160e-01  -4.5215649165851135e-01  -4.7348658323839182e-01  -4.9587971332281727e-01 
 -5.1939138266706197e-01  -5.4408004735862447e-01  -5.7000727056706135e-01  -5.9723788084783092e-01 
 -6.2584013710685205e-01  -6.5588590030775618e-01  -6.8745081197454283e-01  -7.2061447950801849e-01 
 -7.5546066829445169e-01  -7.9207750053869885e-01  -8.3055766070098358e-01  -8.7099860735589718e-01 
 -9.1350279122318678e-01  -9.5817787904184915e-01  -1.0051369828710079e+00  -1.0544988943021887e+00 
 -1.1063883229570350e+00  -1.1609361385212038e+00  -1.2182796154282600e+00  -1.2785626791557601e+00 
 -1.3419361529284941e+00  -1.4085580034399126e+00  -1.4785935840012447e+00  -1.5522158733077316e+00 
 -1.6296057077718382e+00  -1.7109520051136131e+00  -1.7964519766177440e+00  -1.8863113251648929e+00 
 -1.9807444258212847e+00  -2.0799744854251676e+00  -2.1842336772419269e+00  -2.2937632463720199e+00 
 -2.4088135811882689e+00  -2.5296442456533277e+00  -2.6565239669260077e+00  -2.7897305722096899e+00 
 -2.9295508683305980e+00  -3.0762804570626230e+00  -3.2302234787442021e+00  -3.3916922762672850e+00 
 -3.5610069710668677e+00  -3.7384949423100498e+00  -3.9244902000864186e+00  -4.1193326430483479e+00 
 -4.3233671906532045e+00  -4.5369427799341722e+00  -4.7604112165883592e+00  -4.9941258701375162e+00 
 -5.2384402030070323e+00  -5.4937061236030047e+00  -5.7602721538665858e+00  -6.0384814023712217e+00 
 -6.3286693348246894e+00  -6.6311613348661016e+00  -6.9462700493297076e+00  -7.2742925137033545e+00 
 -7.6155070553564634e+00  -7.9701699742655867e+00  -8.3385120034346105e+00  -8.7207345539951167e+00 
 -9.1170057530776170e+00  -9.5274562859545036e+00  -9.9521750576494696e+00  -1.0391204693154156e+01 
 -1.0844536899547586e+01  -1.1312107717623165e+01  -1.1793792695026784e+01  -1.2289402017322633e+01 
 -1.2798675637751147e+01  -1.3321278450641048e+01  -1.3856795557405093e+01  -1.4404727677713824e+01 
 -1.4964486761747821e+01  -1.5535391862343173e+01  -1.6116665328364498e+01  -1.6707429382796388e+01 
 -1.7306703150905989e+01  -1.7913400205499915e+01  -1.8526326697906182e+01  -1.9144180144998824e+01 
 -1.9765548944481345e+01  -2.0388912692853925e+01  -2.1012643383037261e+01  -2.1635007561441292e+01 
 -2.2254169527135488e+01  -2.2868195658308565e+01  -2.3475059952795906e+01  -2.4072650869266131e+01 
 -2.4658779552607882e+01  -2.5231189519840491e+01  -2.5787567870026084e+01  -2.6325558061724568e+01 
 -2.6842774273267406e+01  -2.7336817323853086e+01  -2.7805292087429791e+01  -2.8245826278045726e+01 
 -2.8656090427758659e+01  -2.9033818820535334e+01  -2.9376831092822457e+01  -2.9683054168489264e+01 
 -2.9950544166338194e+01  -3.0177507904074751e+01  -3.0362323622882549e+01  -3.0503560568810084e+01 
 -3.0599997086958080e+01  -3.0650636907580473e+01  -3.0654723326008604e+01  -3.0611750998548406e+01 
 -3.0521475093855951e+01  -3.0383917555583199e+01  -3.0199370251405433e+01  -2.9968394812242046e+01 
 -2.9691819011608594e+01  -2.9370729606948046e+01  -2.9006461668466137e+01  -2.8600584556481888e+01 
 -2.8154884866261987e+01  -2.7671346819741650e+01  -2.7152130718504562e+01  -2.6599550153159957e+01 
 -2.6016048670784336e+01  -2.5404176530911737e+01  -2.4766568047022822e+01  -2.4105919884782011e+01 
 -2.3424970709610658e+01  -2.2726480863064893e+01  -2.2013213918460306e+01  -2.1287919921643436e+01 
 -2.0553318413918781e+01  -1.9812082592653280e+01  -1.9066824351942660e+01  -1.8320080211646307e+01 
 -1.7574298218813134e+01  -1.6831825924854389e+01  -1.6094899544433723e+01  -1.5365634390340219e+01 
 -1.4646016656561301e+01  -1.3937896593774775e+01  -1.3242983091534143e+01  -1.2562839652694475e+01 
 -1.1898881720307052e+01  -1.1252375296558641e+01  -1.0624436777839811e+01  -1.0016033919608242e+01 
 -9.4279878388905072e+00  -8.8609759603227012e+00  -8.3155358127371564e+00  -7.7920695866122101e+00 
 -7.2908493673981303e+00  -6.8120229651001853e+00  -6.3556202659251282e+00  -5.9215600368028545e+00 
 -5.5096571178361282e+00  -5.1196299409972585e+00  -4.7511083155954461e+00  -4.4036414222092350e+00 
 -4.0767059570349398e+00  -3.7697143681411762e+00  -3.4820231241902797e+00  -3.2129409550711339e+00 
 -2.9617370028762409e+00  -2.7276488210317531e+00  -2.5098901594080503e+00  -2.3076584741290986e+00 
 -2.1201421009533550e+00  -1.9465270448794967e+00  -1.7860033154695356e+00  -1.6377707800633812e+00 
 -1.5010444850638101e+00  -1.3750594145536956e+00  -1.2590746618350923e+00  -1.1523769983573191e+00 
 -1.0542838337451614e+00  -9.6414556999667123e-01  -8.8134736213775144e-01  -8.0531030644878832e-01 
 -7.3549208558258428e-01  -6.7138710726187545e-01  -6.1252617959828937e-01  -5.5847577126891124e-01 
 -5.0883690871792098e-01  -4.6324376515834814e-01  -4.2136199741584585e-01  -3.8288688660797532e-01 
 -3.4754133735415538e-01  -3.1507378776536232e-01  -2.8525607900116290e-01  -2.5788132886277143e-01 
 -2.3276184889014423e-01  -2.0972713893560574e-01  -1.8862198738666006e-01  -1.6930469929360747e-01 
 -1.5164546880105312e-01  -1.3552490664804520e-01  -1.2083272823110990e-01  -1.0746660293555872e-01 
 -9.5331161224207359e-02  -8.4337152392868195e-02  -7.4400742994742933e-02  -6.5442943710951718e-02 
 -5.7389150887530306e-02  -5.0168788034773912e-02  -4.3715032239581481e-02  -3.7964610608789140e-02 
 -3.2857652464960127e-02  -2.8337583974126931e-02  -2.4351053114148469e-02  -2.0847874311242878e-02 
 -1.7780983604150698e-02  -1.5106396770679197e-02  -1.2783164409299299e-02  -1.0773319458123719e-02 
 -9.0418140145525523e-03  -7.5564435610361242e-03  -6.2877577857086003e-03  -5.2089580999005285e-03 
 -4.2957826949507833e-03  -3.5263805521256425e-03  -2.8811762308952956e-03  -2.3427275260524331e-03 
 -1.8955782195694102e-03  -1.5261081768623388e-03  -1.2223829683177280e-03  -9.7400505450051013e-04 
 -7.7196837561895677e-04  -6.0851794951644219e-04  -4.7701582297891490e-04  -3.7181445187324828e-04 
 -2.8813831790928718e-04  -2.2197433292249992e-04  -1.6997134274446588e-04  -1.2934882728957812e-04 
 -9.7814704991752228e-05  -7.3491990144050970e-05  -5.4853921634179359e-05  -4.0667080470286490e-05 
 -2.9941939883828728e-05  -2.1890243477582702e-05  -1.5888581162580998e-05  -1.1447526474749142e-05 
 -8.1857091148267542e-06  -5.8082200340046385e-06  -4.0887800344454757e-06  -2.8551438140891624e-06 
 -1.9772570852691483e-06  -1.3577325854100360e-06  -9.2425957441823446e-07  -6.2360923014121413e-07 
 -4.1694400700071103e-07  -2.7618163403229808e-07  -1.8120340646562510e-07  -1.1773143263909855e-07 
 -7.5730411001821689e-08  -4.8216375745251434e-08  -3.0377841558578863e-08  -1.8934167997928660e-08 
 -1.1672084752632780e-08  -7.1145340632453535e-09  -4.2866713501596856e-09  -2.5523859835965941e-09 
 -1.5014072099123845e-09  -8.7226190517152009e-10  -5.0033227159796400e-10  -2.8326756600309252e-10 
 -1.5824206441577374e-10  -8.7194730545495760e-11  -4.7375580288031879e-11  -2.5372537336397065e-11 
 -1.3389474605520596e-11  -6.9597673807458906e-12  -3.5620066449181135e-12  -1.7943068051520323e-12 
 -8.8926169467053798e-13  -4.3342885684111900e-13  -2.0767382932234139e-13  -9.7777016598580683e-14 
 -4.5216208211300997e-14  -2.0528581377711119e-14  -9.1460887377373131e-15  -3.9968313695822986e-15 
 -1.7123421504546994e-15  -7.1887924449775977e-16  -2.9559087867232316e-16  -1.1896009028613609e-16 
 -4.6846744752063082e-17  -1.8034295771304865e-17  -6.7948574614501054e-18  -2.4919183272322704e-18 
 -8.9648182932226845e-19  -3.1668486413848715e-19  -1.0682717823243034e-19  -3.2857526830606253e-20 
 -1.3441125423335800e-20  -3.6562848685872419e-21  0.0000000000000000e+00  0.0000000000000000e+00 
 0.0000000000000000e+00  0.0000000000000000e+00  0.0000000000000000e+00  0.0000000000000000e+00 
 0.0000000000000000e+00  0.0000000000000000e+00  0.0000000000000000e+00  0.0000000000000000e+00 
 0.0000000000000000e+00  0.0000000000000000e+00  0.0000000000000000e+00  0.0000000000000000e+00 
 0.0000000000000000e+00  0.0000000000000000e+00  0.0000000000000000e+00  0.0000000000000000e+00 
 0.0000000000000000e+00  0.0000000000000000e+00  0.0000000000000000e+00  0.0000000000000000e+00 
 0.0000000000000000e+00  0.0000000000000000e+00  0.0000000000000000e+00  0.0000000000000000e+00 
 0.0000000000000000e+00  0.0000000000000000e+00  0.0000000000000000e+00  0.0000000000000000e+00 
 0.0000000000000000e+00  0.0000000000000000e+00  0.0000000000000000e+00  0.0000000000000000e+00 
 0.0000000000000000e+00  0.0000000000000000e+00  0.0000000000000000e+00  0.0000000000000000e+00 
 0.0000000000000000e+00  0.0000000000000000e+00  0.0000000000000000e+00  0.0000000000000000e+00 
 0.0000000000000000e+00  0.0000000000000000e+00  0.0000000000000000e+00  0.0000000000000000e+00 
 0.0000000000000000e+00  0.0000000000000000e+00  0.0000000000000000e+00  0.0000000000000000e+00 
 0.0000000000000000e+00  0.0000000000000000e+00  0.0000000000000000e+00  0.0000000000000000e+00 
 0.0000000000000000e+00  0.0000000000000000e+00  0.0000000000000000e+00  0.0000000000000000e+00 
 0.0000000000000000e+00  0.0000000000000000e+00  0.0000000000000000e+00  0.0000000000000000e+00 
 0.0000000000000000e+00  0.0000000000000000e+00  0.0000000000000000e+00  0.0000000000000000e+00 
 0.0000000000000000e+00  0.0000000000000000e+00  0.0000000000000000e+00  0.0000000000000000e+00 
 0.0000000000000000e+00  0.0000000000000000e+00  0.0000000000000000e+00  0.0000000000000000e+00 
 0.0000000000000000e+00  0.0000000000000000e+00  0.0000000000000000e+00  0.0000000000000000e+00 
 0.0000000000000000e+00  0.0000000000000000e+00  0.0000000000000000e+00  0.0000000000000000e+00 
 0.0000000000000000e+00  0.0000000000000000e+00  0.0000000000000000e+00  0.0000000000000000e+00 
 0.0000000000000000e+00  0.0000000000000000e+00  0.0000000000000000e+00  0.0000000000000000e+00 
 0.0000000000000000e+00  0.0000000000000000e+00  0.0000000000000000e+00  0.0000000000000000e+00 
 0.0000000000000000e+00  0.0000000000000000e+00  0.0000000000000000e+00  0.0000000000000000e+00 
 0.0000000000000000e+00  0.0000000000000000e+00  0.0000000000000000e+00  0.0000000000000000e+00 
 0.0000000000000000e+00  0.0000000000000000e+00  0.0000000000000000e+00  0.0000000000000000e+00 
 0.0000000000000000e+00  0.0000000000000000e+00  0.0000000000000000e+00  0.0000000000000000e+00 
 0.0000000000000000e+00  0.0000000000000000e+00  0.0000000000000000e+00  0.0000000000000000e+00 
 0.0000000000000000e+00  0.0000000000000000e+00  0.0000000000000000e+00  0.0000000000000000e+00 
 0.0000000000000000e+00  0.0000000000000000e+00  0.0000000000000000e+00  0.0000000000000000e+00 
 0.0000000000000000e+00  0.0000000000000000e+00  0.0000000000000000e+00  0.0000000000000000e+00 
 0.0000000000000000e+00  0.0000000000000000e+00  0.0000000000000000e+00  0.0000000000000000e+00 
 0.0000000000000000e+00  0.0000000000000000e+00  0.0000000000000000e+00  0.0000000000000000e+00 
 0.0000000000000000e+00  0.0000000000000000e+00  0.0000000000000000e+00  0.0000000000000000e+00 
 0.0000000000000000e+00  0.0000000000000000e+00  0.0000000000000000e+00  0.0000000000000000e+00 
 0.0000000000000000e+00  0.0000000000000000e+00  0.0000000000000000e+00  0.0000000000000000e+00 
 0.0000000000000000e+00  0.0000000000000000e+00  0.0000000000000000e+00  0.0000000000000000e+00 
 0.0000000000000000e+00  0.0000000000000000e+00  0.0000000000000000e+00  0.0000000000000000e+00 
 0.0000000000000000e+00  0.0000000000000000e+00  0.0000000000000000e+00  0.0000000000000000e+00 
 0.0000000000000000e+00  0.0000000000000000e+00  0.0000000000000000e+00  0.0000000000000000e+00 
 0.0000000000000000e+00  0.0000000000000000e+00  0.0000000000000000e+00  0.0000000000000000e+00 
 0.0000000000000000e+00  0.0000000000000000e+00  0.0000000000000000e+00  0.0000000000000000e+00 
 0.0000000000000000e+00  0.0000000000000000e+00  0.0000000000000000e+00  0.0000000000000000e+00 
 0.0000000000000000e+00  0.0000000000000000e+00  0.0000000000000000e+00  0.0000000000000000e+00 
 0.0000000000000000e+00  0.0000000000000000e+00  0.0000000000000000e+00  0.0000000000000000e+00 
 0.0000000000000000e+00  0.0000000000000000e+00  0.0000000000000000e+00  0.0000000000000000e+00 
 0.0000000000000000e+00  0.0000000000000000e+00  0.0000000000000000e+00  0.0000000000000000e+00 
 0.0000000000000000e+00  0.0000000000000000e+00  0.0000000000000000e+00  0.0000000000000000e+00 
 0.0000000000000000e+00  0.0000000000000000e+00  0.0000000000000000e+00  0.0000000000000000e+00 
 0.0000000000000000e+00  0.0000000000000000e+00  0.0000000000000000e+00  0.0000000000000000e+00 
 0.0000000000000000e+00 
  </PP_BETA>
  <PP_BETA>
  4  2      Beta    L
  1189  
 -6.4868180590613859e-13  -6.7448019517722046e-13  -7.0130459887807438e-13  -7.2919582209937160e-13 
 -7.5819629277001203e-13  -7.8835012619818883e-13  -8.1970319217928676e-13  -8.5230318477268216e-13 
 -8.8619969485360659e-13  -9.2144428555044254e-13  -9.5809057068218035e-13  -9.9619429631538159e-13 
 -1.0358134255647006e-12  -1.0770082267659632e-12  -1.1198413651559327e-12  -1.1643779981982239e-12 
 -1.2106858747003734e-12  -1.2588354378728467e-12  -1.3088999324867545e-12  -1.3609555162932771e-12 
 -1.4150813758742983e-12  -1.4713598471004729e-12  -1.5298765403799749e-12  -1.5907204708884388e-12 
 -1.6539841939782334e-12  -1.7197639459729861e-12  -1.7881597905616226e-12  -1.8592757710145316e-12 
 -1.9332200684534682e-12  -2.0101051664158959e-12  -2.0900480219641729e-12  -2.1731702435998017e-12 
 -2.2595982762534315e-12  -2.3494635936320006e-12  -2.4429028982156116e-12  -2.5400583292083923e-12 
 -2.6410776787596524e-12  -2.7461146167842727e-12  -2.8553289247242979e-12  -2.9688867386073574e-12 
 -3.0869608017716222e-12  -3.2097307276417696e-12  -3.3373832729556828e-12  -3.4701126218574790e-12 
 -3.6081206812890964e-12  -3.7516173881297165e-12  -3.9008210285503041e-12  -4.0559585700689914e-12 
 -4.2172660068125202e-12  -4.3849887185088507e-12  -4.5593818437571235e-12  -4.7407106681427174e-12 
 -4.9292510277878652e-12  -5.1252897289516422e-12  -5.3291249843176983e-12  -5.5410668666333142e-12 
 -5.7614377803899526e-12  -5.9905729522627498e-12  -6.2288209410550347e-12  -6.4765441679235928e-12 
 -6.7341194676912790e-12  -7.0019386620855365e-12  -7.2804091557749614e-12  -7.5699545561105050e-12 
 -7.8710153175141219e-12  -8.1840494114949890e-12  -8.5095330233127270e-12  -8.8479612763471611e-12 
 -9.1998489852766888e-12  -9.5657314392108574e-12  -9.9461652159685923e-12  -1.0341729028740629e-11 
 -1.0753024606424127e-11  -1.1180677608968663e-11  -1.1625338579125959e-11  -1.2087683932051167e-11 
 -1.2568416984261145e-11  -1.3068269023514812e-11  -1.3588000421243335e-11  -1.4128401789222037e-11 
 -1.4690295182243889e-11  -1.5274535348623825e-11  -1.5882011030436251e-11  -1.6513646315463758e-11 
 -1.7170402042913355e-11  -1.7853277265038843e-11  -1.8563310766892642e-11  -1.9301582646518851e-11 
 -2.0069215957991488e-11  -2.0867378419797104e-11  -2.1697284191160618e-11  -2.2560195719016605e-11 
 -2.3457425658435624e-11  -2.4390338869426624e-11  -2.5360354493153469e-11  -2.6368948110723526e-11 
 -2.7417653987832367e-11  -2.8508067408679134e-11  -2.9641847102703049e-11  -3.0820717767832165e-11 
 -3.2046472694083317e-11  -3.3320976491503950e-11  -3.4646167926605359e-11  -3.6024062871602539e-11 
 -3.7456757370946891e-11  -3.8946430829816274e-11  -4.0495349329413149e-11  -4.2105869074113726e-11 
 -4.3780439975712095e-11  -4.5521609380211694e-11  -4.7332025942832921e-11  -4.9214443657132056e-11 
 -5.1171726044360401e-11  -5.3206850509436196e-11  -5.5322912870155822e-11  -5.7523132066534768e-11 
 -5.9810855057440282e-11  -6.2189561911966825e-11  -6.4662871103297923e-11  -6.7234545013107391e-11 
 -6.9908495654873732e-11  -7.2688790624814077e-11  -7.5579659289489358e-11  -7.8585499219494317e-11 
 -8.1710882879018419e-11  -8.4960564581454798e-11  -8.8339487721636938e-11  -9.1852792295705522e-11 
 -9.5505822720044354e-11  -9.9304135961180212e-11  -1.0325350998901233e-10  -1.0735995256623159e-10 
 -1.1162971038730081e-10  -1.1606927858089605e-10  -1.2068541059026574e-10  -1.2548512844653668e-10 
 -1.3047573345059677e-10  -1.3566481727979961e-10  -1.4106027353639108e-10  -1.4667030975522271e-10 
 -1.5250345988901774e-10  -1.5856859729018477e-10  -1.6487494820892360e-10  -1.7143210582816053e-10 
 -1.7825004485665965e-10  -1.8533913670251113e-10  -1.9271016525007690e-10  -2.0037434326439656e-10 
 -2.0834332944800428e-10  -2.1662924617610559e-10  -2.2524469793709390e-10  -2.3420279050645456e-10 
 -2.4351715088322978e-10  -2.5320194801936541e-10  -2.6327191437347848e-10  -2.7374236832183085e-10 
 -2.8462923746059885e-10  -2.9594908283489053e-10  -3.0771912413136547e-10  -3.1995726587277860e-10 
 -3.3268212465430022e-10  -3.4591305746303797e-10  -3.5967019112384747e-10  -3.7397445291621793e-10 
 -3.8884760240881433e-10  -4.0431226456009391e-10  -4.2039196413536315e-10  -4.3711116149261686e-10 
 -4.5449528979160559e-10  -4.7257079368273150e-10  -4.9136516953462914e-10  -5.1090700726162030e-10 
 -5.3122603381467619e-10  -5.5235315840204585e-10  -5.7432051950833809e-10  -5.9716153378358102e-10 
 -6.2091094687664260e-10  -6.4560488629031911e-10  -6.7128091633851733e-10  -6.9797809528911668e-10 
 -7.2573703477944867e-10  -7.5459996159476347e-10  -7.8461078190368267e-10  -8.1581514804833133e-10 
 -8.4826052799076962e-10  -8.8199627752136097e-10  -9.1707371533891309e-10  -9.5354620111682070e-10 
 -9.9146921667395693e-10  -1.0309004503737901e-09  -1.0718998848801188e-09  -1.1145298884029277e-09 
 -1.1588553095731544e-09  -1.2049435760907076e-09  -1.2528647972957932e-09  -1.3026918708195906e-09 
 -1.3545005934765081e-09  -1.4083697765667160e-09  -1.4643813657643699e-09  -1.5226205657738721e-09 
 -1.5831759699438385e-09  -1.6461396950359071e-09  -1.7116075213534420e-09  -1.7796790384432644e-09 
 -1.8504577965920828e-09  -1.9240514643480580e-09  -2.0005719923071827e-09  -2.0801357834135503e-09 
 -2.1628638700326730e-09  -2.2488820980671395e-09  -2.3383213183947534e-09  -2.4313175859203515e-09 
 -2.5280123665441087e-09  -2.6285527523611825e-09  -2.7330916854200598e-09  -2.8417881903800303e-09 
 -2.9548076164216723e-09  -3.0723218887783729e-09  -3.1945097702715609e-09  -3.3215571332474318e-09 
 -3.4536572423289770e-09  -3.5910110484132768e-09  -3.7338274943615243e-09  -3.8823238328465963e-09 
 -4.0367259568418469e-09  -4.1972687432538457e-09  -4.3641964102217736e-09  -4.5377628886271007e-09 
 -4.7182322083786266e-09  -4.9058789000606171e-09  -5.1009884125549689e-09  -5.3038575472727822e-09 
 -5.5147949096558969e-09  -5.7341213786352525e-09  -5.9621705947602696e-09  -6.1992894677418200e-09 
 -6.4458387041808994e-09  -6.7021933562857974e-09  -6.9687433924126556e-09  -7.2458942902971898e-09 
 -7.5340676538801412e-09  -7.8337018546649026e-09  -8.1452526985828698e-09  -8.4691941193811348e-09 
 -8.8060188995873136e-09  -9.1562394201483723e-09  -9.5203884398838152e-09  -9.8990199059390488e-09 
 -1.0292709796471947e-08  -1.0702056996854542e-08  -1.1127684210722745e-08  -1.1570238907260370e-08 
 -1.2030394306158261e-08  -1.2508850401747214e-08  -1.3006335027862682e-08  -1.3523604965061243e-08 
 -1.4061447091873350e-08  -1.4620679581843797e-08  -1.5202153148181054e-08  -1.5806752337909141e-08 
 -1.6435396877490613e-08  -1.7089043071968319e-08  -1.7768685259754215e-08  -1.8475357325278747e-08 
 -1.9210134271802038e-08  -1.9974133856779921e-08  -2.0768518292272759e-08  -2.1594496012984261e-08 
 -2.2453323514620101e-08  -2.3346307265363426e-08  -2.4274805693375627e-08  -2.5240231253345854e-08 
 -2.6244052575233931e-08  -2.7287796698475747e-08  -2.8373051395050355e-08  -2.9501467584943467e-08 
 -3.0674761847682306e-08  -3.1894719033763139e-08  -3.3163194979944731e-08  -3.4482119332539178e-08 
 -3.5853498482995111e-08  -3.7279418620240829e-08  -3.8762048904430099e-08  -4.0303644766920439e-08 
 -4.1906551341504201e-08  -4.3573207032113063e-08  -4.5306147222424333e-08  -4.7108008133012426e-08 
 -4.8981530831915345e-08  -5.0929565404716945e-08  -5.2955075290489824e-08  -5.5061141790184464e-08 
 -5.7250968754302127e-08  -5.9527887457053038e-08  -6.1895361664395397e-08  -6.4356992903655521e-08 
 -6.6916525942747115e-08  -6.9577854487328669e-08  -7.2345027104565803e-08  -7.5222253382515038e-08 
 -7.8213910334499511e-08  -8.1324549058224159e-08  -8.4558901659762467e-08  -8.7921888452951519e-08 
 -9.1418625445151332e-08  -9.5054432120759612e-08  -9.8834839534327226e-08  -1.0276559872559021e-07 
 -1.0685268946922436e-07  -1.1110232937263724e-07  -1.1552098333564583e-07  -1.2011537338643191e-07 
 -1.2489248890874822e-07  -1.2985959727593736e-07  -1.3502425490794986e-07  -1.4039431876818730e-07 
 -1.4597795831766911e-07  -1.5178366794471817e-07  -1.5782027988908027e-07  -1.6409697768015193e-07 
 -1.7062331010976569e-07  -1.7740920576080444e-07  -1.8446498811375625e-07  -1.9180139125420301e-07 
 -1.9942957620515459e-07  -2.0736114790908463e-07  -2.1560817288552223e-07  -2.2418319759107419e-07 
 -2.3309926750982829e-07  -2.4236994700319817e-07  -2.5200933994942523e-07  -2.6203211120415956e-07 
 -2.7245350891478860e-07  -2.8328938772248680e-07  -2.9455623288730550e-07  -3.0627118537303496e-07 
 -3.1845206793003019e-07  -3.3111741221570975e-07  -3.4428648699401792e-07  -3.5797932745679378e-07 
 -3.7221676571168264e-07  -3.8702046248301907e-07  -4.0241294007394866e-07  -4.1841761663998357e-07 
 -4.3505884182617922e-07  -4.5236193382220581e-07  -4.7035321789173717e-07  -4.8906006643484097e-07 
 -5.0851094064437615e-07  -5.2873543381984595e-07  -5.4976431640466878e-07  -5.7162958281546870e-07 
 -5.9436450013470709e-07  -6.1800365874082929e-07  -6.4258302495304106e-07  -6.6813999577091648e-07 
 -6.9471345579221731e-07  -7.2234383639563378e-07  -7.5107317727861920e-07  -7.8094519044405081e-07 
 -8.1200532673323668e-07  -8.4430084500660983e-07  -8.7788088407754449e-07  -9.1279653750888988e-07 
 -9.4910093138621392e-07  -9.8684930518626196e-07  -1.0260990958638862e-06  -1.0669100252855866e-06 
 -1.1093441911429392e-06  -1.1534661614844650e-06  -1.1993430730100473e-06  -1.2470447332777347e-06 
 -1.2966437269787256e-06  -1.3482155264425786e-06  -1.4018386065410909e-06  -1.4575945641661032e-06 
 -1.5155682424633291e-06  -1.5758478600117377e-06  -1.6385251451454257e-06  -1.7036954756228717e-06 
 -1.7714580238565805e-06  -1.8419159079246475e-06  -1.9151763485945892e-06  -1.9913508325989955e-06 
 -2.0705552824121013e-06  -2.1529102327863223e-06  -2.2385410143181140e-06  -2.3275779443232921e-06 
 -2.4201565253131251e-06  -2.5164176513740891e-06  -2.6165078227663561e-06  -2.7205793690685587e-06 
 -2.8287906812095287e-06  -2.9413064527412930e-06  -3.0582979307216944e-06  -3.1799431765898265e-06 
 -3.3064273374326680e-06  -3.4379429280572760e-06  -3.5746901242994312e-06  -3.7168770680168642e-06 
 -3.8647201842330137e-06  -4.0184445109160215e-06  -4.1782840418969311e-06  -4.3444820834512390e-06 
 -4.5172916250889066e-06  -4.6969757251197180e-06  -4.8838079115835356e-06  -5.0780725991586060e-06 
 -5.2800655226856246e-06  -5.4900941879705680e-06  -5.7084783405562214e-06  -5.9355504531794974e-06 
 -6.1716562326607071e-06  -6.4171551470005431e-06  -6.6724209734917920e-06  -6.9378423686849103e-06 
 -7.2138234610804899e-06  -7.5007844674562127e-06  -7.7991623337726612e-06  -8.1094114016399020e-06 
 -8.4320041013662921e-06  -8.7674316726517637e-06  -9.1162049140305109e-06  -9.4788549622124070e-06 
 -9.8559341025183013e-06  -1.0248016611652699e-05  -1.0655699634106777e-05  -1.1079604093536977e-05 
 -1.1520375640518226e-05  -1.1978685638127048e-05  -1.2455232186868265e-05  -1.2950741190519933e-05 
 -1.3465967464534277e-05  -1.4001695888698323e-05  -1.4558742605826390e-05  -1.5137956268327992e-05 
 -1.5740219334568718e-05  -1.6366449417018874e-05  -1.7017600684265190e-05  -1.7694665319044158e-05 
 -1.8398675034542660e-05  -1.9130702651302090e-05  -1.9891863737156454e-05  -2.0683318312732447e-05 
 -2.1506272625142371e-05  -2.2361980992605729e-05  -2.3251747722847151e-05  -2.4176929108232025e-05 
 -2.5138935500721846e-05  -2.6139233469855182e-05  -2.7179348047090238e-05  -2.8260865059979592e-05 
 -2.9385433559788566e-05  -3.0554768346314191e-05  -3.1770652593814900e-05  -3.3034940582118630e-05 
 -3.4349560537142343e-05  -3.5716517585227670e-05  -3.7137896825876210e-05  -3.8615866527653866e-05 
 -4.0152681452227442e-05  -4.1750686311698782e-05  -4.3412319364611624e-05  -4.5140116156224177e-05 
 -4.6936713408870179e-05  -4.8804853068466428e-05  -5.0747386513472751e-05  -5.2767278932867152e-05 
 -5.4867613879967321e-05  -5.7051598009207847e-05  -5.9322566003274108e-05  -6.1683985698295175e-05 
 -6.4139463415114161e-05  -6.6692749504983174e-05  -6.9347744118371344e-05  -7.2108503205930058e-05 
 -7.4979244761033640e-05  -7.7964355313696814e-05  -8.1068396686076149e-05  -8.4296113020181383e-05 
 -8.7652438088859819e-05  -9.1142502901574580e-05  -9.4771643616969458e-05  -9.8545409774712967e-05 
 -1.0246957285962552e-04  -1.0655013521163527e-04  -1.1079333929566647e-04  -1.1520567734615053e-04 
 -1.1979390140145816e-04  -1.2456503374418701e-04  -1.2952637776390033e-04  -1.3468552925960424e-04 
 -1.4005038819997167e-04  -1.4562917096006938e-04  -1.5143042305413055e-04  -1.5746303238473020e-04 
 -1.6373624302957476e-04  -1.7025966958800413e-04  -1.7704331211023004e-04  -1.8409757163330797e-04 
 -1.9143326634883995e-04  -1.9906164842846728e-04  -2.0699442153430440e-04  -2.1524375904261424e-04 
 -2.2382232301022381e-04  -2.3274328391442500e-04  -2.4202034119840933e-04  -2.5166774465564874e-04 
 -2.6170031668805595e-04  -2.7213347547423575e-04  -2.8298325908569685e-04  -2.9426635059050525e-04 
 -3.0600010418555283e-04  -3.1820257240037684e-04  -3.3089253441731780e-04  -3.4408952555471965e-04 
 -3.5781386796189394e-04  -3.7208670257667700e-04  -3.8693002239859503e-04  -4.0236670713296604e-04 
 -4.1842055926365136e-04  -4.3511634161469420e-04  -4.5247981646369818e-04  -4.7053778627254716e-04 
 -4.8931813610393713e-04  -5.0884987779518931e-04  -5.2916319596395776e-04  -5.5028949592372811e-04 
 -5.7226145359043530e-04  -5.9511306746513003e-04  -6.1887971278138515e-04  -6.4359819791006561e-04 
 -6.6930682311821990e-04  -6.9604544178314713e-04  -7.2385552416724393e-04  -7.5278022386392879e-04 
 -7.8286444702992998e-04  -8.1415492452439637e-04  -8.4670028708073867e-04  -8.8055114364278954e-04 
 -9.1576016300287970e-04  -9.5238215888562416e-04  -9.9047417862784524e-04  -1.0300955956118712e-03 
 -1.0713082056166962e-03  -1.1141763272590416e-03  -1.1587669067042823e-03  -1.2051496268355197e-03 
 -1.2533970210778190e-03  -1.3035845920837776e-03  -1.3557909354962035e-03  -1.4100978690137593e-03 
 -1.4665905669960506e-03  -1.5253577008556894e-03  -1.5864915854966099e-03  -1.6500883320701215e-03 
 -1.7162480073330845e-03  -1.7850747999061233e-03  -1.8566771937439811e-03  -1.9311681491451425e-03 
 -2.0086652916434049e-03  -2.0892911091407599e-03  -2.1731731576581721e-03  -2.2604442760991565e-03 
 -2.3512428104402417e-03  -2.4457128477825907e-03  -2.5440044607202951e-03  -2.6462739625032683e-03 
 -2.7526841734960609e-03  -2.8634046994588558e-03  -2.9786122222028549e-03  -3.0984908031997552e-03 
 -3.2232322007539151e-03  -3.3530362013763490e-03  -3.4881109660315547e-03  -3.6286733919622728e-03 
 -3.7749494908326264e-03  -3.9271747839677781e-03  -4.0855947155077794e-03  -4.2504650843349758e-03 
 -4.4220524956783405e-03  -4.6006348333445107e-03  -4.7865017535741851e-03  -4.9799552015742177e-03 
 -5.1813099518301098e-03  -5.3908941733612102e-03  -5.6090500211413595e-03  -5.8361342549720276e-03 
 -6.0725188871622038e-03  -6.3185918604410371e-03  -6.5747577576042151e-03  -6.8414385444749070e-03 
 -7.1190743478439494e-03  -7.4081242701428988e-03  -7.7090672426971922e-03  -8.0224029195059450e-03 
 -8.3486526135996084e-03  -8.6883602781373023e-03  -9.0420935345227639e-03  -9.4104447499415919e-03 
 -9.7940321668531331e-03  -1.0193501087108703e-02  -1.0609525113514063e-02  -1.1042807451808816e-02 
 -1.1494082276198752e-02  -1.1964116161750466e-02  -1.2453709587140411e-02  -1.2963698511444376e-02 
 -1.3494956028857944e-02  -1.4048394105455853e-02  -1.4624965402327002e-02  -1.5225665189664806e-02 
 -1.5851533356649981e-02  -1.6503656522233845e-02  -1.7183170252219031e-02  -1.7891261388338325e-02 
 -1.8629170495355282e-02  -1.9398194432551349e-02  -2.0199689056325545e-02  -2.1035072061015198e-02 
 -2.1905825965451004e-02  -2.2813501253188113e-02  -2.3759719674808801e-02  -2.4746177721171950e-02 
 -2.5774650276992918e-02  -2.6846994464675460e-02  -2.7965153688886260e-02  -2.9131161892964868e-02 
 -3.0347148038900054e-02  -3.1615340823277167e-02  -3.2938073642315456e-02  -3.4317789819868827e-02 
 -3.5757048113062025e-02  -3.7258528511079567e-02  -3.8825038343516534e-02  -4.0459518715645779e-02 
 -4.2165051288953155e-02  -4.3944865426348713e-02  -4.5802345722574106e-02  -4.7741039941506414e-02 
 -4.9764667383300105e-02  -5.1877127705622028e-02  -5.4082510224620767e-02  -5.6385103722732012e-02 
 -5.8789406791964503e-02  -6.1300138742936383e-02  -6.3922251111643860e-02  -6.6660939797749730e-02 
 -6.9521657870077525e-02  -7.2510129076996957e-02  -7.5632362101487022e-02  -7.8894665602874323e-02 
 -8.2303664089562009e-02  -8.5866314669500968e-02  -8.9589924727709172e-02  -9.3482170582819116e-02 
 -9.7551117177435809e-02  -1.0180523886001440e-01  -1.0625344131903117e-01  -1.1090508473340882e-01 
 -1.1577000820648797e-01  -1.2085855555429884e-01  -1.2618160252248511e-01  -1.3175058550996238e-01 
 -1.3757753188126171e-01  -1.4367509195350153e-01  -1.5005657274804854e-01  -1.5673597360116498e-01 
 -1.6372802373228842e-01  -1.7104822187302934e-01  -1.7871287806450409e-01  -1.8673915773522248e-01 
 -1.9514512817639099e-01  -2.0394980753617253e-01  -2.1317321645911574e-01  -2.2283643250160343e-01 
 -2.3296164745874587e-01  -2.4357222774258772e-01  -2.5469277795579970e-01  -2.6634920780908222e-01 
 -2.7856880253429817e-01  -2.9138029694875578e-01  -3.0481395332904876e-01  -3.1890164325526993e-01 
 -3.3367693358820055e-01  -3.4917517674306847e-01  -3.6543360542357040e-01  -3.8249143197886554e-01 
 -4.0038995254405546e-01  -4.1917265612103494e-01  -4.3888533875133090e-01  -4.5957622292543210e-01 
 -4.8129608236386212e-01  -5.0409837229358978e-01  -5.2803936532901752e-01  -5.5317829304935795e-01 
 -5.7957749334335296e-01  -6.0730256356762247e-01  -6.3642251953595574e-01  -6.6700996032316173e-01 
 -6.9914123882811741e-01  -7.3289663799586402e-01  -7.6836055254738800e-01  -8.0562167600749190e-01 
 -8.4477319275515728e-01  -8.8591297474642838e-01  -9.2914378247623641e-01  -9.7457346965203484e-01 
 -1.0223151909477768e+00  -1.0724876120907936e+00  -1.1252151214056887e+00  -1.1806280417975497e+00 
 -1.2388628420007266e+00  -1.3000623457483202e+00  -1.3643759373304356e+00  -1.4319597618055460e+00 
 -1.5029769179080819e+00  -1.5775976414561799e+00  -1.6559994768057265e+00  -1.7383674336202035e+00 
 -1.8248941259301454e+00  -1.9157798901414009e+00  -2.0112328783182361e+00  -2.1114691227163265e+00 
 -2.2167125671729608e+00  -2.3271950605790970e+00  -2.4431563072621114e+00  -2.5648437687022598e+00 
 -2.6925125105932621e+00  -2.8264249888423318e+00  -2.9668507676927218e+00  -3.1140661627480726e+00 
 -3.2683538012903339e+00  -3.4300020919194405e+00  -3.5993045952131442e+00  -3.7765592868201066e+00 
 -3.9620677041706025e+00  -4.1561339678304670e+00  -4.3590636684501272e+00  -4.5711626102877325e+00 
 -4.7927354024309219e+00  -5.0240838891242143e+00  -5.2655054110476085e+00  -5.5172908900066728e+00 
 -5.7797227303055765e+00  -6.0530725311018649e+00  -6.3375986053043505e+00  -6.6335433020912813e+00 
 -6.9411301319094836e+00  -7.2605606948787624e+00  -7.5920114158767795e+00  -7.9356300922198244e+00 
 -8.2915322627796435e+00  -8.6597974105729651e+00  -9.0404650143071983e+00  -9.4335304680313659e+00 
 -9.8389408918837553e+00  -1.0256590860895217e+01  -1.0686318082837278e+01  -1.1127899060127117e+01 
 -1.1581044774741471e+01  -1.2045396438870124e+01  -1.2520521357581721e+01  -1.3005908953013288e+01 
 -1.3500967002477298e+01  -1.4005018145375525e+01  -1.4517296715913503e+01  -1.5036945960350209e+01 
 -1.5563015698954871e+01  -1.6094460494067388e+01  -1.6630138386783067e+01  -1.7168810265929647e+01 
 -1.7709139934287546e+01  -1.8249694938502603e+01  -1.8788948230870965e+01  -1.9325280733060030e+01 
 -1.9856984873663791e+01  -2.0382269172910924e+01  -2.0899263948298916e+01  -2.1406028213660637e+01 
 -2.1900557840211409e+01  -2.2380795040320105e+01  -2.2844639221821829e+01  -2.3289959241384167e+01 
 -2.3714607058719952e+01  -2.4116432758796108e+01  -2.4493300866946576e+01  -2.4843107833426419e+01 
 -2.5163800512171623e+01  -2.5453395407197029e+01  -2.5709998413639227e+01  -2.5931824743223789e+01 
 -2.6117218699130795e+01  -2.6264672954271720e+01  -2.6372846989196198e+01  -2.6440584358691503e+01 
 -2.6466928475961424e+01  -2.6451136626216261e+01  -2.6392691944398042e+01  -2.6291313112751752e+01 
 -2.6146961552871169e+01  -2.5959845905409807e+01  -2.5730423612497120e+01  -2.5459399448521111e+01 
 -2.5147720891082201e+01  -2.4796570292346139e+01  -2.4407353906131842e+01  -2.3981687946909211e+01 
 -2.3521381994381880e+01  -2.3028420193518642e+01  -2.2504940810600569e+01  -2.1953214767051154e+01 
 -2.1375623768788497e+01  -2.0774638578515514e+01  -2.0152797856746709e+01  -1.9512687883884361e+01 
 -1.8856923482712922e+01  -1.8188129075838305e+01  -1.7508921385803966e+01  -1.6821893601618701e+01 
 -1.6129599497814734e+01  -1.5434538614084437e+01  -1.4739142302807609e+01  -1.4045760669803272e+01 
 -1.3356650494201061e+01  -1.2673964226728025e+01  -1.1999740164339435e+01  -1.1335893885452546e+01 
 -1.0684211007759394e+01  -1.0046341303623102e+01  -9.4237941798854674e+00  -8.8179355022266943e+00 
 -8.2299857208401903e+00  -7.6610192351230531e+00  -7.1119649206893767e+00  -6.5836077321594848e+00 
 -6.0765912894158678e+00  -5.5914213527148755e+00  -5.1284700924896063e+00  -4.6879810621613176e+00 
 -4.2700747861168420e+00  -3.8747548796241844e+00  -3.5019146223501116e+00  -3.1513439119305033e+00 
 -2.8227365284504269e+00  -2.5156976445469552e+00  -2.2297515190777926e+00  -1.9643493149108668e+00 
 -1.7188769834578292e+00  -1.4926631602224669e+00  -1.2849870170205360e+00  -1.0950860178238668e+00 
 -9.2216352656295941e-01  -7.6539621685092663e-01  -6.2394123560536052e-01  -4.9694307489339040e-01 
 -3.8354011042982483e-01  -2.8287076605551831e-01  -1.9407927172449177e-01  -1.1632098419370809e-01 
 -4.8767246228009549e-02  9.3902344392095185e-03  5.8935499217570561e-02  1.0062495261051056e-01 
 1.3518447671021447e-01  1.6330704101279842e-01  1.8565079666061673e-01  2.0283763892446063e-01 
 2.1545221691967598e-01  2.2404136528995267e-01  2.2911392895463462e-01  2.3114094904387514e-01 
 2.3055617586552221e-01  2.2775687316414372e-01  2.2310487703429138e-01  2.1692787261015881e-01 
 2.0952085203136833e-01  2.0114771812778076e-01  1.9204299971416311e-01  1.8241364627029047e-01 
 1.7244087203162198e-01  1.6228202205503842e-01  1.5207243557818559e-01  1.4192728488562861e-01 
 1.3194337085900387e-01  1.2220085935484955e-01  1.1276494546137489e-01  1.0368743547911392e-01 
 9.5008239102934725e-02  8.6756766714730718e-02  7.8953228896453190e-02  7.1609837219784672e-02 
 6.4731907048077852e-02  5.8318864493231481e-02  5.2365160807579740e-02  4.6861098368808460e-02 
 4.1793573050698182e-02  3.7146738185705505e-02  3.2902595542823411e-02  2.9041518794215269e-02 
 2.5542714856865767e-02  2.2384628301168601e-02  1.9545293746287794e-02  1.7002640839671145e-02 
 1.4734756069689528e-02  1.2720105307036152e-02  1.0937720629311976e-02  9.3673546667494018e-03 
 7.9896054242899230e-03  6.7860142909853781e-03  5.7391397428199912e-03  4.8326090781641616e-03 
 4.0511503919693831e-03  3.3806068896115363e-03  2.8079355571951651e-03  2.3211921349233465e-03 
 1.9095042767941508e-03  1.5630347170349534e-03  1.2729361959603373e-03  1.0312998212801123e-03 
 8.3109845253675802e-04  6.6612659501467356e-04  5.3093817511959472e-04  4.2078344300535781e-04 
 3.3154611221948446e-04  2.5968170312765169e-04  2.0215791008144600e-04  1.5639766516376268e-04 
 1.2022542726327795e-04  9.1817087383364710e-05  6.9653752281909040e-05  5.2479551082305769e-05 
 3.9263505128991139e-05  2.9165411255607225e-05  2.1505613360572952e-05  1.5738476762025947e-05 
 1.1429333778276396e-05  8.2346364729118581e-06  5.8850323156850091e-06  4.1710692127632422e-06 
 2.9312363694445365e-06  2.0420551283043688e-06  1.4099476469987542e-06  9.6462948587624983e-07 
 6.5379343468159513e-07  4.3887494778697107e-07  2.9171328079703158e-07  1.9194593381838755e-07 
 1.2499659198106976e-07  8.0537891064978615e-08  5.1329664981328945e-08  3.2350641222767466e-08 
 2.0156758431347659e-08  1.2412397017668354e-08  7.5519367921602039e-09  4.5383287383067040e-09 
 2.6929744607355609e-09  1.5773477599630084e-09  9.1167127043834357e-10  5.1977772347914328e-10 
 2.9222331301724681e-10  1.6194786880776591e-10  8.8438255890172679e-11  4.7571523171670167e-11 
 2.5195860362854701e-11  1.3134556644017091e-11  6.7364407494576720e-12  3.3977714509854080e-12 
 1.6846986743044452e-12  8.2077921328308691e-13  3.9274499915060427e-13  1.8449389043240447e-13 
 8.5038780418418301e-14  3.8446231977194353e-14  1.7036534416591678e-14  7.3974089571527011e-15 
 3.1463060617931782e-15  1.3100744544606402e-15  5.3236119663576385e-16  2.1288278463281312e-16 
 8.3074174383016121e-17  3.1667480460758342e-17  1.1964907963742810e-17  3.8798768343717413e-18 
 1.7273729150619555e-18  7.6789744123936860e-19  0.0000000000000000e+00  0.0000000000000000e+00 
 0.0000000000000000e+00  0.0000000000000000e+00  0.0000000000000000e+00  0.0000000000000000e+00 
 0.0000000000000000e+00  0.0000000000000000e+00  0.0000000000000000e+00  0.0000000000000000e+00 
 0.0000000000000000e+00  0.0000000000000000e+00  0.0000000000000000e+00  0.0000000000000000e+00 
 0.0000000000000000e+00  0.0000000000000000e+00  0.0000000000000000e+00  0.0000000000000000e+00 
 0.0000000000000000e+00  0.0000000000000000e+00  0.0000000000000000e+00  0.0000000000000000e+00 
 0.0000000000000000e+00  0.0000000000000000e+00  0.0000000000000000e+00  0.0000000000000000e+00 
 0.0000000000000000e+00  0.0000000000000000e+00  0.0000000000000000e+00  0.0000000000000000e+00 
 0.0000000000000000e+00  0.0000000000000000e+00  0.0000000000000000e+00  0.0000000000000000e+00 
 0.0000000000000000e+00  0.0000000000000000e+00  0.0000000000000000e+00  0.0000000000000000e+00 
 0.0000000000000000e+00  0.0000000000000000e+00  0.0000000000000000e+00  0.0000000000000000e+00 
 0.0000000000000000e+00  0.0000000000000000e+00  0.0000000000000000e+00  0.0000000000000000e+00 
 0.0000000000000000e+00  0.0000000000000000e+00  0.0000000000000000e+00  0.0000000000000000e+00 
 0.0000000000000000e+00  0.0000000000000000e+00  0.0000000000000000e+00  0.0000000000000000e+00 
 0.0000000000000000e+00  0.0000000000000000e+00  0.0000000000000000e+00  0.0000000000000000e+00 
 0.0000000000000000e+00  0.0000000000000000e+00  0.0000000000000000e+00  0.0000000000000000e+00 
 0.0000000000000000e+00  0.0000000000000000e+00  0.0000000000000000e+00  0.0000000000000000e+00 
 0.0000000000000000e+00  0.0000000000000000e+00  0.0000000000000000e+00  0.0000000000000000e+00 
 0.0000000000000000e+00  0.0000000000000000e+00  0.0000000000000000e+00  0.0000000000000000e+00 
 0.0000000000000000e+00  0.0000000000000000e+00  0.0000000000000000e+00  0.0000000000000000e+00 
 0.0000000000000000e+00  0.0000000000000000e+00  0.0000000000000000e+00  0.0000000000000000e+00 
 0.0000000000000000e+00  0.0000000000000000e+00  0.0000000000000000e+00  0.0000000000000000e+00 
 0.0000000000000000e+00  0.0000000000000000e+00  0.0000000000000000e+00  0.0000000000000000e+00 
 0.0000000000000000e+00  0.0000000000000000e+00  0.0000000000000000e+00  0.0000000000000000e+00 
 0.0000000000000000e+00  0.0000000000000000e+00  0.0000000000000000e+00  0.0000000000000000e+00 
 0.0000000000000000e+00  0.0000000000000000e+00  0.0000000000000000e+00  0.0000000000000000e+00 
 0.0000000000000000e+00  0.0000000000000000e+00  0.0000000000000000e+00  0.0000000000000000e+00 
 0.0000000000000000e+00  0.0000000000000000e+00  0.0000000000000000e+00  0.0000000000000000e+00 
 0.0000000000000000e+00  0.0000000000000000e+00  0.0000000000000000e+00  0.0000000000000000e+00 
 0.0000000000000000e+00  0.0000000000000000e+00  0.0000000000000000e+00  0.0000000000000000e+00 
 0.0000000000000000e+00  0.0000000000000000e+00  0.0000000000000000e+00  0.0000000000000000e+00 
 0.0000000000000000e+00  0.0000000000000000e+00  0.0000000000000000e+00  0.0000000000000000e+00 
 0.0000000000000000e+00  0.0000000000000000e+00  0.0000000000000000e+00  0.0000000000000000e+00 
 0.0000000000000000e+00  0.0000000000000000e+00  0.0000000000000000e+00  0.0000000000000000e+00 
 0.0000000000000000e+00  0.0000000000000000e+00  0.0000000000000000e+00  0.0000000000000000e+00 
 0.0000000000000000e+00  0.0000000000000000e+00  0.0000000000000000e+00  0.0000000000000000e+00 
 0.0000000000000000e+00  0.0000000000000000e+00  0.0000000000000000e+00  0.0000000000000000e+00 
 0.0000000000000000e+00  0.0000000000000000e+00  0.0000000000000000e+00  0.0000000000000000e+00 
 0.0000000000000000e+00  0.0000000000000000e+00  0.0000000000000000e+00  0.0000000000000000e+00 
 0.0000000000000000e+00  0.0000000000000000e+00  0.0000000000000000e+00  0.0000000000000000e+00 
 0.0000000000000000e+00  0.0000000000000000e+00  0.0000000000000000e+00  0.0000000000000000e+00 
 0.0000000000000000e+00  0.0000000000000000e+00  0.0000000000000000e+00  0.0000000000000000e+00 
 0.0000000000000000e+00  0.0000000000000000e+00  0.0000000000000000e+00  0.0000000000000000e+00 
 0.0000000000000000e+00  0.0000000000000000e+00  0.0000000000000000e+00  0.0000000000000000e+00 
 0.0000000000000000e+00  0.0000000000000000e+00  0.0000000000000000e+00  0.0000000000000000e+00 
 0.0000000000000000e+00  0.0000000000000000e+00  0.0000000000000000e+00  0.0000000000000000e+00 
 0.0000000000000000e+00  0.0000000000000000e+00  0.0000000000000000e+00  0.0000000000000000e+00 
 0.0000000000000000e+00  0.0000000000000000e+00  0.0000000000000000e+00  0.0000000000000000e+00 
 0.0000000000000000e+00  0.0000000000000000e+00  0.0000000000000000e+00  0.0000000000000000e+00 
 0.0000000000000000e+00  0.0000000000000000e+00  0.0000000000000000e+00  0.0000000000000000e+00 
 0.0000000000000000e+00  0.0000000000000000e+00  0.0000000000000000e+00  0.0000000000000000e+00 
 0.0000000000000000e+00 
  </PP_BETA>
  <PP_DIJ>
 4   Number of nonzero Dij
 1 1 1.4625553558538737e+01 
 2 2 8.3825931350114740e+00 
 3 3 -7.1870346267458959e-02 
 4 4 -1.0641111094129510e-01 
  </PP_DIJ>
</PP_NONLOCAL>
<PP_PSWFC>
S    0   1.00          Wavefunction
 1.0207778471435299e-08  1.0341345903055970e-08  1.0476661046973348e-08  1.0613746771777802e-08 
 1.0752626245292430e-08  1.0893322938488509e-08  1.1035860629452145e-08  1.1180263407402862e-08 
 1.1326555676764730e-08  1.1474762161290810e-08  1.1624907908241517e-08  1.1777018292617718e-08 
 1.1931119021449157e-08  1.2087236138139035e-08  1.2245396026865437e-08  1.2405625417040323e-08 
 1.2567951387826897e-08  1.2732401372716061e-08  1.2899003164162787e-08  1.3067784918283109e-08 
 1.3238775159612610e-08  1.3412002785927152e-08  1.3587497073126718e-08  1.3765287680183117e-08 
 1.3945404654152464e-08  1.4127878435253217e-08  1.4312739862010703e-08  1.4500020176468919e-08 
 1.4689751029470554e-08  1.4881964486006075e-08  1.5076693030632859e-08  1.5273969572965162e-08 
 1.5473827453235996e-08  1.5676300447931726e-08  1.5881422775500433e-08  1.6089229102134948e-08 
 1.6299754547631584e-08  1.6513034691325506e-08  1.6729105578103766e-08  1.6948003724497047e-08 
 1.7169766124851084e-08  1.7394430257578863e-08  1.7622034091494618e-08  1.7852616092230716e-08 
 1.8086215228738501e-08  1.8322870979874203e-08  1.8562623341071049e-08  1.8805512831098643e-08 
 1.9051580498910803e-08  1.9300867930583036e-08  1.9553417256340748e-08  1.9809271157679424e-08 
 2.0068472874578035e-08  2.0331066212806748e-08  2.0597095551330314e-08  2.0866605849808324e-08 
 2.1139642656193606e-08  2.1416252114430021e-08  2.1696480972251051e-08  2.1980376589080356e-08 
 2.2267986944035766e-08  2.2559360644038000e-08  2.2854546932025473e-08  2.3153595695276609e-08 
 2.3456557473841038e-08  2.3763483469081163e-08  2.4074425552325433e-08  2.4389436273634904e-08 
 2.4708568870684471e-08  2.5031877277760340e-08  2.5359416134875252e-08  2.5691240797002925e-08 
 2.6027407343433392e-08  2.6367972587250737e-08  2.6712994084934846e-08  2.7062530146088786e-08 
 2.7416639843293552e-08  2.7775383022091624e-08  2.8138820311101328e-08  2.8507013132263426e-08 
 2.8880023711221847e-08  2.9257915087840260e-08  2.9640751126856234e-08  3.0028596528674794e-08 
 3.0421516840303327e-08  3.0819578466429444e-08  3.1222848680643885e-08  3.1631395636810246e-08 
 3.2045288380583543e-08  3.2464596861079450e-08  3.2889391942696219e-08  3.3319745417091396e-08 
 3.3755730015315178e-08  3.4197419420102570e-08  3.4644888278326411e-08  3.5098212213613347e-08 
 3.5557467839124868e-08  3.6022732770505669e-08  3.6494085639001404e-08  3.6971606104748073e-08 
 3.7455374870235410e-08  3.7945473693946335e-08  3.8441985404175012e-08  3.8944993913025645e-08 
 3.9454584230594474e-08  3.9970842479337470e-08  4.0493855908625843e-08  4.1023712909492288e-08 
 4.1560503029569908e-08  4.2104316988226966e-08  4.2655246691899438e-08  4.3213385249624261e-08 
 4.3778826988776025e-08  4.4351667471009355e-08  4.4932003508410151e-08  4.5519933179858032e-08 
 4.6115555847603048e-08  4.6718972174059150e-08  4.7330284138817674e-08  4.7949595055883213e-08 
 4.8577009591135279e-08  4.9212633780018398e-08  4.9856575045463641e-08  5.0508942216044806e-08 
 5.1169845544372228e-08  5.1839396725727174e-08  5.2517708916940291e-08  5.3204896755516946e-08 
 5.3901076379013017e-08  5.4606365444664200e-08  5.5320883149272208e-08  5.6044750249351256e-08 
 5.6778089081538163e-08  5.7521023583269720e-08  5.8273679313730478e-08  5.9036183475074908e-08 
 5.9808664933927108e-08  6.0591254243162153e-08  6.1384083663972212e-08  6.2187287188221847e-08 
 6.3001000561095492e-08  6.3825361304041752e-08  6.4660508738017664e-08  6.5506584007037499e-08 
 6.6363730102029537e-08  6.7232091885005277e-08  6.8111816113544928e-08  6.9003051465603356e-08 
 6.9905948564640806e-08  7.0820660005082509e-08  7.1747340378111580e-08  7.2686146297799400e-08 
 7.3637236427578416e-08  7.4600771507060852e-08  7.5576914379209128e-08  7.6565830017861494e-08 
 7.7567685555618083e-08  7.8582650312092198e-08  7.9610895822531130e-08  8.0652595866811869e-08 
 8.1707926498816276e-08  8.2777066076190840e-08  8.3860195290496001e-08  8.4957497197750271e-08 
 8.6069157249374059e-08  8.7195363323538688e-08  8.8336305756925846e-08  8.9492177376902833e-08 
 9.0663173534118980e-08  9.1849492135528966e-08  9.3051333677848261e-08  9.4268901281446926e-08 
 9.5502400724686925e-08  9.6752040478709092e-08  9.8018031742675621e-08  9.9300588479473956e-08 
 1.0059992745188827e-07  1.0191626825924443e-07  1.0324983337453504e-07  1.0460084818203024e-07 
 1.0596954101538159e-07  1.0735614319622424e-07  1.0876088907328526e-07  1.1018401606200359e-07 
 1.1162576468466931e-07  1.1308637861108821e-07  1.1456610469977917e-07  1.1606519303971101e-07 
 1.1758389699258589e-07  1.1912247323567681e-07  1.2068118180522577e-07  1.2226028614041068e-07 
 1.2386005312788814e-07  1.2548075314691957e-07  1.2712266011508846e-07  1.2878605153461676e-07 
 1.3047120853928766e-07  1.3217841594198309e-07  1.3390796228284469e-07  1.3566013987806446e-07 
 1.3743524486931618e-07  1.3923357727383306e-07  1.4105544103514268e-07  1.4290114407446596e-07 
 1.4477099834279009e-07  1.4666531987362334e-07  1.4858442883644191e-07  1.5052864959083651e-07 
 1.5249831074136903e-07  1.5449374519314793e-07  1.5651529020813200e-07  1.5856328746217230e-07 
 1.6063808310280182e-07  1.6274002780778240e-07  1.6486947684441929e-07  1.6702679012965341e-07 
 1.6921233229094113e-07  1.7142647272793271e-07  1.7366958567495899e-07  1.7594205026433738e-07 
 1.7824425059050878e-07  1.8057657577501422e-07  1.8293942003232504e-07  1.8533318273653520e-07 
 1.8775826848892909e-07  1.9021508718643530e-07  1.9270405409097845e-07  1.9522558989974049e-07 
 1.9778012081634386e-07  2.0036807862296883e-07  2.0298990075341646e-07  2.0564603036713078e-07 
 2.0833691642419175e-07  2.1106301376129271e-07  2.1382478316871475e-07  2.1662269146831135e-07 
 2.1945721159251662e-07  2.2232882266439003e-07  2.2523801007871282e-07  2.2818526558414842e-07 
 2.3117108736648145e-07  2.3419598013294992e-07  2.3726045519768439e-07  2.4036503056826953e-07 
 2.4351023103344169e-07  2.4669658825193933e-07  2.4992464084251927e-07  2.5319493447515654e-07 
 2.5650802196344135e-07  2.5986446335819111e-07  2.6326482604229143e-07  2.6670968482678447e-07 
 2.7019962204821992e-07  2.7373522766728606e-07  2.7731709936873754e-07  2.8094584266263720e-07 
 2.8462207098693024e-07  2.8834640581136798e-07  2.9211947674279898e-07  2.9594192163184679e-07 
 2.9981438668099274e-07  3.0373752655408244e-07  3.0771200448727578e-07  3.1173849240145936e-07 
 3.1581767101614233e-07  3.1995022996485479e-07  3.2413686791207000e-07  3.2837829267167042e-07 
 3.3267522132698014e-07  3.3702838035238312e-07  3.4143850573655062e-07  3.4590634310729909e-07 
 3.5043264785810072e-07  3.5501818527626789e-07  3.5966373067283687e-07  3.6437006951417109e-07 
 3.6913799755530683e-07  3.7396832097506621e-07  3.7886185651295892e-07  3.8381943160789676e-07 
 3.8884188453874359e-07  3.9393006456672476e-07  3.9908483207971936e-07  4.0430705873845880e-07 
 4.0959762762465613e-07  4.1495743339108889e-07  4.2038738241366236e-07  4.2588839294547533e-07 
 4.3146139527291704e-07  4.3710733187381860e-07  4.4282715757768125e-07  4.4862183972791619e-07 
 4.5449235834595104e-07  4.6043970629782224e-07  4.6646488946307446e-07  4.7256892690590928e-07 
 4.7875285104860756e-07  4.8501770784725972e-07  4.9136455696983222e-07  4.9779447197660377e-07 
 5.0430854050300315e-07  5.1090786444488362e-07  5.1759356014626413e-07  5.2436675858957508e-07 
 5.3122860558843918e-07  5.3818026198302712e-07  5.4522290383801898e-07  5.5235772264321093e-07 
 5.5958592551680200e-07  5.6690873541140004e-07  5.7432739132278212e-07  5.8184314850144976e-07 
 5.8945727866701850e-07  5.9717107022547843e-07  6.0498582848937072e-07  6.1290287590091530e-07 
 6.2092355225813631e-07  6.2904921494402525e-07  6.3728123915878368e-07  6.4562101815519266e-07 
 6.5406996347714658e-07  6.6262950520140570e-07  6.7130109218260503e-07  6.8008619230156856e-07 
 6.8898629271697890e-07  6.9800290012044434e-07  7.0713754099501976e-07  7.1639176187722354e-07 
 7.2576712962260615e-07  7.3526523167491813e-07  7.4488767633893392e-07  7.5463609305697832e-07 
 7.6451213268921590e-07  7.7451746779775395e-07  7.8465379293461718e-07  7.9492282493364757e-07 
 8.0532630320639181e-07  8.1586599004203239e-07  8.2654367091141948e-07  8.3736115477527171e-07 
 8.4832027439659973e-07  8.5942288665742175e-07  8.7067087287982952e-07  8.8206613915147583e-07 
 8.9361061665554652e-07  9.0530626200528548e-07  9.1715505758314037e-07  9.2915901188460172e-07 
 9.4132015986680668e-07  9.5364056330197660e-07  9.6612231113576741e-07  9.7876751985060665e-07 
 9.9157833383409053e-07  1.0045569257525297e-06  1.0177054969297087e-06  1.0310262777309569e-06 
 1.0445215279526007e-06  1.0581935372168919e-06  1.0720446253724921e-06  1.0860771429006031e-06 
 1.1002934713268372e-06  1.1146960236389135e-06  1.1292872447102776e-06  1.1440696117297390e-06 
 1.1590456346372263e-06  1.1742178565657518e-06  1.1895888542897048e-06  1.2051612386795537e-06 
 1.2209376551630822e-06  1.2369207841932613e-06  1.2531133417228650e-06  1.2695180796859475e-06 
 1.2861377864862944e-06  1.3029752874929705e-06  1.3200334455430749e-06  1.3373151614518427e-06 
 1.3548233745302035e-06  1.3725610631099359e-06  1.3905312450765457e-06  1.4087369784100066e-06 
 1.4271813617334936e-06  1.4458675348702658e-06  1.4647986794088218e-06  1.4839780192764962e-06 
 1.5034088213216370e-06  1.5230943959045234e-06  1.5430380974971807e-06  1.5632433252922573e-06 
 1.5837135238211317e-06  1.6044521835814148e-06  1.6254628416740315e-06  1.6467490824500525e-06 
 1.6683145381674648e-06  1.6901628896580729e-06  1.7122978670047164e-06  1.7347232502290080e-06 
 1.7574428699897956e-06  1.7804606082925548e-06  1.8037803992099282e-06  1.8274062296136327e-06 
 1.8513421399179599e-06  1.8755922248350922e-06  1.9001606341424982e-06  1.9250515734626189e-06 
 1.9502693050551255e-06  1.9758181486219856e-06  2.0017024821256185e-06  2.0279267426204011e-06 
 2.0544954270978145e-06  2.0814130933455116e-06  2.1086843608206032e-06  2.1363139115374788e-06 
 2.1643064909704560e-06  2.1926669089716002e-06  2.2214000407040324e-06  2.2505108275910773e-06 
 2.2800042782815989e-06  2.3098854696318838e-06  2.3401595477044493e-06  2.3708317287841544e-06 
 2.4019073004120231e-06  2.4333916224371679e-06  2.4652901280872487e-06  2.4976083250578931e-06 
 2.5303517966215236e-06  2.5635262027560604e-06  2.5971372812939599e-06  2.6311908490920899e-06 
 2.6656928032229323e-06  2.7006491221876556e-06  2.7360658671515697e-06  2.7719491832025267e-06 
 2.8083053006328433e-06  2.8451405362453276e-06  2.8824612946840239e-06  2.9202740697902949e-06 
 2.9585854459849087e-06  2.9974020996767679e-06  3.0367308006990207e-06  3.0765784137732189e-06 
 3.1169519000022946e-06  3.1578583183931064e-06  3.1993048274093459e-06  3.2412986865556158e-06 
 3.2838472579935341e-06  3.3269580081907182e-06  3.3706385096035624e-06  3.4148964423947412e-06 
 3.4597395961863902e-06  3.5051758718499664e-06  3.5512132833338343e-06  3.5978599595296095e-06 
 3.6451241461784027e-06  3.6930142078180763e-06  3.7415386297727151e-06  3.7907060201855114e-06 
 3.8405251120963724e-06  3.8910047655655062e-06  3.9421539698443939e-06  3.9939818455955246e-06 
 4.0464976471623624e-06  4.0997107648910460e-06  4.1536307275053904e-06  4.2082672045368131e-06 
 4.2636300088108415e-06  4.3197290989919779e-06  4.3765745821886860e-06  4.4341767166203801e-06 
 4.4925459143483644e-06  4.5516927440727219e-06  4.6116279339972140e-06  4.6723623747643808e-06 
 4.7339071224630584e-06  4.7962734017106366e-06  4.8594726088124761e-06  4.9235163150009507e-06 
 4.9884162697567426e-06  5.0541844042150426e-06  5.1208328346594741e-06  5.1883738661066042e-06 
 5.2568199959840592e-06  5.3261839179053596e-06  5.3964785255446962e-06  5.4677169166150265e-06 
 5.5399123969529440e-06  5.6130784847139632e-06  5.6872289146819649e-06  5.7623776426966982e-06 
 5.8385388502033991e-06  5.9157269489287292e-06  5.9939565856873851e-06  6.0732426473239418e-06 
 6.1536002657946366e-06  6.2350448233939737e-06  6.3175919581312504e-06  6.4012575692622987e-06 
 6.4860578229819265e-06  6.5720091582827518e-06  6.6591282929863979e-06  6.7474322299531966e-06 
 6.8369382634767873e-06  6.9276639858703372e-06  7.0196272942512501e-06  7.1128463975315830e-06 
 7.2073398236216931e-06  7.3031264268548624e-06  7.4002253956410275e-06  7.4986562603580222e-06 
 7.5984389014891111e-06  7.6995935580159112e-06  7.8021408360762191e-06  7.9061017178965723e-06 
 8.0114975710098189e-06  8.1183501577683991e-06  8.2266816451644436e-06  8.3365146149682446e-06 
 8.4478720741971547e-06  8.5607774659274606e-06  8.6752546804622264e-06  8.7913280668687940e-06 
 8.9090224448999601e-06  9.0283631173136433e-06  9.1493758826063583e-06  9.2720870481764541e-06 
 9.3965234439337608e-06  9.5227124363729741e-06  9.6506819431288507e-06  9.7804604480319428e-06 
 9.9120770166846008e-06  1.0045561312577520e-05  1.0180943613768200e-05  1.0318254830143469e-05 
 1.0457526521289174e-05  1.0598790914991134e-05  1.0742080926392506e-05  1.0887430177833712e-05 
 1.1034873019402229e-05  1.1184444550220800e-05  1.1336180640503645e-05  1.1490117954411758e-05 
 1.1646293973739515e-05  1.1804747022466396e-05  1.1965516292208912e-05  1.2128641868609505e-05 
 1.2294164758700680e-05  1.2462126919284378e-05  1.2632571286368323e-05  1.2805541805702895e-05 
 1.2981083464464017e-05  1.3159242324129574e-05  1.3340065554598944e-05  1.3523601469607490e-05 
 1.3709899563490074e-05  1.3899010549350205e-05  1.4090986398693827e-05  1.4285880382589560e-05 
 1.4483747114419843e-05  1.4684642594290467e-05  1.4888624255168967e-05  1.5095751010825670e-05 
 1.5306083305654328e-05  1.5519683166453165e-05  1.5736614256250454e-05  1.5956941930262976e-05 
 1.6180733294079654e-05  1.6408057264166885e-05  1.6638984630796688e-05  1.6873588123503517e-05 
 1.7111942479180500e-05  1.7354124512931090e-05  1.7600213191797648e-05  1.7850289711494158e-05 
 1.8104437576276376e-05  1.8362742682089172e-05  1.8625293403137291e-05  1.8892180682033030e-05 
 1.9163498123681601e-05  1.9439342093072851e-05  1.9719811817156110e-05  2.0005009490983553e-05 
 2.0295040388316851e-05  2.0590012976900890e-05  2.0890039038619141e-05  2.1195233794755236e-05 
 2.1505716036596926e-05  2.1821608261630208e-05  2.2143036815583966e-05  2.2470132040598433e-05 
 2.2803028429804861e-05  2.3141864788618060e-05  2.3486784403059194e-05  2.3837935215442342e-05 
 2.4195470007775336e-05  2.4559546593243838e-05  2.4930328016166428e-05  2.5307982760828974e-05 
 2.5692684969627619e-05  2.6084614670972608e-05  2.6483958017428714e-05  2.6890907534593477e-05 
 2.7305662381241189e-05  2.7728428621288438e-05  2.8159419508167251e-05  2.8598855782223375e-05 
 2.9046965981790477e-05  2.9503986768626766e-05  2.9970163268437821e-05  3.0445749427249290e-05 
 3.0931008384434944e-05  3.1426212863250708e-05  3.1931645579771929e-05  3.2447599671181753e-05 
 3.2974379144411504e-05  3.3512299346190360e-05  3.4061687455621445e-05  3.4622883000465106e-05 
 3.5196238398377367e-05  3.5782119524423410e-05  3.6380906306261837e-05  3.6992993348476094e-05 
 3.7618790587615892e-05  3.8258723979601609e-05  3.8913236221243167e-05  3.9582787507726444e-05 
 4.0267856328031101e-05  4.0968940300360109e-05  4.1686557049785233e-05  4.2421245130445157e-05 
 4.3173564994773800e-05  4.3944100012385890e-05  4.4733457541406963e-05  4.5542270055204604e-05 
 4.6371196327659378e-05  4.7220922680307089e-05  4.8092164294889637e-05  4.8985666595072068e-05 
 4.9902206701317213e-05  5.0842594963159745e-05  5.1807676573388169e-05  5.2798333268927935e-05 
 5.3815485123524033e-05  5.4860092437644385e-05  5.5933157731374445e-05  5.7035727846442681e-05 
 5.8168896163913771e-05  5.9333804944509230e-05  6.0531647798968873e-05  6.1763672296350275e-05 
 6.3031182718681914e-05  6.4335542970940087e-05  6.5678179655913156e-05  6.7060585324151423e-05 
 6.8484321909882096e-05  6.9951024364495849e-05  7.1462404499993086e-05  7.3020255055613039e-05 
 7.4626454001765530e-05  7.6282969096344566e-05  7.7991862709534648e-05  7.9755296934322058e-05 
 8.1575539001110350e-05  8.3454967016108659e-05  8.5396076044525257e-05  8.7401484561062308e-05 
 8.9473941291779048e-05  9.1616332473077239e-05  9.3831689555374650e-05  9.6123197380978276e-05 
 9.8494202867760143e-05  1.0094822423248455e-04  1.0348896079005088e-04  1.0612030336751238e-04 
 1.0884634537452060e-04  1.1167139457484828e-04  1.1459998560687047e-04  1.1763689330435544e-04 
 1.2078714687265540e-04  1.2405604497940350e-04  1.2744917182315327e-04  1.3097241424805259e-04 
 1.3463197997765785e-04  1.3843441704639161e-04  1.4238663451296134e-04  1.4649592454631430e-04 
 1.5076998598144935e-04  1.5521694944966590e-04  1.5984540419565824e-04  1.6466442670228979e-04 
 1.6968361125296801e-04  1.7491310257132601e-04  1.8036363068846476e-04  1.8604654819937724e-04 
 1.9197387008242387e-04  1.9815831626893214e-04  2.0461335716422398e-04  2.1135326233670629e-04 
 2.1839315260819330e-04  2.2574905579644000e-04  2.3343796638006594e-04  2.4147790937673638e-04 
 2.4988800874776258e-04  2.5868856066630573e-04  2.6790111201224786e-04  2.7754854448467720e-04 
 2.8765516475296263e-04  2.9824680109973695e-04  3.0935090704393059e-04  3.2099667246948763e-04 
 3.3321514282574715e-04  3.4603934700888975e-04  3.5950443458055890e-04  3.7364782302999107e-04 
 3.8850935584000003e-04  4.0413147217518053e-04  4.2055938907305468e-04  4.3784129708582335e-04 
 4.5602857039224643e-04  4.7517599247626240e-04  4.9534199855162187e-04  5.1658893600038593e-04 
 5.3898334418802079e-04  5.6259625511935311e-04  5.8750351650826386e-04  6.1378613895007221e-04 
 6.4153066900951919e-04  6.7082959016953559e-04  7.0178175372698009e-04  7.3449284187172273e-04 
 7.6907586534522324e-04  8.0565169824457859e-04  8.4434965271828989e-04  8.8530809649111145e-04 
 9.2867511635773671e-04  9.7460923099903726e-04  1.0232801567004561e-03  1.0748696297902397e-03 
 1.1295722898656527e-03  1.1875966281383156e-03  1.2491660055053663e-03  1.3145197452411720e-03 
 1.3839143055046203e-03  1.4576245371691345e-03  1.5359450328059116e-03  1.6191915729845130e-03 
 1.7077026763976241e-03  1.8018412606668095e-03  1.9019964210412448e-03  2.0085853345586996e-03 
 2.1220552975938583e-03  2.2428859050683562e-03  2.3715913799338025e-03  2.5087230618555337e-03 
 2.6548720643112989e-03  2.8106721095632367e-03  2.9768025511482505e-03  3.1539915936427028e-03 
 3.3430197194695677e-03  3.5447233324027373e-03  3.7599986271518327e-03  3.9898056939440280e-03 
 4.2351728663140506e-03  4.4972013193212979e-03  4.7770699240812274e-03  5.0760403627710792e-03 
 5.3954625060911180e-03  5.7367800524779243e-03  6.1015364251287554e-03  6.4913809190698651e-03 
 6.9080750860706286e-03  7.3534993401763778e-03  7.8296597610469053e-03  8.3386950662234140e-03 
 8.8828837170295792e-03  9.4646511162165478e-03  1.0086576848914041e-02  1.0751401912226044e-02 
 1.1462035873227217e-02  1.2221563890516280e-02  1.3033253531201836e-02  1.3900561313521798e-02 
 1.4827138905407039e-02  1.5816838911184964e-02  1.6873720182003421e-02  1.8002052589831126e-02 
 1.9206321209095767e-02  2.0491229852905097e-02  2.1861703911006981e-02  2.3322892433029874e-02 
 2.4880169392543068e-02  2.6539134055473593e-02  2.8305610361942634e-02  3.0185645216199944e-02 
 3.2185505568159703e-02  3.4311674165001138e-02  3.6570843854271159e-02  3.8969910331035126e-02 
 4.1515963238830132e-02  4.4216275553232154e-02  4.7078291191516075e-02  5.0109610794369021e-02 
 5.3317975607240137e-02  5.6711249341315724e-02  6.0297397811293452e-02  6.4084466028601947e-02 
 6.8080552283518544e-02  7.2293778600046335e-02  7.6732256830092008e-02  8.1404049615370580e-02 
 8.6317125532672220e-02  9.1479307979267538e-02  9.6898217744753420e-02  1.0258120970560629e-01 
 1.0853530458564283e-01  1.1476711715253558e-01  1.2128278248615980e-01  1.2808788223297127e-01 
 1.3518737374138709e-01  1.4258551605652695e-01  1.5028580298239422e-01  1.5829090521757974e-01 
 1.6660261047291663e-01  1.7522176954213145e-01  1.8414824686983491e-01  1.9338087526348141e-01 
 2.0291741467215166e-01  2.1275451504208512e-01  2.2288768336268305e-01  2.3331125511606465e-01 
 2.4401837042390490e-01  2.5500095523973865e-01  2.6624970796126624e-01  2.7775409183737509e-01 
 2.8950233352267513e-01  3.0148142809326278e-01  3.1367715078601971e-01  3.2607407566427565e-01 
 3.3865560134857337e-01  3.5140398388518784e-01  3.6430037675885224e-01  3.7732487799106035e-01 
 3.9045658420215268e-01  4.0367365145451384e-01  4.1695336263579769e-01  4.3027220108511272e-01 
 4.4360593011144989e-01  4.5692967800216155e-01  4.7021802806988550e-01  4.8344511323886646e-01 
 4.9658471462619785e-01  5.0961036353020539e-01  5.2249544619732302e-01  5.3521331070077693e-01 
 5.4773737522979771e-01  5.6004123705756181e-01  5.7209878143012516e-01  5.8388428960056138e-01 
 5.9537254522204697e-01  6.0653893830210859e-01  6.1735956592506269e-01  6.2781132897475567e-01 
 6.3787202410834809e-01  6.4752043026385198e-01  6.5673638903656684e-01  6.6550087831775662e-01 
 6.7379607865890134e-01  6.8160543190532141e-01  6.8891369173268158e-01  6.9570696581737901e-01 
 7.0197274947533306e-01  7.0769995071115699e-01  7.1287890672885701e-01  7.1750139206358710e-01 
 7.2156061859913778e-01  7.2505122783522102e-01  7.2796927585989879e-01  7.3031221156340786e-01 
 7.3207884869833695e-01  7.3326933244591896e-01  7.3388510118798078e-01  7.3392884420805560e-01 
 7.3340445605301552e-01  7.3231698827850300e-01  7.3067259927805661e-01  7.2847850285824522e-01 
 7.2574291617178788e-01  7.2247500755941196e-01  7.1868484478117123e-01  7.1438334404143711e-01 
 7.0958222013121541e-01  7.0429393792930362e-01  6.9853166542249934e-01  6.9230922832688069e-01 
 6.8564106631918842e-01  6.7854219082130929e-01  6.7102814422333956e-01  6.6311496038278495e-01 
 6.5481912619994198e-01  6.4615754404285863e-01  6.3714749477957577e-01  6.2780660117043874e-01 
 6.1815279137867174e-01  6.0820426237245506e-01  5.9797944301551753e-01  5.8749695667472634e-01 
 5.7677558321102240e-01  5.6583422026272034e-01  5.5469184321646647e-01  5.4336746667763636e-01 
 5.3188010189036239e-01  5.2024871580085974e-01  5.0849218912653649e-01  4.9662927417509967e-01 
 4.8467855263998516e-01  4.7265839362705120e-01  4.6058691218863562e-01  4.4848192865394126e-01 
 4.3636092904892321e-01  4.2424102689449411e-01  4.1213892665939889e-01  4.0007088912429045e-01 
 3.8805269888740518e-01  3.7609963421104642e-01  3.6422643937325561e-01  3.5244729965153393e-01 
 3.4077581902752763e-01  3.2922500066482285e-01  3.1780723017478890e-01  3.0653426165173325e-01 
 2.9541720642945135e-01  2.8446652448425352e-01  2.7369201838749874e-01  2.6310282969286930e-01 
 2.5270743763014919e-01  2.4251365996801941e-01  2.3252865590235791e-01  2.2275893082489215e-01 
 2.1321034282896265e-01  2.0388811081107946e-01  1.9479682403277709e-01  1.8594045301548526e-01 
 1.7732236164871124e-01  1.6894532040097796e-01  1.6081152053236453e-01  1.5292258921689678e-01 
 1.4527960549218810e-01  1.3788311696240174e-01  1.3073315718862830e-01  1.2382926370799147e-01 
 1.1717049662913691e-01  1.1075545775713547e-01  1.0458231020521777e-01  9.8648798454130895e-02 
 9.2952268822271714e-02  8.7489690311124704e-02  8.2257675790943285e-02  7.7252503491111013e-02 
 7.2470138758260375e-02  6.7906256043084395e-02  6.3556261073945727e-02  5.9415313171970179e-02 
 5.5478347658440168e-02  5.1740098301113695e-02  4.8195119741751113e-02  4.4837809842797123e-02 
 4.1662431887023822e-02  3.8663136560159982e-02  3.5833983643293238e-02  3.3168963339288905e-02 
 3.0662017155764606e-02  2.8307058266412926e-02  2.6097991272757356e-02  2.4028731289819989e-02 
 2.2093222281690316e-02  2.0285454576600800e-02  1.8599481495791142e-02  1.7029435036102183e-02 
 1.5569540552781159e-02  1.4214130396279050e-02  1.2957656464738180e-02  1.1794701642255431e-02 
 1.0719990101706165e-02  9.7283964597720454e-03  8.8149537806797764e-03  7.9748604338828657e-03 
 7.2034858193730095e-03  6.4963749823703431e-03  5.8492521467088856e-03  5.2580232032161962e-03 
 4.7187771957122940e-03  4.2277868528676349e-03  3.7815082190235977e-03  3.3765794411683924e-03 
 3.0098187725668946e-03  2.6782218560687677e-03  2.3789583518809020e-03  2.1093679756138948e-03 
 1.8669560127329444e-03  1.6493883752038249e-03  1.4544862651731548e-03  1.2802205090115754e-03 
 1.1247056230387618e-03  9.8619366979368125e-04  8.6306796087909257e-04  7.5383665925225177e-04 
 6.5712633041578865e-04  5.7167548834186185e-04  4.9632817819538671e-04  4.3002763406187829e-04 
 3.7181004598262063e-04  3.2079846670111706e-04  2.7619688467279502e-04  2.3728448612322640e-04 
 2.0341012529282118e-04  1.7398701850764703e-04  1.4848767439234789e-04  1.2643906941225267e-04 
 1.0741807501491830e-04  9.1047139948583346e-05  7.6990228874934460e-05  6.4949016170926188e-05 
 5.4659331830862999e-05  4.5887854633278212e-05  3.8429046223368023e-05  3.2102318473545840e-05 
 2.6749425413037453e-05  2.2232070151321584e-05  1.8429716547448766e-05  1.5237594883846801e-05 
 1.2564890475133460e-05  1.0333103964473001e-05  8.4745720169213959e-06  6.9311371956758247e-06 
 5.6529559880324947e-06  4.5974342183963247e-06  3.7282794316602020e-06  3.0146602381577380e-06 
 2.4304630684802699e-06  1.9536372809304275e-06  1.5656200854253744e-06  1.2508332854446875e-06 
 9.9624438536328995e-07  7.9098515648796326e-07  6.2602129450546985e-07  4.9386732855014230e-07 
 3.8834145219214119e-07  3.0435543630771941e-07  2.3773524947125423e-07  1.8506845115979678e-07 
 1.4357483511412117e-07  1.1099718373965020e-07  8.5509349091144514e-08  6.5639201875987932e-08 
 5.0204287544027828e-08  3.8258298752164933e-08  2.9046717405011323e-08  2.1970198421807963e-08 
 1.6554462795507588e-08  1.2425641009739097e-08  9.2901610737237981e-09  6.9184099882764770e-09 
 5.1315150142359778e-09  3.7906932882746525e-09  2.7887066725439028e-09  2.0430347120537549e-09 
 1.4904435983648430e-09  1.0826843963132138e-09  7.8310067763212275e-10  5.6396528688603492e-10 
 4.0439942503674253e-10  2.8875206554836905e-10  2.0534726001958835e-10  1.4551861918547663e-10 
 1.0286963394806237e-10  0.0000000000000000e+00  0.0000000000000000e+00  0.0000000000000000e+00 
 0.0000000000000000e+00  0.0000000000000000e+00  0.0000000000000000e+00  0.0000000000000000e+00 
 0.0000000000000000e+00  0.0000000000000000e+00  0.0000000000000000e+00  0.0000000000000000e+00 
 0.0000000000000000e+00  0.0000000000000000e+00  0.0000000000000000e+00  0.0000000000000000e+00 
 0.0000000000000000e+00  0.0000000000000000e+00  0.0000000000000000e+00  0.0000000000000000e+00 
 0.0000000000000000e+00  0.0000000000000000e+00  0.0000000000000000e+00  0.0000000000000000e+00 
 0.0000000000000000e+00  0.0000000000000000e+00  0.0000000000000000e+00  0.0000000000000000e+00 
 0.0000000000000000e+00  0.0000000000000000e+00  0.0000000000000000e+00  0.0000000000000000e+00 
 0.0000000000000000e+00  0.0000000000000000e+00  0.0000000000000000e+00  0.0000000000000000e+00 
 0.0000000000000000e+00  0.0000000000000000e+00  0.0000000000000000e+00  0.0000000000000000e+00 
 0.0000000000000000e+00  0.0000000000000000e+00  0.0000000000000000e+00  0.0000000000000000e+00 
 0.0000000000000000e+00  0.0000000000000000e+00  0.0000000000000000e+00  0.0000000000000000e+00 
 0.0000000000000000e+00  0.0000000000000000e+00  0.0000000000000000e+00  0.0000000000000000e+00 
 0.0000000000000000e+00  0.0000000000000000e+00  0.0000000000000000e+00  0.0000000000000000e+00 
 0.0000000000000000e+00  0.0000000000000000e+00  0.0000000000000000e+00  0.0000000000000000e+00 
 0.0000000000000000e+00  0.0000000000000000e+00  0.0000000000000000e+00  0.0000000000000000e+00 
 0.0000000000000000e+00  0.0000000000000000e+00  0.0000000000000000e+00  0.0000000000000000e+00 
 0.0000000000000000e+00  0.0000000000000000e+00  0.0000000000000000e+00  0.0000000000000000e+00 
 0.0000000000000000e+00  0.0000000000000000e+00  0.0000000000000000e+00  0.0000000000000000e+00 
 0.0000000000000000e+00  0.0000000000000000e+00  0.0000000000000000e+00  0.0000000000000000e+00 
 0.0000000000000000e+00  0.0000000000000000e+00  0.0000000000000000e+00  0.0000000000000000e+00 
 0.0000000000000000e+00  0.0000000000000000e+00  0.0000000000000000e+00  0.0000000000000000e+00 
 0.0000000000000000e+00  0.0000000000000000e+00  0.0000000000000000e+00  0.0000000000000000e+00 
 0.0000000000000000e+00  0.0000000000000000e+00  0.0000000000000000e+00  0.0000000000000000e+00 
 0.0000000000000000e+00  0.0000000000000000e+00  0.0000000000000000e+00  0.0000000000000000e+00 
 0.0000000000000000e+00  0.0000000000000000e+00  0.0000000000000000e+00  0.0000000000000000e+00 
 0.0000000000000000e+00  0.0000000000000000e+00  0.0000000000000000e+00  0.0000000000000000e+00 
 0.0000000000000000e+00  0.0000000000000000e+00  0.0000000000000000e+00  0.0000000000000000e+00 
 0.0000000000000000e+00  0.0000000000000000e+00  0.0000000000000000e+00  0.0000000000000000e+00 
 0.0000000000000000e+00 
P    1   0.17          Wavefunction
 1.2836270965585078e-12  1.3174390519877897e-12  1.3521416464048516e-12  1.3877583400860101e-12 
 1.4243132112735434e-12  1.4618309724535053e-12  1.5003369870623073e-12  1.5398572866333735e-12 
 1.5804185883954487e-12  1.6220483133344675e-12  1.6647746047311870e-12  1.7086263471871223e-12 
 1.7536331861516381e-12  1.7998255479634075e-12  1.8472346604197800e-12  1.8958925738879645e-12 
 1.9458321829723042e-12  1.9970872487522848e-12  2.0496924216063188e-12  2.1036832646367219e-12 
 2.1590962777117346e-12  2.2159689221408253e-12  2.2743396459999714e-12  2.3342479101240280e-12 
 2.3957342147837632e-12  2.4588401270655889e-12  2.5236083089725051e-12  2.5900825462652449e-12 
 2.6583077780631267e-12  2.7283301272246146e-12  2.8001969315281441e-12  2.8739567756742675e-12 
 2.9496595241307748e-12  3.0273563548429854e-12  3.1070997938319976e-12  3.1889437507042923e-12 
 3.2729435550966948e-12  3.3591559940813273e-12  3.4476393505558521e-12  3.5384534426449391e-12 
 3.6316596641396167e-12  3.7273210260018289e-12  3.8255021989622642e-12  3.9262695572402478e-12 
 4.0296912234152648e-12  4.1358371144804394e-12  4.2447789891091032e-12  4.3565904961664214e-12 
 4.4713472244988505e-12  4.5891267540351029e-12  4.7100087082331630e-12  4.8340748079088000e-12 
 4.9614089264819940e-12  5.0920971466785823e-12  5.2262278187254978e-12  5.3638916200789230e-12 
 5.5051816167257450e-12  5.6501933260997371e-12  5.7990247816550344e-12  5.9517765991405125e-12 
 6.1085520446199242e-12  6.2694571042837331e-12  6.4346005560998701e-12  6.6040940433518273e-12 
 6.7780521501138397e-12  6.9565924787141275e-12  7.1398357292386257e-12  7.3279057811288954e-12 
 7.5209297769294164e-12  7.7190382082408652e-12  7.9223650039374866e-12  8.1310476207081815e-12 
 8.3452271359825650e-12  8.5650483433047617e-12  8.7906598502194589e-12  9.0222141787363564e-12 
 9.2598678684409757e-12  9.5037815823214732e-12  9.7541202153830752e-12  1.0011053006123487e-11 
 1.0274753650944705e-11  1.0545400421578534e-11  1.0823176285605213e-11  1.1108269030146615e-11 
 1.1400871388817652e-11  1.1701181172021718e-11  1.2009401400678226e-11  1.2325740443472664e-11 
 1.2650412157721977e-11  1.2983636033950446e-11  1.3325637344273864e-11  1.3676647294692308e-11 
 1.4036903181394433e-11  1.4406648551178993e-11  1.4786133366102021e-11  1.5175614172460984e-11 
 1.5575354274230144e-11  1.5985623911064395e-11  1.6406700440991901e-11  1.6838868527919009e-11 
 1.7282420334074286e-11  1.7737655717521684e-11  1.8204882434876432e-11  1.8684416349360672e-11 
 1.9176581644339420e-11  1.9681711042481443e-11  2.0200146030692849e-11  2.0732237090975871e-11 
 2.1278343937368534e-11  2.1838835759125677e-11  2.2414091470305554e-11  2.3004499965930803e-11 
 2.3610460384897014e-11  2.4232382379806536e-11  2.4870686393909992e-11  2.5525803945342732e-11 
 2.6198177918848401e-11  2.6888262865186743e-11  2.7596525308428202e-11  2.8323444061342932e-11 
 2.9069510549097526e-11  2.9835229141478228e-11  3.0621117493865282e-11  3.1427706897188878e-11 
 3.2255542637103386e-11  3.3105184362622540e-11  3.3977206464464936e-11  3.4872198463365532e-11 
 3.5790765408615651e-11  3.6733528287101084e-11  3.7701124443114611e-11  3.8694208009226815e-11 
 3.9713450348506610e-11  4.0759540508390280e-11  4.1833185686505957e-11  4.2935111708768407e-11 
 4.4066063520067423e-11  4.5226805687881432e-11  4.6418122919156907e-11  4.7640820590802978e-11 
 4.8895725294159773e-11  5.0183685393808866e-11  5.1505571601103163e-11  5.2862277562804559e-11 
 5.4254720465226718e-11  5.5683841654291821e-11  5.7150607271920271e-11  5.8656008909183670e-11 
 6.0201064276662644e-11  6.1786817892462681e-11  6.3414341788353099e-11  6.5084736234506573e-11 
 6.6799130483329238e-11  6.8558683532884048e-11  7.0364584910423778e-11  7.2218055476563236e-11 
 7.4120348250634167e-11  7.6072749257781370e-11  7.8076578398372127e-11  8.0133190340307007e-11 
 8.2243975434835399e-11  8.4410360656494656e-11  8.6633810567808481e-11  8.8915828309396850e-11 
 9.1257956616166541e-11  9.3661778860269396e-11  9.6128920121533866e-11  9.8661048286092702e-11 
 1.0125987517395021e-10  1.0392715769625122e-10  1.0666469904303379e-10  1.0947434990226934e-10 
 1.1235800971101371e-10  1.1531762793951544e-10  1.1835520540914913e-10  1.2147279564506518e-10 
 1.2467250626447022e-10  1.2795650040147680e-10  1.3132699816948586e-10  1.3478627816209012e-10 
 1.3833667899351412e-10  1.4198060087963117e-10  1.4572050726062709e-10  1.4955892646640704e-10 
 1.5349845342587222e-10  1.5754175142122111e-10  1.6169155388846198e-10  1.6595066626535400e-10 
 1.7032196788802540e-10  1.7480841393755282e-10  1.7941303743781529e-10  1.8413895130597648e-10 
 1.8898935045697878e-10  1.9396751396347452e-10  1.9907680727265253e-10  2.0432068448146064e-10 
 2.0970269067176090e-10  2.1522646430699688e-10  2.2089573969199465e-10  2.2671434949755773e-10 
 2.3268622735156608e-10  2.3881541049832853e-10  2.4510604252798806e-10  2.5156237617782479e-10 
 2.5818877620735095e-10  2.6498972234914080e-10  2.7196981233739241e-10  2.7913376501626699e-10 
 2.8648642353010931e-10  2.9403275859770393e-10  3.0177787187278311e-10  3.0972699939305788e-10 
 3.1788551512010353e-10  3.2625893457249407e-10  3.3485291855464076e-10  3.4367327698385825e-10 
 3.5272597281824262e-10  3.6201712608802098e-10  3.7155301803309461e-10  3.8134009534957584e-10 
 3.9138497454818985e-10  4.0169444642748573e-10  4.1227548066488573e-10  4.2313523052867248e-10 
 4.3428103771410282e-10  4.4572043730691885e-10  4.5746116287760965e-10  4.6951115170987075e-10 
 4.8187855016679502e-10  4.9457171919842548e-10  5.0759923999439100e-10  5.2096991978545082e-10 
 5.3469279779786737e-10  5.4877715136463497e-10  5.6323250219769936e-10  5.7806862282540362e-10 
 5.9329554319951961e-10  6.0892355747632576e-10  6.2496323097632582e-10  6.4142540732730412e-10 
 6.5832121579555666e-10  6.7566207881024977e-10  6.9345971968599582e-10  7.1172617054887040e-10 
 7.3047378047122768e-10  7.4971522382081650e-10  7.6946350882984277e-10  7.8973198638977331e-10 
 8.1053435907782791e-10  8.3188469042126595e-10  8.5379741440572765e-10  8.7628734523406703e-10 
 8.9936968734227193e-10  9.2306004567924485e-10  9.4737443625739995e-10  9.7232929698120712e-10 
 9.9794149876101438e-10  1.0242283569196572e-09  1.0512076428995757e-09  1.0788975962783572e-09 
 1.1073169371008303e-09  1.1364848785360562e-09  1.1664211398677745e-09  1.1971459598270964e-09 
 1.2286801102764622e-09  1.2610449102541227e-09  1.2942622403886474e-09  1.3283545576932099e-09 
 1.3633449107496630e-09  1.3992569552926767e-09  1.4361149702044856e-09  1.4739438739310667e-09 
 1.5127692413308601e-09  1.5526173209674217e-09  1.5935150528577293e-09  1.6354900866881311e-09 
 1.6785708005102716e-09  1.7227863199296416e-09  1.7681665377997341e-09  1.8147421344351272e-09 
 1.8625445983571677e-09  1.9116062475862847e-09  1.9619602514953360e-09  2.0136406532387656e-09 
 2.0666823927727336e-09  2.1211213304817948e-09  2.1769942714280878e-09  2.2343389902394446e-09 
 2.2931942566532458e-09  2.3535998617332937e-09  2.4155966447773971e-09  2.4792265209333725e-09 
 2.5445325095411446e-09  2.6115587632233271e-09  2.6803505977428978e-09  2.7509545226476999e-09 
 2.8234182727224877e-09  2.8977908402698096e-09  2.9741225082415686e-09  3.0524648842437044e-09 
 3.1328709354369957e-09  3.2153950243576338e-09  3.3000929456817967e-09  3.3870219639591302e-09 
 3.4762408523406728e-09  3.5678099323274507e-09  3.6617911145666642e-09  3.7582479407230686e-09 
 3.8572456264539357e-09  3.9588511055166641e-09  4.0631330750389366e-09  4.1701620419820645e-09 
 4.2800103708290068e-09  4.3927523325293454e-09  4.5084641547343794e-09  4.6272240733563712e-09 
 4.7491123854868584e-09  4.8742115037099025e-09  5.0026060118470399e-09  5.1343827221717527e-09 
 5.2696307341321579e-09  5.4084414946217888e-09  5.5509088598392433e-09  5.6971291587786489e-09 
 5.8472012583939855e-09  6.0012266304814059e-09  6.1593094203249263e-09  6.3215565171519700e-09 
 6.4880776264465911e-09  6.6589853441693442e-09  6.8343952329341783e-09  7.0144259001939557e-09 
 7.1991990784876605e-09  7.3888397078037090e-09  7.5834760201152031e-09  7.7832396261444920e-09 
 7.9882656044159041e-09  8.1986925926570424e-09  8.4146628816106629e-09  8.6363225113208358e-09 
 8.8638213699586548e-09  9.0973132952546511e-09  9.3369561786066812e-09  9.5829120719340238e-09 
 9.8353472973501996e-09  1.0094432559728996e-08  1.0360343062240107e-08  1.0633258624932871e-08 
 1.0913363806448703e-08  1.1200848028944785e-08  1.1495905706313994e-08  1.1798736375788163e-08 
 1.2109544833014040e-08  1.2428541270693894e-08  1.2755941420884839e-08  1.3091966701053790e-08 
 1.3436844363987191e-08  1.3790807651657645e-08  1.4154095953151944e-08  1.4526954966768014e-08 
 1.4909636866391064e-08  1.5302400472262130e-08  1.5705511426255240e-08  1.6119242371782594e-08 
 1.6543873138450134e-08  1.6979690931589303e-08  1.7426990526794183e-08  1.7886074469596352e-08 
 1.8357253280413663e-08  1.8840845664912598e-08  1.9337178729927562e-08  1.9846588205084355e-08 
 2.0369418670278969e-08  2.0906023789166895e-08  2.1456766548822173e-08  2.2022019505729892e-08 
 2.2602165038279906e-08  2.3197595605934260e-08  2.3808714015245296e-08  2.4435933692906203e-08 
 2.5079678966020553e-08  2.5740385349782475e-08  2.6418499842764082e-08  2.7114481230012136e-08 
 2.7828800394161359e-08  2.8561940634777289e-08  2.9314397996147193e-08  3.0086681603743688e-08 
 3.0879314009591400e-08  3.1692831546773453e-08  3.2527784693320736e-08  3.3384738445733453e-08 
 3.4264272702391287e-08  3.5166982657115343e-08  3.6093479203151854e-08  3.7044389347855374e-08 
 3.8020356638356157e-08  3.9022041598504580e-08  4.0050122177392804e-08  4.1105294209762539e-08 
 4.2188271888615565e-08  4.3299788250352614e-08  4.4440595672774931e-08  4.5611466386291520e-08 
 4.6813192998684884e-08  4.8046589033797281e-08  4.9312489484509257e-08  5.0611751380392650e-08 
 5.1945254370430286e-08  5.3313901321205225e-08  5.4718618930973495e-08  5.6160358360045902e-08 
 5.7640095877914861e-08  5.9158833527575467e-08  6.0717599807501300e-08  6.2317450371748512e-08 
 6.3959468748674503e-08  6.5644767078770429e-08  6.7374486872121263e-08  6.9149799786020244e-08 
 7.0971908423279681e-08  7.2842047151794627e-08  7.4761482945930918e-08  7.6731516250325652e-08 
 7.8753481866703158e-08  8.0828749864327432e-08  8.2958726514727569e-08  8.5144855251352040e-08 
 8.7388617654823982e-08  8.9691534464489837e-08  9.2055166616971751e-08  9.4481116312454183e-08 
 9.6971028109455620e-08  9.9526590048856976e-08  1.0214953480797952e-07  1.0484164088552777e-07 
 1.0760473381823507e-07  1.1044068743007274e-07  1.1335142511490935e-07  1.1633892115352870e-07 
 1.1940520206594323e-07  1.2255234799996465e-07  1.2578249415702064e-07  1.2909783225623441e-07 
 1.3250061203781338e-07  1.3599314280682115e-07  1.3957779501843922e-07  1.4325700190585512e-07 
 1.4703326115194602e-07  1.5090913660596060e-07  1.5488726004643617e-07  1.5897033299162283e-07 
 1.6316112855872387e-07  1.6746249337329783e-07  1.7187734953020760e-07  1.7640869660754093e-07 
 1.8105961373496893e-07  1.8583326171804917e-07  1.9073288522002708e-07  1.9576181500273146e-07 
 2.0092347022820782e-07  2.0622136082278111e-07  2.1165908990528878e-07  2.1724035628127539e-07 
 2.2296895700499368e-07  2.2884879001111150e-07  2.3488385681807825e-07  2.4107826530516431e-07 
 2.4743623256524577e-07  2.5396208783546865e-07  2.6066027550798985e-07  2.6753535822305905e-07 
 2.7459202004677220e-07  2.8183506973589841e-07  2.8926944409225453e-07  2.9690021140917519e-07 
 3.0473257501270541e-07  3.1277187690022031e-07  3.2102360147926282e-07  3.2949337940947023e-07 
 3.3818699155055477e-07  3.4711037301938950e-07  3.5626961735934794e-07  3.6567098082514379e-07 
 3.7532088678651576e-07  3.8522593025420869e-07  3.9539288253181072e-07  4.0582869599711671e-07 
 4.1654050901680428e-07  4.2753565099833000e-07  4.3882164758307466e-07  4.5040622598489813e-07 
 4.6229732047839634e-07  4.7450307804128932e-07  4.8703186415551305e-07  4.9989226877173869e-07 
 5.1309311244219038e-07  5.2664345262679796e-07  5.4055259017788087e-07  5.5483007600873451e-07 
 5.6948571795166351e-07  5.8452958781119535e-07  5.9997202861839370e-07  6.1582366209239040e-07 
 6.3209539631546363e-07  6.4879843362819930e-07  6.6594427875149298e-07  6.8354474714238603e-07 
 7.0161197359096176e-07  7.2015842106577777e-07  7.3919688981557138e-07  7.5874052673523749e-07 
 7.7880283500436018e-07  7.9939768400686678e-07  8.2053931954067980e-07  8.4224237432654087e-07 
 8.6452187882552477e-07  8.8739327237508664e-07  9.1087241465383873e-07  9.3497559748563145e-07 
 9.5971955699387616e-07  9.8512148611746157e-07  1.0111990475000181e-06  1.0379703867647234e-06 
 1.0654541461872789e-06  1.0936694787801739e-06  1.1226360628018177e-06  1.1523741167046477e-06 
 1.1829044145368421e-06  1.2142483018128140e-06  1.2464277118682461e-06  1.2794651827160276e-06 
 1.3133838744200660e-06  1.3482075870046233e-06  1.3839607789174854e-06  1.4206685860660010e-06 
 1.4583568414457610e-06  1.4970520953824760e-06  1.5367816364084005e-06  1.5775735127955263e-06 
 1.6194565547686268e-06  1.6624603974221756e-06  1.7066155043661281e-06  1.7519531921265498e-06 
 1.7985056553281561e-06  1.8463059926869115e-06  1.8953882338420082e-06  1.9457873670577440e-06 
 1.9975393678270854e-06  2.0506812284100345e-06  2.1052509883412976e-06  2.1612877659432037e-06 
 2.2188317908813553e-06  2.2779244378020634e-06  2.3386082610923047e-06  2.4009270308046950e-06 
 2.4649257697917641e-06  2.5306507920957964e-06  2.5981497426424563e-06  2.6674716382885753e-06 
 2.7386669102766568e-06  2.8117874481510036e-06  2.8868866451927771e-06  2.9640194454338905e-06 
 3.0432423923122964e-06  3.1246136790340413e-06  3.2081932007104327e-06  3.2940426083417627e-06 
 3.3822253647222765e-06  3.4728068023445259e-06  3.5658541833848214e-06  3.6614367618552856e-06 
 3.7596258480119840e-06  3.8604948751127916e-06  3.9641194686230213e-06  4.0705775179714885e-06 
 4.1799492509645166e-06  4.2923173109705048e-06  4.4077668369930563e-06  4.5263855467563041e-06 
 4.6482638229320550e-06  4.7734948026445782e-06  4.9021744703955409e-06  5.0344017545584512e-06 
 5.1702786275993393e-06  5.3099102101880948e-06  5.4534048793729958e-06  5.6008743809995038e-06 
 5.7524339465634297e-06  5.9082024146980781e-06  6.0683023575049612e-06  6.2328602119483040e-06 
 6.4020064165445993e-06  6.5758755535903410e-06  6.7546064971833494e-06  6.9383425673062787e-06 
 7.1272316902546246e-06  7.3214265657061930e-06  7.5210848407443166e-06  7.7263692911633909e-06 
 7.9374480104024871e-06  8.1544946064708501e-06  8.3776884072483063e-06  8.6072146745638605e-06 
 8.8432648274770694e-06  9.0860366752095128e-06  9.3357346601974783e-06  9.5925701117623686e-06 
 9.8567615109219781e-06  1.0128534766894228e-05  1.0408123505874731e-05  1.0695769372701339e-05 
 1.0991722346052401e-05  1.1296241067860838e-05  1.1609593187663923e-05  1.1932055722648321e-05 
 1.2263915434192229e-05  1.2605469221751171e-05  1.2957024534981317e-05  1.3318899805044444e-05 
 1.3691424896091945e-05  1.4074941577981597e-05  1.4469804021340959e-05  1.4876379316154405e-05 
 1.5295048015118521e-05  1.5726204703081947e-05  1.6170258593961720e-05  1.6627634156608728e-05 
 1.7098771771180483e-05  1.7584128417670411e-05  1.8084178398339251e-05  1.8599414095896925e-05 
 1.9130346769392208e-05  1.9677507389883457e-05  2.0241447518086985e-05  2.0822740226330530e-05 
 2.1421981067278947e-05  2.2039789092047438e-05  2.2676807920475425e-05  2.3333706866502135e-05 
 2.4011182121764258e-05  2.4709958000725596e-05  2.5430788250852376e-05  2.6174457431563287e-05 
 2.6941782365913952e-05  2.7733613669220508e-05  2.8550837359088904e-05  2.9394376551595006e-05 
 3.0265193248658221e-05  3.1164290221968360e-05  3.2092712999164094e-05  3.3051551958322180e-05 
 3.4041944537202455e-05  3.5065077564104611e-05  3.6122189717632769e-05  3.7214574123132648e-05 
 3.8343581094067804e-05  3.9510621027136854e-05  4.0717167460506647e-05  4.1964760305147508e-05 
 4.3255009259911826e-05  4.4589597421696514e-05  4.5970285102778742e-05  4.7398913868214748e-05 
 4.8877410807048691e-05  5.0407793051995676e-05  5.1992172563244733e-05  5.3632761193078693e-05 
 5.5331876049134381e-05  5.7091945175331434e-05  5.8915513570790957e-05  6.0805249568449550e-05 
 6.2763951596557231e-05  6.4794555347839604e-05  6.6900141382809092e-05  6.9083943195538886e-05 
 7.1349355772175769e-05  7.3699944674569771e-05  7.6139455683658569e-05  7.8671825039665377e-05 
 8.1301190318769370e-05  8.4031901988698327e-05  8.6868535688689868e-05  8.9815905282483152e-05 
 9.2879076736459516e-05  9.6063382878758922e-05  9.9374439099186333e-05  1.0281816005400207e-04 
 1.0640077744429217e-04  1.1012885894155611e-04  1.1400932833946247e-04  1.1804948701643156e-04 
 1.2225703679984008e-04  1.2664010432923855e-04  1.3120726702306427e-04  1.3596758076095131e-04 
 1.4093060940193784e-04  1.4610645626767933e-04  1.5150579772924951e-04  1.5713991904629600e-04 
 1.6302075261826848e-04  1.6916091881921175e-04  1.7557376960027413e-04  1.8227343505769410e-04 
 1.8927487317865752e-04  1.9659392299315124e-04  2.0424736137684458e-04  2.1225296376820726e-04 
 2.2062956908260311e-04  2.2939714912709137e-04  2.3857688284221904e-04  2.4819123572131490e-04 
 2.5826404478382679e-04  2.6882060950718091e-04  2.7988778915165942e-04  2.9149410694499555e-04 
 3.0366986162795557e-04  3.1644724689926246e-04  3.2986047933799032e-04  3.4394593542421120e-04 
 3.5874229832438467e-04  3.7429071515696370e-04  3.9063496550614709e-04  4.0782164200787552e-04 
 4.2590034389226530e-04  4.4492388443096684e-04  4.6494851330666071e-04  4.8603415499535134e-04 
 5.0824466433054764e-04  5.3164810050213907e-04  5.5631702083208038e-04  5.8232879576418232e-04 
 6.0976594660672352e-04  6.3871650767454390e-04  6.6927441459209414e-04  7.0153992064095133e-04 
 7.3562004316486565e-04  7.7162904218284610e-04  8.0968893350641012e-04  8.4993003881122424e-04 
 8.9249157527621894e-04  9.3752228757507615e-04  9.8518112518593878e-04  1.0356379681753167e-03 
 1.0890744048114224e-03  1.1456845645703131e-03  1.2056760103147950e-03  1.2692706936503022e-03 
 1.3367059776927615e-03  1.4082357317190982e-03  1.4841315024093245e-03  1.5646837666268860e-03 
 1.6502032709170473e-03  1.7410224631262431e-03  1.8374970217515799e-03  1.9400074888104686e-03 
 2.0489610121649190e-03  2.1647932033303013e-03  2.2879701168286954e-03  2.4189903570939024e-03 
 2.5583873187776545e-03  2.7067315660208591e-03  2.8646333558140151e-03  3.0327453099504029e-03 
 3.2117652392470845e-03  3.4024391226471704e-03  3.6055642425008609e-03  3.8219924757378386e-03 
 4.0526337387853002e-03  4.2984595819623014e-03  4.5605069267174812e-03  4.8398819365182231e-03 
 5.1377640095119064e-03  5.4554098783551599e-03  5.7941577999597394e-03  6.1554318154706262e-03 
 6.5407460587265957e-03  6.9517090899156222e-03  7.3900282302777100e-03  7.8575138736434354e-03 
 8.3560837513793444e-03  8.8877671288884151e-03  9.4547089139852721e-03  1.0059173659854561e-02 
 1.0703549447345643e-02  1.1390351632353557e-02  1.2122226443243960e-02  1.2901954410086567e-02 
 1.3732453601593971e-02  1.4616782637372889e-02  1.5558143433254200e-02  1.6559883627493732e-02 
 1.7625498627225136e-02  1.8758633209267191e-02  1.9963082608224866e-02  2.1242793027808595e-02 
 2.2601861517313512e-02  2.4044535161970602e-02  2.5575209540093985e-02  2.7198426397489810e-02 
 2.8918870475901852e-02  3.0741365402957514e-02  3.2670868502996324e-02  3.4712464321074325e-02 
 3.6871356571159121e-02  3.9152858135915139e-02  4.1562378679084487e-02  4.4105409407405351e-02 
 4.6787504562090867e-02  4.9614259345755210e-02  5.2591284196875546e-02  5.5724175585387219e-02 
 5.9018483775718542e-02  6.2479678235899491e-02  6.6113111519713302e-02  6.9923982608196752e-02 
 7.3917301242918482e-02  7.8097849928906379e-02  8.2470149147408356e-02  8.7038426877270189e-02 
 9.1806586347917746e-02  9.6778176382375014e-02  1.0195636353541924e-01  1.0734390583288160e-01 
 1.1294312806452642e-01  1.1875589862330664e-01  1.2478360793093195e-01  1.3102714853223074e-01 
 1.3748689697109578e-01  1.4416269757498984e-01  1.5105384827229773e-01  1.5815908854874006e-01 
 1.6547658961844666e-01  1.7300394684562093e-01  1.8073817440760906e-01  1.8867570214306753e-01 
 1.9681237448288477e-01  2.0514345131925757e-01  2.1366361063212957e-01  2.2236695266392287e-01 
 2.3124700541461893e-01  2.4029673122082343e-01  2.4950853418515509e-01  2.5887426823637288e-01 
 2.6838524562594168e-01  2.7803224570261509e-01  2.8780552385208258e-01  2.9769482054233615e-01 
 3.0768937047535549e-01  3.1777791190983673e-01  3.2794869628557249e-01  3.3818949834509915e-01 
 3.4848762700962027e-01  3.5882993732119045e-01  3.6920284380878060e-01  3.7959233567119932e-01 
 3.8998399419191321e-01  4.0036301280156322e-01  4.1071422019258325e-01  4.2102210686838820e-01 
 4.3127085545905947e-01  4.4144437506925333e-01  4.5152633984817347e-01  4.6150023187816175e-01 
 4.7134938837448287e-01  4.8105705307695107e-01  4.9060643159759948e-01  4.9998075037147910e-01 
 5.0916331874393761e-01  5.1813759362140177e-01  5.2688724601771908e-01  5.3539622874806569e-01 
 5.4364884446049710e-01  5.5162981315391435e-01  5.5932433831242934e-01  5.6671817079080000e-01 
 5.7379766961403800e-01  5.8054985890567645e-01  5.8696248023202191e-01  5.9302403974162710e-01 
 5.9872384958713798e-01  6.0405206323696936e-01  6.0899970441285400e-01  6.1355868952191273e-01 
 6.1772184358405491e-01  6.2148290978301834e-01  6.2483655288813689e-01  6.2777835690045147e-01 
 6.3030481736804056e-01  6.3241332888911606e-01  6.3410216837592182e-01  6.3537047468695751e-01 
 6.3621822524949478e-01  6.3664621028938340e-01  6.3665600526218857e-01  6.3624994204061236e-01 
 6.3543107936040943e-01  6.3420317296338691e-01  6.3257064580463518e-01  6.3053855861506669e-01 
 6.2811258103285206e-01  6.2529896344153701e-01  6.2210450958137753e-01  6.1853654993632301e-01 
 6.1460291584416271e-01  6.1031191423301490e-01  6.0567230285816198e-01  6.0069326589029515e-01 
 5.9538438969710206e-01  5.8975563867243275e-01  5.8381733097821209e-01  5.7758011408620202e-01 
 5.7105494003949142e-01  5.6425304038804280e-01  5.5718590078948327e-01  5.4986523530300391e-01 
 5.4230296043856863e-01  5.3451116905380758e-01  5.2650210421559152e-01  5.1828813316134614e-01 
 5.0988172150616662e-01  5.0129540784565241e-01  4.9254177890148798e-01  4.8363344500492444e-01 
 4.7458301774800166e-01  4.6540308650345519e-01  4.5610619729156171e-01  4.4670483235901476e-01 
 4.3721139084345290e-01  4.2763817053460734e-01  4.1799735072046268e-01  4.0830097608607885e-01 
 3.9856094161451594e-01  3.8878897842417109e-01  3.7899664046387083e-01  3.6919529197880646e-01 
 3.5939609565629443e-01  3.4961000135528664e-01  3.3984773532425250e-01  3.3011978981684259e-01 
 3.2043641301895376e-01  3.1080759920849010e-01  3.0124307907835607e-01  2.9175231016386977e-01 
 2.8234446732757151e-01  2.7302843326706017e-01  2.6381278902477301e-01  2.5470580449227342e-01 
 2.4571542891545178e-01  2.3684928142083025e-01  2.2811464159671366e-01  2.1951844017604200e-01 
 2.1106724988025913e-01  2.0276727649511350e-01  1.9462435025981653e-01  1.8664391766017971e-01 
 1.7883103372400119e-01  1.7119035492284576e-01  1.6372613278826545e-01  1.5644220835224842e-01 
 1.4934200752113647e-01  1.4242853748932019e-01  1.3570438429368906e-01  1.2917171160211402e-01 
 1.2283226081929949e-01  1.1668735258132182e-01  1.1073788969634692e-01  1.0498436157366860e-01 
 9.9426850166699207e-02  9.4065037438248483e-02  8.8898214338741247e-02  8.3925291270351254e-02 
 7.9144809992749990e-02  7.4554956909642908e-02  7.0153577659814989e-02  6.5938192922307279e-02 
 6.1906015332820544e-02  5.8053967397665739e-02  5.4378700282667204e-02  5.0876613347444193e-02 
 4.7543874290459760e-02  4.4376439767113279e-02  4.1370076341895351e-02  3.8520381636125450e-02 
 3.5822805534934880e-02  3.3272671320796275e-02  3.0865196605883539e-02  2.8595513941711531e-02 
 2.6458690991683544e-02  2.4449750160204894e-02  2.2563687580736746e-02  2.0795491374411359e-02 
 1.9140159100457618e-02  1.7592714329556013e-02  1.6148222281224624e-02  1.4801804476314099e-02 
 1.3548652365552845e-02  1.2384039904736953e-02  1.1303335056518548e-02  1.0302010207729773e-02 
 9.3756514997472770e-03  8.5199670774557951e-03  7.7307942699119609e-03  7.0041057227740724e-03 
 6.3360145089341379e-03  5.7227782495439770e-03  5.1608022827550814e-03  4.6466419219873345e-03 
 4.1770038494055852e-03  3.7487466935225201e-03  3.3588808424734849e-03  3.0045675465413097e-03 
 2.6831173649681781e-03  2.3919880130012865e-03  2.1287816655131990e-03  1.8912417734393895e-03 
 1.6772494487272624e-03  1.4848194725241676e-03  1.3120959799856001e-03  1.1573478733959350e-03 
 1.0189640133071714e-03  8.9544823514663694e-04  7.8541423627075352e-04  6.8758037578238863e-04 
 6.0076442662349743e-04  5.2387831653774174e-04  4.5592289150972877e-04  3.9598273225305774e-04 
 3.4322105127864599e-04  2.9687469505208618e-04  2.5624927277235094e-04  2.2071443039838509e-04 
 1.8969928573683406e-04  1.6268803770262837e-04  1.3921576029099234e-04  1.1886438936866314e-04 
 1.0125890811506509e-04  8.6063734829737307e-05  7.2979314876828503e-05  6.1738916764995824e-05 
 5.2105630763514814e-05  4.3869567032917578e-05  3.6845248993051387e-05  3.0869196580509810e-05 
 2.5797693116181129e-05  2.1504728747923246e-05  1.7880112817753842e-05  1.4827747028506024e-05 
 1.2264050940465359e-05  1.0116531103823043e-05  8.3224850172820684e-06  6.8278310860251175e-06 
 5.5860558226385026e-06  4.5572696817503263e-06  3.7073631318036670e-06  3.0072548378783164e-06 
 2.4322241435485023e-06  1.9613203927108144e-06  1.5768420128953416e-06  1.2638786825719597e-06 
 1.0099103190639079e-06  8.0445704431842670e-07  6.3877470714476319e-07  5.0559095752956012e-07 
 3.9887727691568656e-07  3.1365276421981551e-07  2.4581585769967295e-07  1.9200055920863469e-07 
 1.4945418336978741e-07  1.1593302298125843e-07  8.9614843222869203e-08  6.9024995537013230e-08 
 5.2974413486525585e-08  4.0507801896153699e-08  3.0860510018123101e-08  2.3422772647747470e-08 
 1.7710176793383734e-08  1.3339366779636763e-08  1.0008138724150268e-08  7.4791974209683010e-09 
 5.5669560561751890e-09  4.1268531424022012e-09  3.0467428338944860e-09  2.2399855798266519e-09 
 1.6399270439406007e-09  1.1955054532765099e-09  8.6777205674716846e-10  6.2714711892409398e-10 
 4.5126571112619110e-10  3.2329427808456157e-10  2.3062126490026365e-10  1.6384362303209283e-10 
 1.1598634389595442e-10  8.1904799177902478e-11  0.0000000000000000e+00  0.0000000000000000e+00 
 0.0000000000000000e+00  0.0000000000000000e+00  0.0000000000000000e+00  0.0000000000000000e+00 
 0.0000000000000000e+00  0.0000000000000000e+00  0.0000000000000000e+00  0.0000000000000000e+00 
 0.0000000000000000e+00  0.0000000000000000e+00  0.0000000000000000e+00  0.0000000000000000e+00 
 0.0000000000000000e+00  0.0000000000000000e+00  0.0000000000000000e+00  0.0000000000000000e+00 
 0.0000000000000000e+00  0.0000000000000000e+00  0.0000000000000000e+00  0.0000000000000000e+00 
 0.0000000000000000e+00  0.0000000000000000e+00  0.0000000000000000e+00  0.0000000000000000e+00 
 0.0000000000000000e+00  0.0000000000000000e+00  0.0000000000000000e+00  0.0000000000000000e+00 
 0.0000000000000000e+00  0.0000000000000000e+00  0.0000000000000000e+00  0.0000000000000000e+00 
 0.0000000000000000e+00  0.0000000000000000e+00  0.0000000000000000e+00  0.0000000000000000e+00 
 0.0000000000000000e+00  0.0000000000000000e+00  0.0000000000000000e+00  0.0000000000000000e+00 
 0.0000000000000000e+00  0.0000000000000000e+00  0.0000000000000000e+00  0.0000000000000000e+00 
 0.0000000000000000e+00  0.0000000000000000e+00  0.0000000000000000e+00  0.0000000000000000e+00 
 0.0000000000000000e+00  0.0000000000000000e+00  0.0000000000000000e+00  0.0000000000000000e+00 
 0.0000000000000000e+00  0.0000000000000000e+00  0.0000000000000000e+00  0.0000000000000000e+00 
 0.0000000000000000e+00  0.0000000000000000e+00  0.0000000000000000e+00  0.0000000000000000e+00 
 0.0000000000000000e+00  0.0000000000000000e+00  0.0000000000000000e+00  0.0000000000000000e+00 
 0.0000000000000000e+00  0.0000000000000000e+00  0.0000000000000000e+00  0.0000000000000000e+00 
 0.0000000000000000e+00  0.0000000000000000e+00  0.0000000000000000e+00  0.0000000000000000e+00 
 0.0000000000000000e+00  0.0000000000000000e+00  0.0000000000000000e+00  0.0000000000000000e+00 
 0.0000000000000000e+00  0.0000000000000000e+00  0.0000000000000000e+00  0.0000000000000000e+00 
 0.0000000000000000e+00  0.0000000000000000e+00  0.0000000000000000e+00  0.0000000000000000e+00 
 0.0000000000000000e+00  0.0000000000000000e+00  0.0000000000000000e+00  0.0000000000000000e+00 
 0.0000000000000000e+00  0.0000000000000000e+00  0.0000000000000000e+00  0.0000000000000000e+00 
 0.0000000000000000e+00 
P    1   0.33          Wavefunction
 7.1149307166943480e-13  7.3023447413318779e-13  7.4946954292032944e-13  7.6921128167040156e-13 
 7.8947303655116467e-13  8.1026850528111612e-13  8.3161174638967109e-13  8.5351718872126641e-13 
 8.7599964118980946e-13  8.9907430279007080e-13  9.2275677287278384e-13  9.4706306169040461e-13 
 9.7200960122065119e-13  9.9761325627515135e-13  1.0238913359006985e-12  1.0508616050808288e-12 
 1.0785422967456298e-12  1.1069521240978974e-12  1.1361102932639789e-12  1.1660365162778459e-12 
 1.1967510244071848e-12  1.2282745818305071e-12  1.2606284996745291e-12  1.2938346504213080e-12 
 1.3279154826948784e-12  1.3628940364373788e-12  1.3987939584849356e-12  1.4356395185538306e-12 
 1.4734556256477569e-12  1.5122678448972583e-12  1.5521024148427397e-12  1.5929862651727225e-12 
 1.6349470349293475e-12  1.6780130911934242e-12  1.7222135482616670e-12  1.7675782873290738e-12 
 1.8141379766897600e-12  1.8619240924699004e-12  1.9109689399067980e-12  1.9613056751884649e-12 
 2.0129683278684732e-12  2.0659918238712430e-12  2.1204120091033058e-12  2.1762656736865118e-12 
 2.2335905768295667e-12  2.2924254723547063e-12  2.3528101348967689e-12  2.4147853867923739e-12 
 2.4783931256773936e-12  2.5436763528113618e-12  2.6106792021479819e-12  2.6794469701713733e-12 
 2.7500261465182400e-12  2.8224644454066497e-12  2.8968108378926839e-12  2.9731155849767563e-12 
 3.0514302715819841e-12  3.1318078414275805e-12  3.2143026328208550e-12  3.2989704153919933e-12 
 3.3858684277964879e-12  3.4750554164106677e-12  3.5665916750465190e-12  3.6605390857126282e-12 
 3.7569611604488070e-12  3.8559230842626834e-12  3.9574917591972861e-12  4.0617358495594129e-12 
 4.1687258283393497e-12  4.2785340248533433e-12  4.3912346736410157e-12  4.5069039646507851e-12 
 4.6256200947472192e-12  4.7474633205751507e-12  4.8725160128162726e-12  5.0008627118749177e-12 
 5.1325901850306475e-12  5.2677874850962999e-12  5.4065460106211505e-12  5.5489595676798853e-12 
 5.6951244332891440e-12  5.8451394204945386e-12  5.9991059451721050e-12  6.1571280945893924e-12 
 6.3193126977725056e-12  6.4857693977266950e-12  6.6566107255592931e-12  6.8319521765551511e-12 
 7.0119122882559464e-12  7.1966127205961998e-12  7.3861783381501407e-12  7.5807372945450560e-12 
 7.7804211190981499e-12  7.9853648057355211e-12  8.1957069042533448e-12  8.4115896139829792e-12 
 8.6331588799232890e-12  8.8605644914052042e-12  9.0939601833552030e-12  9.3335037402261695e-12 
 9.5793571026658977e-12  9.8316864769953633e-12  1.0090662447570747e-11  1.0356460092105216e-11 
 1.0629259100028350e-11  1.0909243893963355e-11  1.1196603754404008e-11  1.1491532947675825e-11 
 1.1794230857267779e-11  1.2104902118623493e-11  1.2423756757482908e-11  1.2751010331868076e-11 
 1.3086884077808975e-11  1.3431605058907885e-11  1.3785406319843477e-11  1.4148527043918334e-11 
 1.4521212714756464e-11  1.4903715282260046e-11  1.5296293332937745e-11  1.5699212264719544e-11 
 1.6112744466376466e-11  1.6537169501666381e-11  1.6972774298330387e-11  1.7419853342067584e-11 
 1.7878708875619354e-11  1.8349651103097713e-11  1.8832998399695921e-11  1.9329077526923068e-11 
 1.9838223853508206e-11  2.0360781582123299e-11  2.0897103982078365e-11  2.1447553628145968e-11 
 2.2012502645676720e-11  2.2592332962171307e-11  2.3187436565479297e-11  2.3798215768799053e-11 
 2.4425083482658206e-11  2.5068463494058273e-11  2.5728790752972324e-11  2.6406511666389324e-11 
 2.7102084400103869e-11  2.7815979188455531e-11  2.8548678652226953e-11  2.9300678124915900e-11 
 3.0072485987601545e-11  3.0864624012631653e-11  3.1677627716362781e-11  3.2512046721192143e-11 
 3.3368445127125825e-11  3.4247401893134492e-11  3.5149511228554525e-11  3.6075382994799073e-11 
 3.7025643117650770e-11  3.8000934010414567e-11  3.9001915008217143e-11  4.0029262813746117e-11 
 4.1083671954730656e-11  4.2165855253472761e-11  4.3276544308746463e-11  4.4416489990390963e-11 
 4.5586462946931919e-11  4.6787254126574149e-11  4.8019675311918014e-11  4.9284559668760796e-11 
 5.0582762309354382e-11  5.1915160870499730e-11  5.3282656106869283e-11  5.4686172499958122e-11 
 5.6126658883075870e-11  5.7605089082801630e-11  5.9122462577335708e-11  6.0679805172193388e-11 
 6.2278169693697198e-11  6.3918636700736904e-11  6.5602315215278185e-11  6.7330343472114071e-11 
 6.9103889688365736e-11  7.0924152853253182e-11  7.2792363538669620e-11  7.4709784731107537e-11 
 7.6677712685499073e-11  7.8697477801547637e-11  8.0770445523143646e-11  8.2898017261472081e-11 
 8.5081631342436278e-11  8.7322763979038217e-11  8.9622930269373016e-11  9.1983685220912066e-11 
 9.4406624801767365e-11  9.6893387019648329e-11  9.9445653029239395e-11  1.0206514826874851e-10 
 1.0475364362639373e-10  1.0751295663761748e-10  1.1034495271383707e-10  1.1325154640356316e-10 
 1.1623470268673795e-10  1.1929643830316853e-10  1.2243882311595420e-10  1.2566398151082802e-10 
 1.2897409383236057e-10  1.3237139785799521e-10  1.3585819031091316e-10  1.3943682841274936e-10 
 1.4310973147721093e-10  1.4687938254567381e-10  1.5074833006586514e-10  1.5471918961476492e-10 
 1.5879464566689301e-10  1.6297745340917615e-10  1.6727044060362254e-10  1.7167650949906367e-10 
 1.7619863879325506e-10  1.8083988564666377e-10  1.8560338774930273e-10  1.9049236544201140e-10 
 1.9551012389361496e-10  2.0066005533543559e-10  2.0594564135466595e-10  2.1137045524815540e-10 
 2.1693816443820196e-10  2.2265253295198042e-10  2.2851742396628703e-10  2.3453680241931771e-10 
 2.4071473769124819e-10  2.4705540635542785e-10  2.5356309500204705e-10  2.6024220313618840e-10 
 2.6709724615221965e-10  2.7413285838654217e-10  2.8135379625075583e-10  2.8876494144736272e-10 
 2.9637130427018005e-10  3.0417802699169708e-10  3.1219038733966598e-10  3.2041380206527550e-10 
 3.2885383060532287e-10  3.3751617884085824e-10  3.4640670295484510e-10  3.5553141339144344e-10 
 3.6489647891959431e-10  3.7450823080365291e-10  3.8437316708389060e-10  3.9449795696976056e-10 
 4.0488944534889837e-10  4.1555465741490539e-10  4.2650080341704576e-10  4.3773528353506786e-10 
 4.4926569288244818e-10  4.6109982664143987e-10  4.7324568533339887e-10  4.8571148022795262e-10 
 4.9850563889466872e-10  5.1163681090097883e-10  5.2511387366021045e-10  5.3894593843368201e-10 
 5.5314235649092353e-10  5.6771272543218474e-10  5.8266689567751028e-10  5.9801497712677143e-10 
 6.1376734599515711e-10  6.2993465182875183e-10  6.4652782470494165e-10  6.6355808262252532e-10 
 6.8103693908652354e-10  6.9897621089282502e-10  7.1738802611793039e-10  7.3628483231920286e-10 
 7.5567940495117562e-10  7.7558485600360566e-10  7.9601464286712651e-10  8.1698257743249137e-10 
 8.3850283542957016e-10  8.6058996601241517e-10  8.8325890159688455e-10  9.0652496795747817e-10 
 9.3040389459021699e-10  9.5491182534857942e-10  9.8006532935968651e-10  1.0058814122281250e-09 
 1.0323775275349828e-09  1.0595715886398745e-09  1.0874819807939428e-09  1.1161275735720228e-09 
 1.1455277336323785e-09  1.1757023378126386e-09  1.2066717865707876e-09  1.2384570177802997e-09 
 1.2710795208887465e-09  1.3045613514494511e-09  1.3389251460359987e-09  1.3741941375494119e-09 
 1.4103921709277960e-09  1.4475437192708601e-09  1.4856739003896313e-09  1.5248084937923004e-09 
 1.5649739581176766e-09  1.6061974490280639e-09  1.6485068375736614e-09  1.6919307290409183e-09 
 1.7364984822976129e-09  1.7822402296477419e-09  1.8291868972096698e-09  1.8773702258313295e-09 
 1.9268227925566387e-09  1.9775780326576654e-09  2.0296702622474617e-09  2.0831347014888799e-09 
 2.1380074984150832e-09  2.1943257533778852e-09  2.2521275441404798e-09  2.3114519516315436e-09 
 2.3723390863781739e-09  2.4348301156355462e-09  2.4989672912316804e-09  2.5647939781461767e-09 
 2.6323546838422755e-09  2.7016950883721236e-09  2.7728620752756337e-09  2.8459037632938796e-09 
 2.9208695389185090e-09  2.9978100897992431e-09  3.0767774390320948e-09  3.1578249803515323e-09 
 3.2410075142504722e-09  3.3263812850525418e-09  3.4140040189617863e-09  3.5039349631155759e-09 
 3.5962349256672192e-09  3.6909663169254307e-09  3.7881931915785851e-09  3.8879812920323453e-09 
 3.9903980928900989e-09  4.0955128466063395e-09  4.2033966303439821e-09  4.3141223940673704e-09 
 4.4277650099036337e-09  4.5444013228058680e-09  4.6641102025525024e-09  4.7869725971181835e-09 
 4.9130715874523422e-09  5.0424924437026669e-09  5.1753226829216249e-09  5.3116521282952156e-09 
 5.4515729699341720e-09  5.5951798272688866e-09  5.7425698130904242e-09  5.8938425992811354e-09 
 6.0491004842795242e-09  6.2084484623251631e-09  6.3719942945307593e-09  6.5398485818296261e-09 
 6.7121248398481506e-09  6.8889395757541628e-09  7.0704123671334223e-09  7.2566659429478802e-09 
 7.4478262666307482e-09  7.6440226213749089e-09  7.8453876976726608e-09  8.0520576831663816e-09 
 8.2641723548712235e-09  8.4818751738326271e-09  8.7053133822830699e-09  8.9346381033642088e-09 
 9.1700044434823190e-09  9.4115715973667029e-09  9.6595029559027357e-09  9.9139662168128888e-09 
 1.0175133498261248e-08  1.0443181455458926e-08  1.0718291400349908e-08  1.1000649424458858e-08 
 1.1290446524984784e-08  1.1587878734226514e-08  1.1893147252428300e-08  1.2206458584136329e-08 
 1.2528024678159065e-08  1.2858063071227150e-08  1.3196797035450925e-08  1.3544455729676347e-08 
 1.3901274354842728e-08  1.4267494313448542e-08  1.4643363373234321e-08  1.5029135835194611e-08 
 1.5425072706034004e-08  1.5831441875185202e-08  1.6248518296510402e-08  1.6676584174810416e-08 
 1.7115929157269325e-08  1.7566850529965896e-08  1.8029653419586464e-08  1.8504651000477717e-08 
 1.8992164707181344e-08  1.9492524452596579e-08  2.0006068851920297e-08  2.0533145452518649e-08 
 2.1074110969888124e-08  2.1629331529868360e-08  2.2199182917273198e-08  2.2784050831111233e-08 
 2.3384331146571490e-08  2.4000430183954613e-08  2.4632764984735210e-08  2.5281763594945227e-08 
 2.5947865356074339e-08  2.6631521203687763e-08  2.7333193973967961e-08  2.8053358718391884e-08 
 2.8792503026761492e-08  2.9551127358810788e-08  3.0329745384619069e-08  3.1128884334066191e-08 
 3.1949085355571813e-08  3.2790903884367676e-08  3.3654910020558281e-08  3.4541688917232555e-08 
 3.5451841178896261e-08  3.6385983270502060e-08  3.7344747937362040e-08  3.8328784636235004e-08 
 3.9338759977889107e-08  4.0375358181448318e-08  4.1439281540839991e-08  4.2531250903669440e-08 
 4.3652006162856260e-08  4.4802306761376500e-08  4.5982932210464202e-08  4.7194682621635625e-08 
 4.8438379252909385e-08  4.9714865069606440e-08  5.1025005320123807e-08  5.2369688127087558e-08 
 5.3749825094301378e-08  5.5166351929918882e-08  5.6620229086279408e-08  5.8112442416859853e-08 
 5.9644003850807073e-08  6.1215952085528789e-08  6.2829353297834489e-08  6.4485301874130793e-08 
 6.6184921160190776e-08  6.7929364231031078e-08  6.9719814681445357e-08  7.1557487437758423e-08 
 7.3443629591381420e-08  7.5379521254764442e-08  7.7366476440360159e-08  7.9405843963229803e-08 
 8.1499008367939886e-08  8.3647390880417235e-08  8.5852450385449064e-08  8.8115684430533716e-08 
 9.0438630256808929e-08  9.2822865857804278e-08  9.5270011066786939e-08  9.7781728673491038e-08 
 1.0035972557104534e-07  1.0300575393393511e-07  1.0572161242786075e-07  1.0850914745237960e-07 
 1.1137025441724285e-07  1.1430687905336735e-07  1.1732101875940835e-07  1.2041472398492849e-07 
 1.2359009965118665e-07  1.2684930661060231e-07  1.3019456314597939e-07  1.3362814651060886e-07 
 1.3715239451039983e-07  1.4076970712922555e-07  1.4448254819870420e-07  1.4829344711367192e-07 
 1.5220500059464352e-07  1.5621987449859419e-07  1.6034080567943769e-07  1.6457060389961560e-07 
 1.6891215379425779e-07  1.7336841688941709e-07  1.7794243367592811e-07  1.8263732574048646e-07 
 1.8745629795559520e-07  1.9240264073007556e-07  1.9747973232189028e-07  2.0269104121508569e-07 
 2.0804012856271000e-07  2.1353065069762828e-07  2.1916636171321120e-07  2.2495111611593937e-07 
 2.3088887155202803e-07  2.3698369161024461e-07  2.4323974870316031e-07  2.4966132702914812e-07 
 2.5625282561751625e-07  2.6301876145923870e-07  2.6996377272582776e-07  2.7709262207897495e-07 
 2.8441020007367188e-07  2.9192152865761072e-07  2.9963176476975790e-07  3.0754620404108853e-07 
 3.1567028460056663e-07  3.2400959098956397e-07  3.3256985818800943e-07  3.4135697575567686e-07 
 3.5037699209213388e-07  3.5963611881898838e-07  3.6914073528819894e-07  3.7889739322033974e-07 
 3.8891282147684664e-07  3.9919393097040529e-07  4.0974781971779404e-07  4.2058177803963269e-07 
 4.3170329391165586e-07  4.4312005847228049e-07  4.5483997169141427e-07  4.6687114820561834e-07 
 4.7922192332492598e-07  4.9190085921680565e-07  5.0491675127295077e-07  5.1827863466479145e-07 
 5.3199579109382545e-07  5.4607775574309866e-07  5.6053432443639007e-07  5.7537556101189869e-07 
 5.9061180491748105e-07  6.0625367903475019e-07  6.2231209773961975e-07  6.3879827520715558e-07 
 6.5572373396890525e-07  6.7310031373117052e-07  6.9094018046302017e-07  7.0925583576317406e-07 
 7.2806012651523781e-07  7.4736625484113391e-07  7.6718778836296198e-07  7.8753867078391191e-07 
 8.0843323279927460e-07  8.2988620334903329e-07  8.5191272122396169e-07  8.7452834703764307e-07 
 8.9774907557730974e-07  9.2159134854692902e-07  9.4607206771649726e-07  9.7120860849207215e-07 
 9.9701883392166964e-07  1.0235211091527660e-06  1.0507343163577976e-06  1.0786778701447295e-06 
 1.1073717334704701e-06  1.1368364340756583e-06  1.1670930814601238e-06  1.1981633844191343e-06 
 1.2300696691614066e-06  1.2628348980307360e-06  1.2964826888540501e-06  1.3310373349396710e-06 
 1.3665238257505899e-06  1.4029678682786491e-06  1.4403959091466478e-06  1.4788351574665793e-06 
 1.5183136084834472e-06  1.5588600680354168e-06  1.6005041778624203e-06  1.6432764417967785e-06 
 1.6872082528709074e-06  1.7323319213787584e-06  1.7786807039292985e-06  1.8262888335320994e-06 
 1.8751915507569191e-06  1.9254251360110939e-06  1.9770269429805855e-06  2.0300354332826474e-06 
 2.0844902123803129e-06  2.1404320668112682e-06  2.1979030027861188e-06  2.2569462862136924e-06 
 2.3176064842137173e-06  2.3799295081801255e-06  2.4439626584612273e-06  2.5097546707262107e-06 
 2.5773557640907593e-06  2.6468176910781029e-06  2.7181937894955675e-06  2.7915390363105494e-06 
 2.8669101036140116e-06  2.9443654167639060e-06  3.0239652148055304e-06  3.1057716132706273e-06 
 3.1898486694621287e-06  3.2762624503368013e-06  3.3650811031037081e-06  3.4563749286623588e-06 
 3.5502164580106858e-06  3.6466805317596534e-06  3.7458443828982713e-06  3.8477877229601880e-06 
 3.9525928317508303e-06  4.0603446508022815e-06  4.1711308807317898e-06  4.2850420826889643e-06 
 4.4021717840864398e-06  4.5226165888189946e-06  4.6464762921869710e-06  4.7738540007512709e-06 
 4.9048562573592854e-06  5.0395931715939250e-06  5.1781785559114482e-06  5.3207300677480475e-06 
 5.4673693578903198e-06  5.6182222254207953e-06  5.7734187795665423e-06  5.9330936087969128e-06 
 6.0973859575354282e-06  6.2664399108709066e-06  6.4404045876742975e-06  6.6194343425501563e-06 
 6.8036889770756984e-06  6.9933339608056266e-06  7.1885406625478620e-06  7.3894865924436782e-06 
 7.5963556554160655e-06  7.8093384165819967e-06  8.0286323792584826e-06  8.2544422762280523e-06 
 8.4869803749677897e-06  8.7264667975865406e-06  8.9731298562580575e-06  9.2272064049835707e-06 
 9.4889422085659880e-06  9.7585923297294924e-06  1.0036421535373232e-05  1.0322704723006154e-05 
 1.0617727368471996e-05  1.0921785996139449e-05  1.1235188672802537e-05  1.1558255526610974e-05 
 1.1891319292429492e-05  1.2234725885109719e-05  1.2588835002247950e-05  1.2954020758097942e-05 
 1.3330672350409884e-05  1.3719194762074929e-05  1.4120009499570723e-05  1.4533555370326319e-05 
 1.4960289301256336e-05  1.5400687200854193e-05  1.5855244867383650e-05  1.6324478945866953e-05 
 1.6808927936737993e-05  1.7309153259209919e-05  1.7825740372600240e-05  1.8359299959062947e-05 
 1.8910469171397547e-05  1.9479912949840523e-05  2.0068325411996179e-05  2.0676431320332637e-05 
 2.1304987631955816e-05  2.1954785135681296e-05  2.2626650181752387e-05  2.3321446509903147e-05 
 2.4040077181841109e-05  2.4783486624625700e-05  2.5552662791848323e-05  2.6348639449979901e-05 
 2.7172498597744109e-05  2.8025373026902041e-05  2.8908449033398275e-05  2.9822969288423603e-05 
 3.0770235879597652e-05  3.1751613533168987e-05  3.2768533028874987e-05  3.3822494819901751e-05 
 3.4915072871240001e-05  3.6047918730650824e-05  3.7222765847439838e-05  3.8441434155294127e-05 
 3.9705834936570884e-05  4.1017975986641844e-05  4.2379967098205150e-05  4.3794025886877549e-05 
 4.5262483980886124e-05  4.6787793599295929e-05  4.8372534544947467e-05  5.0019421640144298e-05 
 5.1731312635137210e-05  5.3511216621606527e-05  5.5362302985661669e-05  5.7287910937367322e-05 
 5.9291559656484064e-05  6.1376959096990348e-05  6.3548021496049714e-05  6.5808873636417770e-05 
 6.8163869914865543e-05  7.0617606273049849e-05  7.3174935051407885e-05  7.5840980831112529e-05 
 7.8621157333926478e-05  8.1521185454956616e-05  8.4547112508869126e-05  8.7705332776106125e-05 
 9.1002609442082040e-05  9.4446098029265800e-05  9.8043371429509433e-05  1.0180244665200896e-04 
 1.0573181341091764e-04  1.0984046468592566e-04  1.1413792939912051e-04  1.1863430736220474e-04 
 1.2334030665972655e-04  1.2826728364643804e-04  1.3342728575029954e-04  1.3883309728706506e-04 
 1.4449828850789405e-04  1.5043726811810756e-04  1.5666533952314233e-04  1.6319876107702991e-04 
 1.7005481062944987e-04  1.7725185468966945e-04  1.8480942254960305e-04  1.9274828573391837e-04 
 2.0109054317270193e-04  2.0985971252181359e-04  2.1908082808784013e-04  2.2878054584865191e-04 
 2.3898725609712885e-04  2.4973120427481792e-04  2.6104462060428361e-04  2.7296185917390168e-04 
 2.8551954717701185e-04  2.9875674505888922e-04  3.1271511838013282e-04  3.2743912226400448e-04 
 3.4297619935823559e-04  3.5937699230906907e-04  3.7669557181707315e-04  3.9498968142080606e-04 
 4.1432100023597925e-04  4.3475542496462615e-04  4.5636337258119457e-04  4.7922010520070197e-04 
 5.0340607873837224e-04  5.2900731708074335e-04  5.5611581360530036e-04  5.8482996200941314e-04 
 6.1525501853984174e-04  6.4750359785133507e-04  6.8169620486679689e-04  7.1796180516186213e-04 
 7.5643843655307690e-04  7.9727386473043584e-04  8.4062628594076675e-04  8.8666507989678073e-04 
 9.3557161625546685e-04  9.8754011817609377e-04  1.0427785866287413e-03  1.1015097892743957e-03 
 1.1639723178713376e-03  1.2304217182726597e-03  1.3011316971576082e-03  1.3763954096747593e-03 
 1.4565268321559629e-03  1.5418622239731458e-03  1.6327616824407681e-03  1.7296107943996521e-03 
 1.8328223877373529e-03  1.9428383855917186e-03  2.0601317653352082e-03  2.1852086236389778e-03 
 2.3186103479645773e-03  2.4609158937311188e-03  2.6127441651705640e-03  2.7747564965379563e-03 
 2.9476592289244610e-03  3.1322063764802547e-03  3.3292023744568981e-03  3.5395049002029120e-03 
 3.7640277571800076e-03  4.0037438113031780e-03  4.2596879685334165e-03  4.5329601827364249e-03 
 4.8247284833964474e-03  5.1362320138132562e-03  5.4687840717996443e-03  5.8237751464203374e-03 
 6.2026759456467497e-03  6.6070404105356608e-03  7.0385087112383553e-03  7.4988102184452921e-03 
 7.9897664405971167e-03  8.5132939124759419e-03  9.0714070151208994e-03  9.6662207011997854e-03 
 1.0299953094995264e-02  1.0974927932943496e-02  1.1693576809777794e-02  1.2458441196812456e-02 
 1.3272174202112982e-02  1.4137542045911972e-02  1.5057425226697735e-02  1.6034819351482352e-02 
 1.7072835595109137e-02  1.8174700735407570e-02  1.9343756681557793e-02  2.0583459371879081e-02 
 2.1897376867074343e-02  2.3289186412607070e-02  2.4762670200881631e-02  2.6321709545235199e-02 
 2.7970277198482829e-02  2.9712427618724536e-02  3.1552285103559584e-02  3.3494029866522397e-02 
 3.5541882290616014e-02  3.7700085732568125e-02  3.9972888341465972e-02  4.2364524453787744e-02 
 4.4879196460541136e-02  4.7521055104248588e-02  5.0294181526842542e-02  5.3202571719552394e-02 
 5.6250119649795843e-02  5.9440601680261038e-02  6.2777661763282144e-02  6.6264797255409943e-02 
 6.9905345283255482e-02  7.3702469613964705e-02  7.7659148010732010e-02  8.1778160078703921e-02 
 8.6062075624748921e-02  9.0513243563386594e-02  9.5133781400073253e-02  9.9925565312798087e-02 
 1.0489022083516293e-01  1.1002911412083961e-01  1.1534334374266898e-01  1.2083373295177277e-01 
 1.2650082229480508e-01  1.3234486246258462e-01  1.3836580722231517e-01  1.4456330626968947e-01 
 1.5093669782745864e-01  1.5748500081437591e-01  1.6420690641342947e-01  1.7110076888135922e-01 
 1.7816459546276003e-01  1.8539603530149393e-01  1.9279236727928806e-01  2.0035048675561268e-01 
 2.0806689123328700e-01  2.1593766502953160e-01  2.2395846309094097e-01  2.3212449415140693e-01 
 2.4043050349255590e-01  2.4887075562476757e-01  2.5743901726111712e-01  2.6612854100564559e-01 
 2.7493205021869321e-01  2.8384172554939724e-01  2.9284919364445805e-01  3.0194551855332535e-01 
 3.1112119633938512e-01  3.2036615338247754e-01  3.2966974882343059e-01  3.3902078154970416e-01 
 3.4840750205645804e-01  3.5781762944041418e-01  3.6723837369646245e-01  3.7665646339123476e-01 
 3.8605817868638320e-01  3.9542938957985174e-01  4.0475559912905057e-01  4.1402199131858564e-01 
 4.2321348314013896e-01  4.3231478036611576e-01  4.4131043642443579e-01  4.5018491372157365e-01 
 4.5892264671649119e-01  4.6750810602068205e-01  4.7592586278983090e-01  4.8416065268064029e-01 
 4.9219743867159005e-01  5.0002147208759962e-01  5.0761835122402987e-01  5.1497407703301123e-01 
 5.2207510541212743e-01  5.2890839571924086e-01  5.3546145522473121e-01  5.4172237930069878e-01 
 5.4767988723289263e-01  5.5332335362265195e-01  5.5864283542066939e-01  5.6362909470000022e-01 
 5.6827361733098192e-01  5.7256862776458406e-01  5.7650710016274853e-01  5.8008276613444254e-01 
 5.8329011934494812e-01  5.8612441726421083e-01  5.8858168030916114e-01  5.9065868861636195e-01 
 5.9235297665695563e-01  5.9366282587764863e-01  5.9458725552143410e-01  5.9512601175190794e-01 
 5.9527955517723918e-01  5.9504904684550064e-01  5.9443633276693664e-01  5.9344392700279047e-01 
 5.9207499335237468e-01  5.9033332567864816e-01  5.8822332691623913e-01  5.8574998681744328e-01 
 5.8291885851212644e-01  5.7973603397840390e-01  5.7620811854387788e-01  5.7234220456011742e-01 
 5.6814584441423921e-01  5.6362702305941925e-01  5.5879413025967528e-01  5.5365593275237934e-01 
 5.4822154653412036e-01  5.4250040947151834e-01  5.3650225442862332e-01  5.3023708308636008e-01 
 5.2371514060901836e-01  5.1694689128948912e-01  5.0994299527567455e-01  5.0271428645063043e-01 
 4.9527175151012814e-01  4.8762651025002623e-01  4.7978979704672586e-01  4.7177294348658916e-01 
 4.6358736207534607e-01  4.5524453093686451e-01  4.4675597927685923e-01  4.3813327405803310e-01 
 4.2938800661514576e-01  4.2053178020176274e-01  4.1157619775576082e-01  4.0253284985175675e-01 
 3.9341330269749625e-01  3.8422908603772010e-01  3.7499168083805684e-01  3.6571250663293087e-01 
 3.5640290843505523e-01  3.4707414311951090e-01  3.3773736521242786e-01  3.2840361203257845e-01 
 3.1908378815355076e-01  3.0978864917430615e-01  3.0052878480658896e-01  2.9131460130860221e-01 
 2.8215630331528879e-01  2.7306387513619351e-01  2.6404706161188007e-01  2.5511534863892127e-01 
 2.4627794349118559e-01  2.3754375508115330e-01  2.2892137431892240e-01  2.2041905473805765e-01 
 2.1204469356616562e-01  2.0380581342375859e-01  1.9570954483739611e-01  1.8776260975211678e-01 
 1.7997130622376667e-01  1.7234149446401686e-01  1.6487858439982511e-01  1.5758752489504155e-01 
 1.5047279476513017e-01  1.4353839569696597e-01  1.3678784716481390e-01  1.3022418341139283e-01 
 1.2384995253986730e-01  1.1766721773919524e-01  1.1167756064196523e-01  1.0588208679113156e-01 
 1.0028143317029869e-01  9.4875777731762853e-02  8.9664850837680984e-02  8.4647948512731150e-02 
 7.9823947391618091e-02  7.5191321231879257e-02  7.0748158851709098e-02  6.6492183343954125e-02 
 6.2420772411004105e-02  5.8530979660945837e-02  5.4819556702956365e-02  5.1282975879376122e-02 
 4.7917453473077652e-02  4.4718973231489309e-02  4.1683310052788532e-02  3.8806053685188691e-02 
 3.6082632296752112e-02  3.3508335780612339e-02  3.1078338668734520e-02  2.8787722536237719e-02 
 2.6631497787713523e-02  2.4604624726770979e-02  2.2702033820101102e-02  2.0918645077559955e-02 
 1.9249386480061415e-02  1.7689211397268336e-02  1.6233114947181597e-02  1.4876149259610954e-02 
 1.3613437615122667e-02  1.2440187440329709e-02  1.1351702149266334e-02  1.0343391829021423e-02 
 9.4107827757536778e-03  8.5495258946417692e-03  7.7554039842057734e-03  7.0243379317511661e-03 
 6.3523918524172858e-03  5.7357772094448001e-03  5.1708559578183370e-03  4.6541427573705899e-03 
 4.1823063047783946e-03  3.7521698366372921e-03  3.3607108579866291e-03  3.0050601522853553e-03 
 2.6825001299439965e-03  2.3904625731022088e-03  2.1265258344535750e-03  1.8884115475767866e-03 
 1.6739809054706473e-03  1.4812305628386824e-03  1.3082882161759319e-03  1.1534079138875231e-03 
 1.0149651465760907e-03  8.9145176529598883e-04  7.8147077302695954e-04  6.8373103190432730e-04 
 5.9704192589219937e-04  5.2030801563498347e-04  4.5252371920387373e-04  3.9276804940046841e-04 
 3.4019943521916834e-04  2.9405065203148996e-04  2.5362388206469019e-04  2.1828592382780145e-04 
 1.8746356631200845e-04  1.6063914107934029e-04  1.3734626274934780e-04  1.1716576598809458e-04 
 9.9721844767863032e-05  8.4678397560517064e-05  7.1735580160967732e-05  6.0626566049453971e-05 
 5.1114512588945579e-05  4.2989729916788813e-05  3.6067048125981836e-05  3.0183377237583048e-05 
 2.5195453536612625e-05  2.0977765073044376e-05  1.7420648506075222e-05  1.4428548996459363e-05 
 1.1918434498622194e-05  9.8183555815195713e-06  8.0661417924968116e-06  6.6082255641647518e-06 
 5.3985847393235862e-06  4.3977949422060519e-06  3.5721832450290769e-06  2.8930748566125566e-06 
 2.3361248846774443e-06  1.8807275859705897e-06  1.5094959088181820e-06  1.2078046936886311e-06 
 9.6339203286581258e-07  7.6600773127445894e-07  6.0711215487064020e-07  4.7961421534284848e-07 
 3.7764517665048146e-07  2.9636424374595092e-07  2.3179207357375025e-07  1.8066871941924137e-07 
 1.4033287007627409e-07  1.0861957388138004e-07  8.3773943670834316e-08  6.4378621831720443e-08 
 4.9293044889887419e-08  3.7602784877274512e-08  2.8577460687246372e-08  2.1635907615792942e-08 
 1.6317468325872756e-08  1.2258424716310876e-08  9.1727288679948701e-09  6.8363136740836918e-09 
 5.0743712553108839e-09  3.7510811300593747e-09  2.7613516396921404e-09  2.0242085669477296e-09 
 1.4775254157079695e-09  1.0738415627027024e-09  7.7705848903000314e-10  5.5984151539704507e-10 
 4.0158578190479850e-10  2.8683143206664871e-10  2.0403480378395754e-10  1.4462054458127069e-10 
 1.0225453272027679e-10  0.0000000000000000e+00  0.0000000000000000e+00  0.0000000000000000e+00 
 0.0000000000000000e+00  0.0000000000000000e+00  0.0000000000000000e+00  0.0000000000000000e+00 
 0.0000000000000000e+00  0.0000000000000000e+00  0.0000000000000000e+00  0.0000000000000000e+00 
 0.0000000000000000e+00  0.0000000000000000e+00  0.0000000000000000e+00  0.0000000000000000e+00 
 0.0000000000000000e+00  0.0000000000000000e+00  0.0000000000000000e+00  0.0000000000000000e+00 
 0.0000000000000000e+00  0.0000000000000000e+00  0.0000000000000000e+00  0.0000000000000000e+00 
 0.0000000000000000e+00  0.0000000000000000e+00  0.0000000000000000e+00  0.0000000000000000e+00 
 0.0000000000000000e+00  0.0000000000000000e+00  0.0000000000000000e+00  0.0000000000000000e+00 
 0.0000000000000000e+00  0.0000000000000000e+00  0.0000000000000000e+00  0.0000000000000000e+00 
 0.0000000000000000e+00  0.0000000000000000e+00  0.0000000000000000e+00  0.0000000000000000e+00 
 0.0000000000000000e+00  0.0000000000000000e+00  0.0000000000000000e+00  0.0000000000000000e+00 
 0.0000000000000000e+00  0.0000000000000000e+00  0.0000000000000000e+00  0.0000000000000000e+00 
 0.0000000000000000e+00  0.0000000000000000e+00  0.0000000000000000e+00  0.0000000000000000e+00 
 0.0000000000000000e+00  0.0000000000000000e+00  0.0000000000000000e+00  0.0000000000000000e+00 
 0.0000000000000000e+00  0.0000000000000000e+00  0.0000000000000000e+00  0.0000000000000000e+00 
 0.0000000000000000e+00  0.0000000000000000e+00  0.0000000000000000e+00  0.0000000000000000e+00 
 0.0000000000000000e+00  0.0000000000000000e+00  0.0000000000000000e+00  0.0000000000000000e+00 
 0.0000000000000000e+00  0.0000000000000000e+00  0.0000000000000000e+00  0.0000000000000000e+00 
 0.0000000000000000e+00  0.0000000000000000e+00  0.0000000000000000e+00  0.0000000000000000e+00 
 0.0000000000000000e+00  0.0000000000000000e+00  0.0000000000000000e+00  0.0000000000000000e+00 
 0.0000000000000000e+00  0.0000000000000000e+00  0.0000000000000000e+00  0.0000000000000000e+00 
 0.0000000000000000e+00  0.0000000000000000e+00  0.0000000000000000e+00  0.0000000000000000e+00 
 0.0000000000000000e+00 
D    2   3.80          Wavefunction
 9.6207282713738509e-15  1.0003349288856887e-14  1.0401187329380821e-14  1.0814847581317202e-14 
 1.1244959301672199e-14  1.1692176773307853e-14  1.2157180300232515e-14  1.2640677242474426e-14 
 1.3143403092112753e-14  1.3666122592102886e-14  1.4209630899597965e-14  1.4774754795536270e-14 
 1.5362353942334488e-14  1.5973322191600040e-14  1.6608588943851806e-14  1.7269120562317524e-14 
 1.7955921842958688e-14  1.8670037542958964e-14  1.9412553970001428e-14  2.0184600634752031e-14 
 2.0987351969063221e-14  2.1822029112511292e-14  2.2689901769985251e-14  2.3592290143152835e-14 
 2.4530566938741921e-14  2.5506159456692240e-14  2.6520551761353902e-14  2.7575286939035552e-14 
 2.8671969445336320e-14  2.9812267545832244e-14  3.0997915853830092e-14  3.2230717969048779e-14 
 3.3512549221242499e-14  3.4845359522939031e-14  3.6231176335632917e-14  3.7672107753945465e-14 
 3.9170345712443432e-14  4.0728169319994335e-14  4.2347948326730764e-14  4.4032146728897551e-14 
 4.5783326517065433e-14  4.7604151573413031e-14  4.9497391724005608e-14  5.1465926952234985e-14 
 5.3512751779829919e-14  5.5640979822101494e-14  5.7853848524352829e-14  6.0154724086658045e-14 
 6.2547106584502171e-14  6.5034635293071387e-14  6.7621094223292871e-14  7.0310417878045593e-14 
 7.3106697237298623e-14  7.6014185981281088e-14  7.9037306961150755e-14  8.2180658927004275e-14 
 8.5449023523463684e-14  8.8847372563480695e-14  9.2380875591423946e-14  9.6054907746953785e-14 
 9.9875057941647220e-14  1.0384713736081129e-13  1.0797718830341774e-13  1.1227149337360609e-13 
 1.1673658503773761e-13  1.2137925556153765e-13  1.2620656734244312e-13  1.3122586365287275e-13 
 1.3644477981076206e-13  1.4187125479435632e-13  1.4751354331892957e-13  1.5338022839380031e-13 
 1.5948023437874625e-13  1.6582284055967913e-13  1.7241769526423042e-13  1.7927483053872127e-13 
 1.8640467740884258e-13  1.9381808174725967e-13  2.0152632077228002e-13  2.0954112020268026e-13 
 2.1787467209478996e-13  2.2653965338896476e-13  2.3554924519366156e-13  2.4491715283645145e-13 
 2.5465762671247106e-13  2.6478548396202755e-13  2.7531613101033166e-13  2.8626558700364849e-13 
 2.9765050817751479e-13  3.0948821319409264e-13  3.2179670948720174e-13  3.3459472065510801e-13 
 3.4790171494273553e-13  3.6173793485663126e-13  3.7612442795773145e-13  3.9108307887877136e-13 
 4.0663664261504373e-13  4.2280877913914746e-13  4.3962408939238167e-13  4.5710815270753612e-13 
 4.7528756572000409e-13  4.9418998282641079e-13  5.1384415825229996e-13  5.3427998979287621e-13 
 5.5552856429333528e-13  5.7762220493797339e-13  6.0059452042000511e-13  6.2448045606689313e-13 
 6.4931634699895432e-13  6.7513997340211432e-13  7.0199061799888494e-13  7.2990912580499140e-13 
 7.5893796626255393e-13  7.8912129784433311e-13  8.2050503522732325e-13  8.5313691913787094e-13 
 8.8706658897457064e-13  9.2234565831940932e-13  9.5902779345202973e-13  9.9716879498654373e-13 
 1.0368266827550855e-12  1.0780617840672257e-12  1.1209368254795095e-12  1.1655170282147152e-12 
 1.2118702073759870e-12  1.2600668751067642e-12  1.3101803478534356e-12  1.3622868578938832e-12 
 1.4164656693015760e-12  1.4727991985216161e-12  1.5313731397421562e-12  1.5922765952519031e-12 
 1.6556022109820107e-12  1.7214463174385407e-12  1.7899090762398865e-12  1.8610946324820622e-12 
 1.9351112731636447e-12  2.0120715919113567e-12  2.0920926602568737e-12  2.1752962057254030e-12 
 2.2618087970069347e-12  2.3517620364918628e-12  2.4452927604638367e-12  2.5425432472544050e-12 
 2.6436614336760709e-12  2.7488011400630123e-12  2.8581223042617893e-12  2.9717912249279930e-12 
 3.0899808144989355e-12  3.2128708622271943e-12  3.3406483076751558e-12  3.4735075250865761e-12 
 3.6116506190677662e-12  3.7552877320281705e-12  3.9046373638480397e-12  4.0599267042594524e-12 
 4.2213919784463268e-12  4.3892788063891311e-12  4.5638425765009402e-12  4.7453488341232067e-12 
 4.9340736854722256e-12  5.1303042176507859e-12  5.3343389353639307e-12  5.5464882150031353e-12 
 5.7670747767896928e-12  5.9964341756955015e-12  6.2349153118880713e-12  6.4828809614762138e-12 
 6.7407083283638068e-12  7.0087896180511072e-12  7.2875326342564657e-12  7.5773613992660807e-12 
 7.8787167989553956e-12  8.1920572534633856e-12  8.5178594145399937e-12  8.8566188906274738e-12 
 9.2088510007786650e-12  9.5750915585590650e-12  9.9558976871251720e-12  1.0351848666718972e-11 
 1.0763546815867869e-11  1.1191618407630417e-11  1.1636714622281787e-11  1.2099512537888079e-11 
 1.2580716160276483e-11  1.3081057493967937e-11  1.3601297655701521e-11  1.4142228032244438e-11 
 1.4704671484248814e-11  1.5289483597986758e-11  1.5897553986867659e-11  1.6529807644717803e-11 
 1.7187206352880733e-11  1.7870750143279048e-11  1.8581478819663058e-11  1.9320473539360678e-11 
 2.0088858457934498e-11  2.0887802439248075e-11  2.1718520833542816e-11  2.2582277326230124e-11 
 2.3480385860211484e-11  2.4414212634650449e-11  2.5385178183237451e-11  2.6394759535108537e-11 
 2.7444492461705605e-11  2.8535973812995842e-11  2.9670863946604497e-11  3.0850889253556046e-11 
 3.2077844784466056e-11  3.3353596980178770e-11  3.4680086511004260e-11  3.6059331228874340e-11 
 3.7493429236908120e-11  3.8984562081056612e-11  4.0534998068681709e-11  4.2147095719117764e-11 
 4.3823307351465009e-11  4.5566182815072405e-11  4.7378373368385157e-11  4.9262635712057146e-11 
 5.1221836182464106e-11  5.3258955111996129e-11  5.5377091362763368e-11  5.7579467040610909e-11 
 5.9869432396614638e-11  6.2250470923514045e-11  6.4726204654834958e-11  6.7300399674763480e-11 
 6.9976971847152749e-11  7.2759992772378163e-11  7.5653695981102393e-11  7.8662483374372764e-11 
 8.1790931919847676e-11  8.5043800614338841e-11  8.8426037723261271e-11  9.1942788308003481e-11 
 9.5599402052669396e-11  9.9401441402098000e-11  1.0335469002354128e-10  1.0746516160487211e-10 
 1.1173910900270669e-10  1.1618303375435857e-10  1.2080369596809342e-10  1.2560812460673126e-10 
 1.3060362818023934e-10  1.3579780586358243e-10  1.4119855905674326e-10  1.4681410340449944e-10 
 1.5265298129424176e-10  1.5872407485084649e-10  1.6503661944837064e-10  1.7160021775912463e-10 
 1.7842485436149598e-10  1.8552091092874507e-10  1.9289918202188098e-10  2.0057089151064148e-10 
 2.0854770964755990e-10  2.1684177082109166e-10  2.2546569201481012e-10  2.3443259200075246e-10 
 2.4375611129611539e-10  2.5345043291366098e-10  2.6353030393740067e-10  2.7401105795638054e-10 
 2.8490863839069866e-10  2.9623962274523943e-10  3.0802124782802562e-10  3.2027143597155088e-10 
 3.3300882229698899e-10  3.4625278306275497e-10  3.6002346514054920e-10  3.7434181666372733e-10 
 3.8922961889462575e-10  4.0470951935932134e-10  4.2080506630024149e-10  4.3754074449903577e-10 
 4.5494201252421158e-10  4.7303534146020206e-10  4.9184825517678659e-10  5.1140937220013032e-10 
 5.3174844924914373e-10  5.5289642650339562e-10  5.7488547467145045e-10  5.9774904393123613e-10 
 6.2152191481689798e-10  6.4624025112955536e-10  6.7194165495245613e-10  6.9866522385422463e-10 
 7.2645161036723319e-10  7.5534308383157822e-10  7.8538359469874312e-10  8.1661884139260635e-10 
 8.4909633982918371e-10  8.8286549570190635e-10  9.1797767964208130e-10  9.5448630536873815e-10 
 9.9244691094675485e-10  1.0319172432768998e-09  1.0729573459463358e-09  1.1156296505732536e-09 
 1.1599990717846140e-09  1.2061331059715120e-09  1.2541019339724188e-09  1.3039785278405366e-09 
 1.3558387618577201e-09  1.4097615279638758e-09  1.4658288557774727e-09  1.5241260373897829e-09 
 1.5847417571227362e-09  1.6477682264478290e-09  1.7133013242713762e-09  1.7814407427995700e-09 
 1.8522901392052929e-09  1.9259572933274684e-09  2.0025542716429090e-09  2.0821975977601758e-09 
 2.1650084296948742e-09  2.2511127441961564e-09  2.3406415284049057e-09  2.4337309791352574e-09 
 2.5305227100827002e-09  2.6311639672740891e-09  2.7358078530874099e-09  2.8446135591822103e-09 
 2.9577466086951702e-09  3.0753791080693734e-09  3.1976900089005225e-09  3.3248653801985780e-09 
 3.4570986914791662e-09  3.5945911071155640e-09  3.7375517923992610e-09  3.8861982317748499e-09 
 4.0407565597335986e-09  4.2014619048692978e-09  4.3685587476200071e-09  4.5423012922401843e-09 
 4.7229538535693320e-09  4.9107912591858355e-09  5.1060992675580539e-09  5.3091750028291688e-09 
 5.5203274068975019e-09  5.7398777094804762e-09  5.9681599168776631e-09  6.2055213201769227e-09 
 6.4523230236772022e-09  6.7089404943323635e-09  6.9757641330524076e-09  7.2531998687317652e-09 
 7.5416697759089731e-09  7.8416127169979104e-09  8.1534850100684104e-09  8.4777611231927612e-09 
 8.8149343964152181e-09  9.1655177924436697e-09  9.5300446772063593e-09  9.9090696314620647e-09 
 1.0303169294699409e-08  1.0712943242610275e-08  1.1139014899473281e-08  1.1582032486836601e-08 
 1.2042670009944684e-08  1.2521628283410878e-08  1.3019635997697860e-08  1.3537450828029881e-08 
 1.4075860587425558e-08  1.4635684425607093e-08  1.5217774075611883e-08  1.5823015150004963e-08 
 1.6452328488666535e-08  1.7106671560207332e-08  1.7787039919146336e-08  1.8494468721070427e-08 
 1.9230034298083833e-08  1.9994855796947302e-08  2.0790096882402334e-08  2.1616967508275481e-08 
 2.2476725759060656e-08  2.3370679764785351e-08  2.4300189692078037e-08  2.5266669814470500e-08 
 2.6271590665089549e-08  2.7316481275018379e-08  2.8402931500738374e-08  2.9532594444198169e-08 
 3.0707188969198172e-08  3.1928502317925506e-08  3.3198392831627333e-08  3.4518792779569373e-08 
 3.5891711300591848e-08  3.7319237461746615e-08  3.8803543438678447e-08  4.0346887822598777e-08 
 4.1951619058893915e-08  4.3620179022610688e-08  4.5355106736271106e-08  4.7159042235685501e-08 
 4.9034730589659447e-08  5.0985026079724890e-08  5.3012896546270089e-08  5.5121427907698018e-08 
 5.7313828859506259e-08  5.9593435760457014e-08  6.1963717713292166e-08  6.4428281847744375e-08 
 6.6990878813906231e-08  6.9655408494339726e-08  7.2425925943643469e-08  7.5306647564543043e-08 
 7.8301957529931339e-08  8.1416414460662189e-08  8.4654758369291788e-08  8.8021917880370333e-08 
 9.1523017738307415e-08  9.5163386614277929e-08  9.8948565224090274e-08  1.0288431476941700e-07 
 1.0697662571528197e-07  1.1123172691721386e-07  1.1565609511201149e-07  1.2025646478662343e-07 
 1.2503983844022484e-07  1.3001349725517555e-07  1.3518501219317216e-07  1.4056225553355861e-07 
 1.4615341287143667e-07  1.5196699559392575e-07  1.5801185385365258e-07  1.6429719005931722e-07 
 1.7083257290397311e-07  1.7762795195248777e-07  1.8469367281050693e-07  1.9204049289813977e-07 
 1.9967959785251324e-07  2.0762261858430860e-07  2.1588164901439980e-07  2.2446926451775990e-07 
 2.3339854110288990e-07  2.4268307535615516e-07  2.5233700518159548e-07  2.6237503136799614e-07 
 2.7281244001628397e-07  2.8366512586163918e-07  2.9494961652609128e-07  3.0668309773880247e-07 
 3.1888343956273691e-07  3.3156922366796514e-07  3.4475977169346967e-07  3.5847517474099997e-07 
 3.7273632404627314e-07  3.8756494287463488e-07  4.0298361969019445e-07  4.1901584264940910e-07 
 4.3568603547215249e-07  4.5301959474542560e-07  4.7104292871709645e-07  4.8978349763935562e-07 
 5.0926985572398824e-07  5.2953169477405074e-07  5.5059988955915397e-07  5.7250654500425703e-07 
 5.9528504526469166e-07  6.1897010476307641e-07  6.4359782126682502e-07  6.6920573108813009e-07 
 6.9583286649161398e-07  7.2351981539827386e-07  7.5230878347792688e-07  7.8224365872609377e-07 
 8.1337007862513372e-07  8.4573549999348148e-07  8.7938927163103991e-07  9.1438270987315517e-07 
 9.5076917717015829e-07  9.8860416381418957e-07  1.0279453729399688e-06  1.0688528089312932e-06 
 1.1113888693704164e-06  1.1556184406730041e-06  1.2016089975571821e-06  1.2494307065012104e-06 
 1.2991565333506125e-06  1.3508623552421265e-06  1.4046270770186582e-06  1.4605327523165204e-06 
 1.5186647095136168e-06  1.5791116827349314e-06  1.6419659481197025e-06  1.7073234655629966e-06 
 1.7752840261530917e-06  1.8459514055351412e-06  1.9194335234410051e-06  1.9958426096349731e-06 
 2.0752953765353316e-06  2.1579131987823776e-06  2.2438223000345979e-06  2.3331539472863051e-06 
 2.4260446530120590e-06  2.5226363854557897e-06  2.6230767873955920e-06  2.7275194037288358e-06 
 2.8361239182364094e-06  2.9490563998997766e-06  3.0664895591599013e-06  3.1886030145232343e-06 
 3.3155835699367122e-06  3.4476255033711877e-06  3.5849308670709475e-06  3.7277097999459702e-06 
 3.8761808526033880e-06  4.0305713255352470e-06  4.1911176210012475e-06  4.3580656091675362e-06 
 4.5316710090860869e-06  4.7121997851236218e-06  4.8999285594744996e-06  5.0951450414185443e-06 
 5.2981484740125636e-06  5.5092500989331728e-06  5.7287736402186999e-06  5.9570558076895377e-06 
 6.1944468208589655e-06  6.4413109541809408e-06  6.6980271045169867e-06  6.9649893817417397e-06 
 7.2426077234456283e-06  7.5313085347338829e-06  7.8315353541635439e-06  8.1437495469044546e-06 
 8.4684310262566220e-06  8.8060790047045458e-06  9.1572127757397957e-06  9.5223725277357028e-06 
 9.9021201912132690e-06  1.0297040320894901e-05  1.0707741014002713e-05  1.1134854866321051e-05 
 1.1579039967608466e-05  1.2040980938013174e-05  1.2521390007217520e-05  1.3021008138112269e-05 
 1.3540606196879683e-05  1.4080986171446510e-05  1.4642982440353614e-05  1.5227463094178710e-05 
 1.5835331311742374e-05  1.6467526793425617e-05  1.7125027254029995e-05  1.7808849977718390e-05 
 1.8520053437687247e-05  1.9259738983338386e-05  2.0029052597841705e-05  2.0829186729108961e-05 
 2.1661382197333645e-05  2.2526930182393188e-05  2.3427174294557761e-05  2.4363512732104831e-05 
 2.5337400529600810e-05  2.6350351900781342e-05  2.7403942680139767e-05  2.8499812867520154e-05 
 2.9639669280206765e-05  3.0825288317207271e-05  3.2058518840641529e-05  3.3341285179373888e-05 
 3.4675590260262979e-05  3.6063518872651059e-05  3.7507241071975132e-05  3.9009015728655342e-05 
 4.0571194228701958e-05  4.2196224332783307e-05  4.3886654200812466e-05  4.5645136589441479e-05 
 4.7474433230199721e-05  4.9377419396378667e-05  5.1357088667147731e-05  5.3416557897789969e-05 
 5.5559072405368791e-05  5.7788011379581965e-05  6.0106893529026258e-05  6.2519382973587592e-05 
 6.5029295394187901e-05  6.7640604451662127e-05  7.0357448487111290e-05  7.3184137516676007e-05 
 7.6125160534307954e-05  7.9185193136780665e-05  8.2369105485879943e-05  8.5681970623450695e-05 
 8.9129073155750331e-05  9.2715918324375171e-05  9.6448241481883923e-05  1.0033201799114625e-04 
 1.0437347356839642e-04  1.0857909509097443e-04  1.1295564189179339e-04  1.1751015756368477e-04 
 1.2224998229794603e-04  1.2718276578265071e-04  1.3231648068758435e-04  1.3765943676404308e-04 
 1.4322029558918006e-04  1.4900808598611139e-04  1.5503222015260536e-04  1.6130251053287698e-04 
 1.6782918746880148e-04  1.7462291766875371e-04  1.8169482353427478e-04  1.8905650338687261e-04 
 1.9672005263948820e-04  2.0469808595950545e-04  2.1300376047265839e-04  2.2165080005980841e-04 
 2.3065352080132442e-04  2.4002685762671778e-04  2.4978639223026400e-04  2.5994838231660077e-04 
 2.7052979224372655e-04  2.8154832513446228e-04  2.9302245653127295e-04  3.0497146967340522e-04 
 3.1741549247958417e-04  3.3037553632404008e-04  3.4387353669843121e-04  3.5793239585728260e-04 
 3.7257602754991879e-04  3.8782940394752134e-04  4.0371860487992454e-04  4.2027086950308280e-04 
 4.3751465052483171e-04  4.5547967112363139e-04  4.7419698470245323e-04  4.9369903762787630e-04 
 5.1401973511281394e-04  5.3519451041012780e-04  5.5726039749372919e-04  5.8025610741364495e-04 
 6.0422210852197284e-04  6.2920071077769582e-04  6.5523615434999927e-04  6.8237470275207910e-04 
 7.1066474075049345e-04  7.4015687730888088e-04  7.7090405383948072e-04  8.0296165805128353e-04 
 8.3638764369993815e-04  8.7124265656175032e-04  9.0759016697229873e-04  9.4549660928939941e-04 
 9.8503152866044499e-04  1.0262677354955746e-03  1.0692814680707552e-03  1.1141525637087390e-03 
 1.1609646390110691e-03  1.2098052796409022e-03  1.2607662401844719e-03  1.3139436546486041e-03 
 1.3694382581828748e-03  1.4273556206478774e-03  1.4878063926857020e-03  1.5509065649851491e-03 
 1.6167777414726335e-03  1.6855474272000732e-03  1.7573493317435381e-03  1.8323236889710576e-03 
 1.9106175940848730e-03  1.9923853588926350e-03  2.0777888863136714e-03  2.1669980651806081e-03 
 2.2601911864533002e-03  2.3575553820214222e-03  2.4592870873341084e-03  2.5655925291599348e-03 
 2.6766882398481739e-03  2.7928015995328914e-03  2.9141714077948939e-03  3.0410484863729829e-03 
 3.1736963145953764e-03  3.3123916992843778e-03  3.4574254809726316e-03  3.6091032783572906e-03 
 3.7677462730091723e-03  3.9336920364473598e-03  4.1072954017855306e-03  4.2889293822543501e-03 
 4.4789861390043791e-03  4.6778780006956327e-03  4.8860385374830629e-03  5.1039236921111399e-03 
 5.3320129709350100e-03  5.5708106977897763e-03  5.8208473337324771e-03  6.0826808657827493e-03 
 6.3568982678866674e-03  6.6441170374231719e-03  6.9449868106624098e-03  7.2601910606686932e-03 
 7.5904488812165863e-03  7.9365168603545075e-03  8.2991910473047097e-03  8.6793090164291476e-03 
 9.0777520320151663e-03  9.4954473176405898e-03  9.9333704338614645e-03  1.0392547767924289e-02 
 1.0874059139134324e-02  1.1379040523408613e-02  1.1908686900402234e-02  1.2464255226414298e-02 
 1.3047067536051322e-02  1.3658514175343832e-02  1.4300057168671937e-02  1.4973233721449927e-02 
 1.5679659860042605e-02  1.6421034209828482e-02  1.7199141911680507e-02  1.8015858676394131e-02 
 1.8873154975747205e-02  1.9773100367916800e-02  2.0717867953895183e-02  2.1709738960330835e-02 
 2.2751107442860446e-02  2.3844485102484284e-02  2.4992506205859192e-02  2.6197932598531971e-02 
 2.7463658798099342e-02  2.8792717152051645e-02  3.0188283042626100e-02  3.1653680118354774e-02 
 3.3192385529136142e-02  3.4808035138582931e-02  3.6504428684100934e-02  3.8285534851631990e-02 
 4.0155496228255989e-02  4.2118634091895486e-02  4.4179452993214352e-02  4.6342645080465782e-02 
 4.8613094113543705e-02  5.0995879108854440e-02  5.3496277551883825e-02  5.6119768109530406e-02 
 5.8872032769453519e-02  6.1758958328901874e-02  6.4786637150803766e-02  6.7961367100382697e-02 
 7.1289650571285099e-02  7.4778192506247107e-02  7.8433897313763545e-02  8.2263864579132123e-02 
 8.6275383465702501e-02  9.0475925700219353e-02  9.4873137034865856e-02  9.9474827077998568e-02 
 1.0428895738561508e-01  1.0932362770625689e-01  1.1458706027322367e-01  1.2008758203950745e-01 
 1.2583360475252889e-01  1.3183360276729567e-01  1.3809608849766852e-01  1.4462958540563337e-01 
 1.5144259842743599e-01  1.5854358173275551e-01  1.6594090370845502e-01  1.7364280905167803e-01 
 1.8165737784820254e-01  1.8999248150138540e-01  1.9865573536553177e-01  2.0765444792641571e-01 
 2.1699556636292588e-01  2.2668561832001263e-01  2.3673064972759683e-01  2.4713615851681472e-01 
 2.5790702411838701e-01  2.6904743268278181e-01  2.8056079804294620e-01  2.9244967855200971e-01 
 3.0471569007385002e-01  3.1735941558538450e-01  3.3038031206507940e-01  3.4377661558814937e-01 
 3.5754524581651237e-01  3.7168171134670275e-01  3.8618001764174575e-01  4.0103257949825549e-01 
 4.1623014015901527e-01  4.3176169924556634e-01  4.4761445163227237e-01  4.6377373920284720e-01 
 4.8022301713096993e-01  4.9694383593852443e-01  5.1391584015754632e-01  5.3111678401496665e-01 
 5.4852256422903189e-01  5.6610726979039960e-01  5.8384324850632785e-01  6.0170119008495371e-01 
 6.1965022556936344e-01  6.3765804291869310e-01  6.5569101839011146e-01  6.7371436302296239e-01 
 6.9169228290739992e-01  7.0958815101370687e-01  7.2736468719985026e-01  7.4498414171628335e-01 
 7.6240847629783626e-01  7.7959953607839749e-01  7.9651920544922583e-01  8.1312954193981157e-01 
 8.2939288440309278e-01  8.4527193511247012e-01  8.6072981934560866e-01  8.7573012986330834e-01 
 8.9023696652083772e-01  9.0421498238431219e-01  9.1762944688577974e-01  9.3044633551784151e-01 
 9.4263245984107624e-01  9.5415558446265825e-01  9.6498459752791799e-01  9.7508973308153823e-01 
 9.8444276063230496e-01  9.9301718861655075e-01  1.0007884643195379e+00  1.0077341619184415e+00 
 1.0138341534285433e+00  1.0190707588825823e+00  1.0234288734791195e+00  1.0268960705930148e+00 
 1.0294626804155245e+00  1.0311218446002119e+00  1.0318695476798434e+00  1.0317046262454661e+00 
 1.0306287569966943e+00  1.0286464248276259e+00  1.0257648721398527e+00  1.0219940305953263e+00 
 1.0173464365502358e+00  1.0118371314518930e+00  1.0054835485339753e+00  9.9830538720803852e-01 
 9.9032447661586676e-01  9.8156462987196835e-01  9.7205149058245433e-01  9.6181237327014668e-01 
 9.5087609936143780e-01  9.3927283039449794e-01  9.2703390008840747e-01  9.1419164686726362e-01 
 9.0077924836203649e-01  8.8683055931674948e-01  8.7237995420622150e-01  8.5746217573281824e-01 
 8.4211219021283701e-01  8.2636505069317157e-01  8.1025576845968073e-01  7.9381919341841889e-01 
 7.7708990300616587e-01  7.6010210296495051e-01  7.4288953350963916e-01  7.2548538710541555e-01 
 7.0792223432767309e-01  6.9023195798760051e-01  6.7244569498192774e-01  6.5459378525367196e-01 
 6.3670572720389251e-01  6.1881013887143299e-01  6.0093472419718952e-01  5.8310624370998676e-01 
 5.6535048901037321e-01  5.4769226048388697e-01  5.3015534774347184e-01  5.1276251237841231e-01 
 4.9553547267096643e-01  4.7849489002834117e-01  4.6166035696352065e-01  4.4505038654057610e-01 
 4.2868240327582297e-01  4.1257273555313634e-01  3.9673660966810209e-01  3.8118814566009662e-01 
 3.6594035512303713e-01  3.5100514120413939e-01  3.3639330100573706e-01  3.2211453059872897e-01 
 3.0817743283855747e-01  2.9458952814717765e-01  2.8135726838888064e-01  2.6848605392589214e-01 
 2.5598025389327711e-01  2.4384322968375044e-01  2.3207736158336215e-01  2.2068407845041260e-01 
 2.0966389028389845e-01  1.9901642348559292e-01  1.8874045858262392e-01  1.7883397014591110e-01 
 1.6929416861463659e-01  1.6011754371833675e-01  1.5129990917628972e-01  1.4283644834849238e-01 
 1.3472176051333726e-01  1.2694990745364393e-01  1.1951446004435175e-01  1.1240854455125732e-01 
 1.0562488836989631e-01  9.9155864956190970e-02  9.2993537725612127e-02  8.7129702722881244e-02 
 8.1555929890478232e-02  7.6263602791796170e-02  7.1243956669688802e-02  6.6488114745370350e-02 
 6.1987122685832431e-02  5.7731981188866154e-02  5.3713676653723841e-02  4.9923209922296562e-02 
 4.6351623090423927e-02  4.2990024401670525e-02  3.9829611246734432e-02  3.6861691300768447e-02 
 3.4077701838483472e-02  3.1469227273165555e-02  2.9028014970865584e-02  2.6745989395151163e-02 
 2.4615264641174684e-02  2.2628155420554099e-02  2.0777186560577431e-02  1.9055101082870372e-02 
 1.7454866927960035e-02  1.5969682392980685e-02  1.4592980350317955e-02  1.3318431315244560e-02 
 1.2139945430593027e-02  1.1051673436263194e-02  1.0048006690854894e-02  9.1235763120440082e-03 
 8.2732515014610538e-03  7.4921371186725217e-03  6.7755705676210793e-03  6.1191180574974528e-03 
 5.5185702984088206e-03  4.9699376904976840e-03  4.4694450633222171e-03  4.0135260203496602e-03 
 3.5988169413510500e-03  3.2221506933304321e-03  2.8805500983865363e-03  2.5712212046014476e-03 
 2.2915464036911558e-03  2.0390774367484254e-03  1.8115283269711923e-03  1.6067682758110387e-03 
 1.4228145565077595e-03  1.2578254365087365e-03  1.1100931578167232e-03  9.7803700187737170e-04 
 8.6019646321844605e-04  7.5522455369595180e-04  6.6188125689745883e-04  5.7902715000810281e-04 
 5.0561720826798541e-04  4.4069480504785227e-04  3.8338591854929341e-04  3.3289355420158763e-04 
 2.8849238998436896e-04  2.4952365015721656e-04  2.1539021122720940e-04  1.8555194243571006e-04 
 1.5952128159793362e-04  1.3685904578433720e-04  1.1717047509219180e-04  1.0010150661903944e-04 
 8.5335274716844618e-05  7.2588832675852020e-05  6.1610090159400089e-05  5.2174959983737311e-05 
 4.4084707208356275e-05  3.7163492970176680e-05  3.1256105056293729e-05  2.6225866861730364e-05 
 2.1952716116981075e-05  1.8331444590951071e-05  1.5270089873570992e-05  1.2688470313888179e-05 
 1.0516854228426124e-05  8.6947545953757513e-06  7.1698406068116173e-06  5.8969576575196561e-06 
 4.8372475989995888e-06  3.9573613745754940e-06  3.2287564701949630e-06  2.6270719594510521e-06 
 2.1315742848712580e-06  1.7246672951153619e-06  1.3914604442779943e-06  1.1193894502531973e-06 
 8.9788409975584184e-07  7.1807827421984054e-07  5.7255764997437697e-07  4.5514089486799701e-07 
 3.6069053935846755e-07  2.8495004094983237e-07  2.2440388510803864e-07  1.7615787219461100e-07 
 1.3783702767516632e-07  1.0749884138086363e-07  8.3559790730953972e-08  6.4733332642047614e-08 
 4.9977759670498508e-08  3.8452508275510743e-08  2.9481681635345682e-08  2.2523707013122320e-08 
 1.7146189169246091e-08  1.3005147744086509e-08  9.8279389233193985e-09  7.3992611088064017e-09 
 5.5497318128504963e-09  4.1465996219656542e-09  3.0862218586125213e-09  2.2879964866048110e-09 
 1.6894867903158948e-09  1.2425202862661299e-09  9.1008001521517872e-10  6.6383756806629046e-10 
 4.8220361078979608e-10  3.4879392014194298e-10  2.5122758954525124e-10  1.8018962029461846e-10 
 1.2870302851724878e-10  9.1566272145498362e-11  6.4920585825418203e-11  4.5919013344870267e-11 
 0.0000000000000000e+00  0.0000000000000000e+00  0.0000000000000000e+00  0.0000000000000000e+00 
 0.0000000000000000e+00  0.0000000000000000e+00  0.0000000000000000e+00  0.0000000000000000e+00 
 0.0000000000000000e+00  0.0000000000000000e+00  0.0000000000000000e+00  0.0000000000000000e+00 
 0.0000000000000000e+00  0.0000000000000000e+00  0.0000000000000000e+00  0.0000000000000000e+00 
 0.0000000000000000e+00  0.0000000000000000e+00  0.0000000000000000e+00  0.0000000000000000e+00 
 0.0000000000000000e+00  0.0000000000000000e+00  0.0000000000000000e+00  0.0000000000000000e+00 
 0.0000000000000000e+00  0.0000000000000000e+00  0.0000000000000000e+00  0.0000000000000000e+00 
 0.0000000000000000e+00  0.0000000000000000e+00  0.0000000000000000e+00  0.0000000000000000e+00 
 0.0000000000000000e+00  0.0000000000000000e+00  0.0000000000000000e+00  0.0000000000000000e+00 
 0.0000000000000000e+00  0.0000000000000000e+00  0.0000000000000000e+00  0.0000000000000000e+00 
 0.0000000000000000e+00  0.0000000000000000e+00  0.0000000000000000e+00  0.0000000000000000e+00 
 0.0000000000000000e+00  0.0000000000000000e+00  0.0000000000000000e+00  0.0000000000000000e+00 
 0.0000000000000000e+00  0.0000000000000000e+00  0.0000000000000000e+00  0.0000000000000000e+00 
 0.0000000000000000e+00  0.0000000000000000e+00  0.0000000000000000e+00  0.0000000000000000e+00 
 0.0000000000000000e+00  0.0000000000000000e+00  0.0000000000000000e+00  0.0000000000000000e+00 
 0.0000000000000000e+00  0.0000000000000000e+00  0.0000000000000000e+00  0.0000000000000000e+00 
 0.0000000000000000e+00  0.0000000000000000e+00  0.0000000000000000e+00  0.0000000000000000e+00 
 0.0000000000000000e+00  0.0000000000000000e+00  0.0000000000000000e+00  0.0000000000000000e+00 
 0.0000000000000000e+00  0.0000000000000000e+00  0.0000000000000000e+00  0.0000000000000000e+00 
 0.0000000000000000e+00  0.0000000000000000e+00  0.0000000000000000e+00  0.0000000000000000e+00 
 0.0000000000000000e+00  0.0000000000000000e+00  0.0000000000000000e+00  0.0000000000000000e+00 
 0.0000000000000000e+00  0.0000000000000000e+00  0.0000000000000000e+00  0.0000000000000000e+00 
 0.0000000000000000e+00  0.0000000000000000e+00  0.0000000000000000e+00  0.0000000000000000e+00 
 0.0000000000000000e+00  0.0000000000000000e+00  0.0000000000000000e+00  0.0000000000000000e+00 
 0.0000000000000000e+00  0.0000000000000000e+00  0.0000000000000000e+00  0.0000000000000000e+00 
 0.0000000000000000e+00  0.0000000000000000e+00  0.0000000000000000e+00  0.0000000000000000e+00 
 0.0000000000000000e+00  0.0000000000000000e+00  0.0000000000000000e+00  0.0000000000000000e+00 
 0.0000000000000000e+00  0.0000000000000000e+00  0.0000000000000000e+00  0.0000000000000000e+00 
 0.0000000000000000e+00  0.0000000000000000e+00  0.0000000000000000e+00  0.0000000000000000e+00 
 0.0000000000000000e+00  0.0000000000000000e+00  0.0000000000000000e+00  0.0000000000000000e+00 
 0.0000000000000000e+00  0.0000000000000000e+00  0.0000000000000000e+00  0.0000000000000000e+00 
 0.0000000000000000e+00  0.0000000000000000e+00  0.0000000000000000e+00  0.0000000000000000e+00 
 0.0000000000000000e+00  0.0000000000000000e+00  0.0000000000000000e+00  0.0000000000000000e+00 
 0.0000000000000000e+00  0.0000000000000000e+00  0.0000000000000000e+00  0.0000000000000000e+00 
 0.0000000000000000e+00  0.0000000000000000e+00  0.0000000000000000e+00  0.0000000000000000e+00 
 0.0000000000000000e+00  0.0000000000000000e+00  0.0000000000000000e+00  0.0000000000000000e+00 
 0.0000000000000000e+00  0.0000000000000000e+00  0.0000000000000000e+00  0.0000000000000000e+00 
 0.0000000000000000e+00  0.0000000000000000e+00  0.0000000000000000e+00  0.0000000000000000e+00 
 0.0000000000000000e+00  0.0000000000000000e+00  0.0000000000000000e+00  0.0000000000000000e+00 
 0.0000000000000000e+00 
D    2   5.70          Wavefunction
 8.9931417579563159e-15  9.3508033561806366e-15  9.7226893292611911e-15  1.0109365387470683e-14 
 1.0511419739653330e-14  1.0929463988003930e-14  1.1364134058432780e-14  1.1816091167931607e-14 
 1.2286022830412142e-14  1.2774643902547384e-14  1.3282697671206451e-14  1.3810956984137274e-14 
 1.4360225425617080e-14  1.4931338538859043e-14  1.5525165097034701e-14  1.6142608424845466e-14 
 1.6784607772653757e-14  1.7452139745263930e-14  1.8146219787526591e-14  1.8867903729026009e-14 
 1.9618289390200639e-14  2.0398518252339689e-14  2.1209777193996385e-14  2.2053300296459151e-14 
 2.2930370721027317e-14  2.3842322660946953e-14  2.4790543370976142e-14  2.5776475277667088e-14 
 2.6801618173575137e-14  2.7867531498732536e-14  2.8975836712857601e-14  3.0128219761907679e-14 
 3.1326433642728243e-14  3.2572301069699215e-14  3.3867717247435190e-14  3.5214652753757287e-14 
 3.6615156537322137e-14  3.8071359034468164e-14  3.9585475410020161e-14  4.1159808926982468e-14 
 4.2796754450246302e-14  4.4498802089641389e-14  4.6268540987873396e-14  4.8108663259109572e-14 
 5.0021968084203830e-14  5.2011365968790937e-14  5.4079883170727231e-14  5.6230666303612643e-14 
 5.8466987123397342e-14  6.0792247505353691e-14  6.3209984618985193e-14  6.5723876308743743e-14 
 6.8337746688740930e-14  7.1055571959963470e-14  7.3881486458842416e-14  7.6819788946376670e-14 
 7.9874949147378204e-14  8.3051614549786192e-14  8.6354617474393093e-14  8.9788982425737460e-14 
 9.3359933735345022e-14  9.7072903508945513e-14  1.0093353988975401e-13  1.0494771565038713e-13 
 1.0912153712648389e-13  1.1346135350562102e-13  1.1797376648565316e-13  1.2266564031716977e-13 
 1.2754411224534566e-13  1.3261660336706890e-13  1.3789082991986223e-13  1.4337481501977024e-13 
 1.4907690086606808e-13  1.5500576143135789e-13  1.6117041565635582e-13  1.6758024116944296e-13 
 1.7424498855184923e-13  1.8117479617017054e-13  1.8838020559878310e-13  1.9587217765561377e-13 
 2.0366210907566191e-13  2.1176184984763479e-13  2.2018372124006979e-13  2.2894053454436441e-13 
 2.3804561056322584e-13  2.4751279987418572e-13  2.5735650389900500e-13  2.6759169681101971e-13 
 2.7823394831375246e-13  2.8929944732544051e-13  3.0080502660550962e-13  3.1276818836045479e-13 
 3.2520713086807994e-13  3.3814077616059635e-13  3.5158879880869238e-13  3.6557165585035890e-13 
 3.8011061791000070e-13  3.9522780155516889e-13  4.1094620294013771e-13  4.2728973278750282e-13 
 4.4428325276101535e-13  4.6195261328498204e-13  4.8032469286776159e-13  4.9942743898917628e-13 
 5.1928991061403623e-13  5.3994232239644917e-13  5.6141609064215563e-13  5.8374388109881196e-13 
 6.0695965864691483e-13  6.3109873896696047e-13  6.5619784226143198e-13  6.8229514911333736e-13 
 7.0943035856627135e-13  7.3764474851434847e-13  7.6698123849387632e-13  7.9748445497228474e-13 
 8.2920079923362968e-13  8.6217851796393671e-13  8.9646777664376181e-13  9.3212073585961026e-13 
 9.6919163065030109e-13  1.0077368530089756e-12  1.0478150376662543e-12  1.0894871512850338e-12 
 1.1328165852026069e-12  1.1778692518611845e-12  1.2247136850735106e-12  1.2734211442760894e-12 
 1.3240657229286218e-12  1.3767244612245398e-12  1.4314774632841020e-12  1.4884080190083138e-12 
 1.5476027307790478e-12  1.6091516451980907e-12  1.6731483900655228e-12  1.7396903168057980e-12 
 1.8088786485581875e-12  1.8808186341568547e-12  1.9556197082348022e-12  2.0333956576952371e-12 
 2.1142647948035895e-12  2.1983501371634965e-12  2.2857795948505222e-12  2.3766861649882912e-12 
 2.4712081340630157e-12  2.5694892882841852e-12  2.6716791323114063e-12  2.7779331166801361e-12 
 2.8884128742722590e-12  3.0032864661912190e-12  3.1227286374157520e-12  3.2469210826210988e-12 
 3.3760527225720814e-12  3.5103199915084748e-12  3.6499271359598636e-12  3.7950865254445245e-12 
 3.9460189755249810e-12  4.1029540837116569e-12  4.2661305787256046e-12  4.4357966836516143e-12 
 4.6122104935341195e-12  4.7956403679903101e-12  4.9863653394376969e-12  5.1846755375571142e-12 
 5.3908726306368650e-12  5.6052702844693639e-12  5.8281946394983862e-12  6.0599848069427261e-12 
 6.3009933846509869e-12  6.5515869934722204e-12  6.8121468349583284e-12  7.0830692712466543e-12 
 7.3647664280048098e-12  7.6576668213550050e-12  7.9622160097315268e-12  8.2788772716629741e-12 
 8.6081323105103323e-12  8.9504819872328816e-12  9.3064470822966665e-12  9.6765690878845385e-12 
 1.0061411031612892e-11  1.0461558333008098e-11  1.0877619694045592e-11  1.1310228025106214e-11 
 1.1760041407758469e-11  1.2227744095831208e-11  1.2714047556299655e-11  1.3219691551568121e-11 
 1.3745445264795812e-11  1.4292108469977609e-11  1.4860512748559692e-11  1.5451522754440810e-11 
 1.6066037529283492e-11  1.6704991870136076e-11  1.7369357751445995e-11  1.8060145803627523e-11 
 1.8778406850433157e-11  1.9525233507467325e-11  2.0301761844274196e-11  2.1109173112527750e-11 
 2.1948695542953356e-11  2.2821606213714081e-11  2.3729232993104217e-11  2.4672956559505029e-11 
 2.5654212501675737e-11  2.6674493502574544e-11  2.7735351610031970e-11  2.8838400597730548e-11 
 2.9985318420082462e-11  3.1177849764739638e-11  3.2417808706619088e-11  3.3707081467481021e-11 
 3.5047629285257531e-11  3.6441491397496823e-11  3.7890788143461391e-11  3.9397724189599289e-11 
 4.0964591883295047e-11  4.2593774740002018e-11  4.4287751069061093e-11  4.6049097743721114e-11 
 4.7880494121096600e-11  4.9784726118025280e-11  5.1764690449026462e-11  5.3823399032806518e-11 
 5.5963983574015257e-11  5.8189700327223005e-11  6.0503935050365400e-11  6.2910208155191397e-11 
 6.5412180062549461e-11  6.8013656770658815e-11  7.0718595644836051e-11  7.3531111437485091e-11 
 7.6455482547508110e-11  7.9496157528659435e-11  8.2657761856743746e-11  8.5945104965952286e-11 
 8.9363187565042023e-11  9.2917209244486567e-11  9.6612576386172219e-11  1.0045491038767085e-10 
 1.0445005621360139e-10  1.0860409128708861e-10  1.1292333473484502e-10  1.1741435699994069e-10 
 1.2208398983688373e-10  1.2693933670421748e-10  1.3198778357044298e-10  1.3723701014970674e-10 
 1.4269500158434526e-10  1.4837006059205947e-10  1.5427082009619687e-10  1.6040625635835705e-10 
 1.6678570263329799e-10  1.7341886336691613e-10  1.8031582895889935e-10  1.8748709111251132e-10 
 1.9494355879485853e-10  2.0269657483192016e-10  2.1075793316358680e-10  2.1913989678495839e-10 
 2.2785521640119519e-10  2.3691714982430251e-10  2.4633948214135663e-10  2.5613654668485573e-10 
 2.6632324683709783e-10  2.7691507870175752e-10  2.8792815467715426e-10  2.9937922796707268e-10 
 3.1128571806642833e-10  3.2366573726054782e-10  3.3653811817838266e-10  3.4992244244157183e-10 
 3.6383907045294208e-10  3.7830917236976382e-10  3.9335476030888563e-10  4.0899872183274414e-10 
 4.2526485476719255e-10  4.4217790340412173e-10  4.5976359614394887e-10  4.7804868463524525e-10 
 4.9706098447104497e-10  5.1682941750375209e-10  5.3738405584302053e-10  5.5875616760354200e-10 
 5.8097826447234264e-10  6.0408415116795144e-10  6.2810897686668763e-10  6.5308928867429904e-10 
 6.7906308722430689e-10  7.0606988448763515e-10  7.3415076388146589e-10  7.6334844276861191e-10 
 7.9370733744217979e-10  8.2527363069535690e-10  8.5809534207881664e-10  8.9222240095249546e-10 
 9.2770672244287679e-10  9.6460228642135634e-10  1.0029652196238449e-09  1.0428538810365571e-09 
 1.0843289506779008e-09  1.1274535219115493e-09  1.1722931974311506e-09  1.2189161890627185e-09 
 1.2673934215365583e-09  1.3177986403866187e-09  1.3702085241414474e-09  1.4247028009774534e-09 
 1.4813643700119734e-09  1.5402794274206973e-09  1.6015375975713591e-09  1.6652320693732121e-09 
 1.7314597380497792e-09  1.8003213525505852e-09  1.8719216688261882e-09  1.9463696091997386e-09 
 2.0237784280775686e-09  2.1042658842509830e-09  2.1879544200514224e-09  2.2749713476316385e-09 
 2.3654490426563212e-09  2.4595251456969537e-09  2.5573427716373378e-09  2.6590507274084638e-09 
 2.7648037383840716e-09  2.8747626837814140e-09  2.9890948414254710e-09  3.1079741422490828e-09 
 3.2315814349163274e-09  3.3601047609718294e-09  3.4937396409347844e-09  3.6326893717730452e-09 
 3.7771653362100425e-09  3.9273873243352520e-09  4.0835838680076947e-09  4.2459925885613980e-09 
 4.4148605583420399e-09  4.5904446766250252e-09  4.7730120604871286e-09  4.9628404512266716e-09 
 5.1602186369507781e-09  5.3654468919729613e-09  5.5788374336898307e-09  5.8007148976323587e-09 
 6.0314168314148010e-09  6.2712942083331596e-09  6.5207119613949797e-09  6.7800495385934095e-09 
 7.0497014802708162e-09  7.3300780194508065e-09  7.6216057060526398e-09  7.9247280559382370e-09 
 8.2399062257798989e-09  8.5676197147761975e-09  8.9083670942842935e-09  9.2626667664796055e-09 
 9.6310577531978237e-09  1.0014100516160381e-08  1.0412377809832202e-08  1.0826495568210294e-08 
 1.1257083826893508e-08  1.1704797681837451e-08  1.2170318286254473e-08  1.2654353887176815e-08 
 1.3157640903261420e-08  1.3680945045477650e-08  1.4225062482384782e-08  1.4790821051773761e-08 
 1.5379081520518618e-08  1.5990738894556386e-08  1.6626723780990637e-08  1.7288003804393411e-08 
 1.7975585079462730e-08  1.8690513742279064e-08  1.9433877542493029e-08  2.0206807498870207e-08 
 2.1010479620714669e-08  2.1846116697794129e-08  2.2714990161493494e-08  2.3618422020032553e-08 
 2.4557786870696327e-08  2.5534513992144207e-08  2.6550089519986106e-08  2.7606058708940743e-08 
 2.8704028285023641e-08  2.9845668891349375e-08  3.1032717631275613e-08  3.2266980712765216e-08 
 3.3550336197996884e-08  3.4884736862415495e-08  3.6272213167580638e-08  3.7714876352345084e-08 
 3.9214921647075973e-08  4.0774631615819380e-08  4.2396379631503789e-08  4.4082633489481934e-08 
 4.5835959164921078e-08  4.7659024719771949e-08  4.9554604365274821e-08  5.1525582686199119e-08 
 5.3574959033259614e-08  5.5705852090409652e-08  5.7921504623979408e-08  6.0225288420903877e-08 
 6.2620709423576155e-08  6.5111413069160607e-08  6.7701189841514186e-08  7.0393981044188728e-08 
 7.3193884803325719e-08  7.6105162309606011e-08  7.9132244308783315e-08  8.2279737850710915e-08 
 8.5552433307165308e-08  8.8955311669183909e-08  9.2493552135059917e-08  9.6172540000584052e-08 
 9.9997874863584923e-08  1.0397537915530110e-07  1.0811110701161954e-07  1.1241135349773466e-07 
 1.1688266420032513e-07  1.2153184520190788e-07  1.2636597345261498e-07  1.3139240755524954e-07 
 1.3661879898010854e-07  1.4205310372672260e-07  1.4770359445034541e-07  1.5357887307174220e-07 
 1.5968788388956490e-07  1.6603992721537745e-07  1.7264467355219396e-07  1.7951217833822900e-07 
 1.8665289727842878e-07  1.9407770228725325e-07  2.0179789806712119e-07  2.0982523934790627e-07 
 2.1817194881389088e-07  2.2685073574563936e-07  2.3587481540535797e-07  2.4525792919544747e-07 
 2.5501436562114976e-07  2.6515898208942761e-07  2.7570722757750524e-07  2.8667516620583759e-07 
 2.9807950175167347e-07  3.0993760314082592e-07  3.2226753095677578e-07  3.3508806500780428e-07 
 3.4841873299448391e-07  3.6227984032155778e-07  3.7669250110000896e-07  3.9167867038695707e-07 
 4.0726117771294127e-07  4.2346376194813395e-07  4.4031110756111072e-07  4.5782888232595229e-07 
 4.7604377653570668e-07  4.9498354378256828e-07  5.1467704336756663e-07  5.3515428440508763e-07 
 5.5644647169017620e-07  5.7858605339931745e-07  6.0160677069823793e-07  6.2554370933323550e-07 
 6.5043335328563944e-07  6.7631364057221122e-07  7.0322402127763823e-07  7.3120551790876279e-07 
 7.6030078816380278e-07  7.9055419021359508e-07  8.2201185059581878e-07  8.5472173482723907e-07 
 8.8873372084326618e-07  9.2409967537854999e-07  9.6087353340694555e-07  9.9911138076396727e-07 
 1.0388715400798642e-06  1.0802146601566332e-06  1.1232038089277045e-06  1.1679045701446763e-06 
 1.2143851439413316e-06  1.2627164514312972e-06  1.3129722435020447e-06  1.3652292139745885e-06 
 1.4195671173051004e-06  1.4760688910118733e-06  1.5348207830185337e-06  1.5959124841121978e-06 
 1.6594372657233811e-06  1.7254921232429269e-06  1.7941779251000142e-06  1.8655995678344831e-06 
 1.9398661374062757e-06  2.0170910769947139e-06  2.0973923615507308e-06  2.1808926793759594e-06 
 2.2677196210138302e-06  2.3580058757495593e-06  2.4518894360281189e-06  2.5495138101120165e-06 
 2.6510282433139529e-06  2.7565879481532976e-06  2.8663543437996506e-06  2.9804953051818532e-06 
 3.0991854221564006e-06  3.2226062691455495e-06  3.3509466856724076e-06  3.4844030682380058e-06 
 3.6231796740038714e-06  3.7674889367628214e-06  3.9175517957008716e-06  4.0735980374739969e-06 
 4.2358666521454382e-06  4.4046062035519189e-06  4.5800752146909998e-06  4.7625425687464757e-06 
 4.9522879263946636e-06  5.1496021600613362e-06  5.3547878058271722e-06  5.5681595337090572e-06 
 5.7900446370750027e-06  6.0207835419826052e-06  6.2607303372641755e-06  6.5102533262165538e-06 
 6.7697356007899033e-06  7.0395756392077210e-06  7.3201879279898984e-06  7.6120036093919603e-06 
 7.9154711553168195e-06  8.2310570688003500e-06  8.5592466142192571e-06  8.9005445774187629e-06 
 9.2554760570090264e-06  9.6245872881328044e-06  1.0008446500062898e-05  1.0407644809046454e-05 
 1.0822797147874327e-05  1.1254543233717699e-05  1.1703548575840826e-05  1.2170505524868728e-05 
 1.2656134365361558e-05  1.3161184453523685e-05  1.3686435401955388e-05  1.4232698313438389e-05 
 1.4800817065833810e-05  1.5391669650262327e-05  1.6006169564831850e-05  1.6645267266277866e-05 
 1.7309951681986119e-05  1.8001251784976758e-05  1.8720238234543340e-05  1.9468025085360195e-05 
 2.0245771567996746e-05  2.1054683943908980e-05  2.1896017438115583e-05  2.2771078252910393e-05 
 2.3681225666113548e-05  2.4627874217521795e-05  2.5612495987383876e-05  2.6636622970900493e-05 
 2.7701849552929966e-05  2.8809835087271342e-05  2.9962306585096322e-05  3.1161061517310907e-05 
 3.2407970735847090e-05  3.3704981519115117e-05  3.5054120747088489e-05  3.6457498211747187e-05 
 3.7917310068870132e-05  3.9435842437447192e-05  4.1015475153273416e-05  4.2658685683595566e-05 
 4.4368053210003311e-05  4.6146262887096635e-05  4.7996110284815567e-05  4.9920506022693145e-05 
 5.1922480604683487e-05  5.4005189463630049e-05  5.6171918224871478e-05  5.8426088198937980e-05 
 6.0771262113769272e-05  6.3211150097387903e-05  6.5749615922490917e-05  6.8390683524977979e-05 
 7.1138543809019295e-05  7.3997561751881628e-05  7.6972283822377338e-05  8.0067445727482583e-05 
 8.3287980502386698e-05  8.6639026959989127e-05  9.0125938516653846e-05  9.3754292411867042e-05 
 9.7529899340322829e-05  1.0145881351588994e-04  1.0554734318788658e-04  1.0980206163112030e-04 
 1.1422981863223186e-04  1.1883775249602426e-04  1.2363330259666043e-04  1.2862422249988151e-04 
 1.3381859368373473e-04  1.3922483988670719e-04  1.4485174211365060e-04  1.5070845433144738e-04 
 1.5680451988802128e-04  1.6314988869004082e-04  1.6975493517650233e-04  1.7663047712731985e-04 
 1.8378779534809853e-04  1.9123865427442998e-04  1.9899532354132794e-04  2.0707060056583270e-04 
 2.1547783419335613e-04  2.2423094946102173e-04  2.3334447353409154e-04  2.4283356287456480e-04 
 2.5271403170419468e-04  2.6300238182751121e-04  2.7371583388396628e-04  2.8487236010204067e-04 
 2.9649071863209936e-04  3.0859048953892938e-04  3.2119211253930761e-04  3.3431692657457453e-04 
 3.4798721131311345e-04  3.6222623068281676e-04  3.7705827853910703e-04  3.9250872657987598e-04 
 4.0860407462483275e-04  4.2537200338322776e-04  4.4284142984076170e-04  4.6104256540372871e-04 
 4.8000697694608512e-04  4.9976765091322591e-04  5.2035906064479070e-04  5.4181723708785607e-04 
 5.6417984308141668e-04  5.8748625140315103e-04  6.1177762678012691e-04  6.3709701207637461e-04 
 6.6348941888217283e-04  6.9100192274245981e-04  7.1968376327509866e-04  7.4958644944376129e-04 
 7.8076387026503882e-04  8.1327241124506022e-04  8.4717107685744984e-04  8.8252161939193698e-04 
 9.1938867452137629e-04  9.5783990395441505e-04  9.9794614556159705e-04  1.0397815713843732e-03 
 1.0834238539593605e-03  1.1289543414143117e-03  1.1764582418176816e-03  1.2260248172904721e-03 
 1.2777475884172701e-03  1.3317245495231102e-03  1.3880583954141244e-03  1.4468567602128287e-03 
 1.5082324689535795e-03  1.5723038026401301e-03  1.6391947775054928e-03  1.7090354392544917e-03 
 1.7819621731115767e-03  1.8581180305407077e-03  1.9376530735504753e-03  2.0207247375461945e-03 
 2.1074982137415281e-03  2.1981468521953150e-03  2.2928525865948011e-03  2.3918063819643749e-03 
 2.4952087065392846e-03  2.6032700291066676e-03  2.7162113431815839e-03  2.8342647194535791e-03 
 2.9576738880097071e-03  3.0866948519126707e-03  3.2215965337880595e-03  3.3626614571521355e-03 
 3.5101864642914644e-03  3.6644834725875455e-03  3.8258802712634004e-03  3.9947213606146012e-03 
 4.1713688358741867e-03  4.3562033179489696e-03  4.5496249333536838e-03  4.7520543457585003e-03 
 4.9639338416545414e-03  5.1857284727301950e-03  5.4179272576378038e-03  5.6610444459148489e-03 
 5.9156208469050972e-03  6.1822252266024056e-03  6.4614557754118255e-03  6.7539416498878461e-03 
 7.0603445915668655e-03  7.3813606260584889e-03  7.7177218455960796e-03  8.0701982782693388e-03 
 8.4395998471681177e-03  8.8267784226546582e-03  9.2326299709483174e-03  9.6580968021494941e-03 
 1.0104169920744378e-02  1.0571891481516023e-02  1.1062357353635567e-02  1.1576719795516326e-02 
 1.2116190242777753e-02  1.2682042211381202e-02  1.3275614317659223e-02  1.3898313416558830e-02 
 1.4551617858950924e-02  1.5237080868315177e-02  1.5956334036486192e-02  1.6711090937434031e-02 
 1.7503150857243122e-02  1.8334402637539375e-02  1.9206828628587823e-02  2.0122508747133519e-02 
 2.1083624632777406e-02  2.2092463895258291e-02  2.3151424443442092e-02  2.4263018885092382e-02 
 2.5429878984602593e-02  2.6654760163803654e-02  2.7940546028712810e-02  2.9290252902655415e-02 
 3.0707034343566177e-02  3.2194185620457082e-02  3.3755148121025945e-02  3.5393513659172177e-02 
 3.7113028647792201e-02  3.8917598098651925e-02  4.0811289407390768e-02  4.2798335877817749e-02 
 4.4883139935636050e-02  4.7070275977605464e-02  4.9364492797955677e-02  5.1770715529635913e-02 
 5.4294047033774460e-02  5.6939768666577746e-02  5.9713340348880872e-02  6.2620399859735554e-02 
 6.5666761271856833e-02  6.8858412443518771e-02  7.2201511478668129e-02  7.5702382064683757e-02 
 7.9367507595419912e-02  8.3203523985985281e-02  8.7217211085175744e-02  9.1415482591610961e-02 
 9.5805374380417460e-02  1.0039403114870553e-01  1.0518869129001222e-01  1.1019666991018717e-01 
 1.1542533989967989e-01  1.2088211097959367e-01  1.2657440664089195e-01  1.3250963889742992e-01 
 1.3869518077366957e-01  1.4513833644666863e-01  1.5184630895892529e-01  1.5882616541375180e-01 
 1.6608479955808200e-01  1.7362889164933157e-01  1.8146486549385124e-01  1.8959884253583714e-01 
 1.9803659286907213e-01  2.0678348304192132e-01  2.1584442053159414e-01  2.2522379478037208e-01 
 2.3492541471829118e-01  2.4495244274792080e-01  2.5530732524161276e-01  2.6599171970368685e-01 
 2.7700641888234268e-01  2.8835127227994545e-01  3.0002510570476837e-01  3.1202563972818714e-01 
 3.2434940815058477e-01  3.3699167782392114e-01  3.4994637141092810e-01  3.6320599485734661e-01 
 3.7676157148862111e-01  3.9060258469047632e-01  4.0471693107374684e-01  4.1909088584909043e-01 
 4.3370908185507440e-01  4.4855450332137203e-01  4.6360849505246898e-01  4.7885078734058700e-01 
 4.9425953661029132e-01  5.0981138159508843e-01  5.2548151475413285e-01  5.4124376862922696e-01 
 5.5707071686524123e-01  5.7293378959957908e-01  5.8880340279165155e-01  6.0464910074190137e-01 
 6.2043971049139679e-01  6.3614350597989988e-01  6.5172837880487133e-01  6.6716201126785513e-01 
 6.8241204630579944e-01  6.9744624815588896e-01  7.1223264751727233e-01  7.2673966584660332e-01 
 7.4093621540589205e-01  7.5479177465738811e-01  7.6827644213869106e-01  7.8136097535869864e-01 
 7.9401682375797455e-01  8.0621616576612165e-01  8.1793195922121609e-01  8.2913801348543792e-01 
 8.3980909540144633e-01  8.4992102144411485e-01  8.5945079529715995e-01  8.6837678932340390e-01 
 8.7667889451406888e-01  8.8433868056259268e-01  8.9133955060887216e-01  8.9766688334510758e-01 
 9.0330815798013775e-01  9.0825305896140085e-01  9.1249355862491444e-01  9.1602397699027438e-01 
 9.1884101871001855e-01  9.2094378773639740e-01  9.2233378062481752e-01  9.2301485960242713e-01 
 9.2299320664099094e-01  9.2227725982594166e-01  9.2087763333830763e-01  9.1880702238320100e-01 
 9.1608009441902560e-01  9.1271336807042014e-01  9.0872508114546591e-01  9.0413504922118870e-01 
 8.9896451630675955e-01  8.9323599913615126e-01  8.8697312667659689e-01  8.8020047646165478e-01 
 8.7294340936440362e-01  8.6522790441450270e-01  8.5708039523071833e-01  8.4852760958710816e-01 
 8.3959641355638126e-01  8.3031366157878139e-01  8.2070605369078264e-01  8.1080000101707184e-01 
 8.0062150048451264e-01  7.9019601956101049e-01  7.7954839165834278e-01  7.6870272242405802e-01 
 7.5768230847312523e-01  7.4650956621748255e-01  7.3520597324222192e-01  7.2379202083960381e-01 
 7.1228717764391014e-01  7.0070986393665780e-01  6.8907743609045635e-01  6.7740618052830082e-01 
 6.6571131650205928e-01  6.5400700693880109e-01  6.4230637656594225e-01  6.3062153650524866e-01 
 6.1896361452048454e-01  6.0734279011250591e-01  5.9576833367729021e-01  5.8424864897490691e-01 
 5.7279131819887386e-01  5.6140314898372212e-01  5.5009022274196473e-01  5.3885794377809459e-01 
 5.2771108868501615e-01  5.1665385558577981e-01  5.0568991283922626e-01  4.9482244688099702e-01 
 4.8405420892032114e-01  4.7338756025737055e-01  4.6282451602530833e-01  4.5236678719522871e-01 
 4.4201582071101048e-01  4.3177283764490115e-01  4.2163886928382882e-01  4.1161479107155613e-01 
 4.0170135434351378e-01  3.9189921580023379e-01  3.8220896467252796e-01  3.7263114753768939e-01 
 3.6316629075179929e-01  3.5381492046932367e-01  3.4457758022820245e-01  3.3545484608697196e-01 
 3.2644733931048237e-01  3.1755573661264014e-01  3.0878077797840886e-01  3.0012327210294987e-01 
 2.9158409950311831e-01  2.8316421337526454e-01  2.7486463829303209e-01  2.6668646685916397e-01 
 2.5863085444566042e-01  2.5069901217630536e-01  2.4289219832546571e-01  2.3521170832254254e-01 
 2.2765886356538537e-01  2.2023499926091158e-01  2.1294145151781640e-01  2.0577954392019460e-01 
 1.9875057381233505e-01  1.9185579852104137e-01  1.8509642173379848e-01  1.7847358023898877e-01 
 1.7198833121843293e-01  1.6564164026326514e-01  1.5943437026212043e-01  1.5336727128651351e-01 
 1.4744097157285338e-01  1.4165596967455460e-01  1.3601262783194085e-01  1.3051116658262252e-01 
 1.2515166061172375e-01  1.1993403582037113e-01  1.1485806757160652e-01  1.0992338005677943e-01 
 1.0512944671271321e-01  1.0047559160952629e-01  9.5960991721767419e-02  9.1584679991027207e-02 
 8.7345549086242660e-02  8.3242355768265608e-02  7.9273725767365230e-02  7.5438159086396700e-02 
 7.1734035647900332e-02  6.8159621209042232e-02  6.4713073475262561e-02  6.1392448351110893e-02 
 5.8195706273904878e-02  5.5120718583232635e-02  5.2165273886424696e-02  4.9327084386840386e-02 
 4.6603792148043187e-02  4.3992975272607260e-02  4.1492153979358147e-02  3.9098796567276765e-02 
 3.6810325258091636e-02  3.4624121912755386e-02  3.2537533619576030e-02  3.0547878153782630e-02 
 2.8652449309785822e-02  2.6848522108388527e-02  2.5133357881753103e-02  2.3504209239082335e-02 
 2.1958324915768303e-02  2.0492954508249235e-02  1.9105353096038089e-02  1.7792785751393377e-02 
 1.6552531935943460e-02  1.5381889782299527e-02  1.4278180257352148e-02  1.3238751202593043e-02 
 1.2260981245490509e-02  1.1342283574721152e-02  1.0480109570971922e-02  9.6719522841131854e-03 
 8.9153497468440462e-03  8.2078881144515368e-03  7.5472046201263488e-03  6.9309903353500036e-03 
 6.3569927252137828e-03  5.8230179891413155e-03  5.3269331783498417e-03  4.8666680824774409e-03 
 4.4402168790971504e-03  4.0456395413011499e-03  3.6810630001333200e-03  3.3446820603390058e-03 
 3.0347600696484021e-03  2.7496293435777764e-03  2.4876913494849373e-03  2.2474166553192133e-03 
 2.0273446501323034e-03  1.8260830449387535e-03  1.6423071639118535e-03  1.4747590371549672e-03 
 1.3222463073861530e-03  1.1836409638061938e-03  1.0578779171812023e-03  9.4395343075876631e-04 
 8.4092342205232748e-04  7.4790165077609852e-04  6.6405780829871942e-04  5.8861552391652346e-04 
 5.2085030303688801e-04  4.6008741202020178e-04  4.0569972396802326e-04  3.5710553917801303e-04 
 3.1376639332773040e-04  2.7518486571155863e-04  2.4090239905341637e-04  2.1049714156486113e-04 
 1.8358182102721815e-04  1.5980165975991629e-04  1.3883233840711982e-04  1.2037801554204728e-04 
 1.0416940916324645e-04  8.9961945248803683e-05  7.7533977651293286e-05  6.6685082765523685e-05 
 5.7234431589116992e-05  4.9019241027954620e-05  4.1893305578985429e-05  3.5725609855028905e-05 
 3.0399021802704537e-05  2.5809065907004873e-05  2.1862775175169387e-05  1.8477620248471815e-05 
 1.5580513602807433e-05  1.3106886466200180e-05  1.0999835801965392e-05  9.2093384779635404e-06 
 7.6915295625906490e-06  6.4080415539209914e-06  5.3254012566305967e-06  4.4144809684896852e-06 
 3.6500006209343154e-06  3.0100775328693070e-06  2.4758204798466153e-06  2.0309648485493564e-06 
 1.6615457356143482e-06  1.3556059568850571e-06  1.1029360549919552e-06  8.9484352667590150e-07 
 7.2394863366931759e-07  5.8400430961364329e-07  4.6973782803240381e-07  3.7671205064587603e-07 
 3.0120422939400220e-07  2.4010048775608665e-07  1.9080425584363144e-07  1.5115707820430689e-07 
 1.1937035207968033e-07  9.3966686458311961e-08  7.3729697887703842e-08  5.7661177275352573e-08 
 4.4944672531733361e-08  3.4914634746003008e-08  2.7030370621504999e-08  2.0854131221802070e-08 
 1.6032746867926296e-08  1.2282290537242668e-08  9.3753176546576298e-09  7.1302891042788849e-09 
 5.4028370035661260e-09  4.0785797008495646e-09  3.0672340004240107e-09  2.2978092206772754e-09 
 1.7146997771842879e-09  1.2745209719312350e-09  9.4355696451841733e-10  6.9571088516911509e-10 
 5.1086508468314985e-10  3.7357494128935818e-10  2.7203277147984305e-10  1.9724953355081541e-10 
 1.4241149720720283e-10  1.0237592672330456e-10  7.3278685898670629e-11  5.2229590741581106e-11 
 3.7077145830587940e-11  2.6227793032697837e-11  1.8507800824478368e-11  0.0000000000000000e+00 
 0.0000000000000000e+00  0.0000000000000000e+00  0.0000000000000000e+00  0.0000000000000000e+00 
 0.0000000000000000e+00  0.0000000000000000e+00  0.0000000000000000e+00  0.0000000000000000e+00 
 0.0000000000000000e+00  0.0000000000000000e+00  0.0000000000000000e+00  0.0000000000000000e+00 
 0.0000000000000000e+00  0.0000000000000000e+00  0.0000000000000000e+00  0.0000000000000000e+00 
 0.0000000000000000e+00  0.0000000000000000e+00  0.0000000000000000e+00  0.0000000000000000e+00 
 0.0000000000000000e+00  0.0000000000000000e+00  0.0000000000000000e+00  0.0000000000000000e+00 
 0.0000000000000000e+00  0.0000000000000000e+00  0.0000000000000000e+00  0.0000000000000000e+00 
 0.0000000000000000e+00  0.0000000000000000e+00  0.0000000000000000e+00  0.0000000000000000e+00 
 0.0000000000000000e+00  0.0000000000000000e+00  0.0000000000000000e+00  0.0000000000000000e+00 
 0.0000000000000000e+00  0.0000000000000000e+00  0.0000000000000000e+00  0.0000000000000000e+00 
 0.0000000000000000e+00  0.0000000000000000e+00  0.0000000000000000e+00  0.0000000000000000e+00 
 0.0000000000000000e+00  0.0000000000000000e+00  0.0000000000000000e+00  0.0000000000000000e+00 
 0.0000000000000000e+00  0.0000000000000000e+00  0.0000000000000000e+00  0.0000000000000000e+00 
 0.0000000000000000e+00  0.0000000000000000e+00  0.0000000000000000e+00  0.0000000000000000e+00 
 0.0000000000000000e+00  0.0000000000000000e+00  0.0000000000000000e+00  0.0000000000000000e+00 
 0.0000000000000000e+00  0.0000000000000000e+00  0.0000000000000000e+00  0.0000000000000000e+00 
 0.0000000000000000e+00  0.0000000000000000e+00  0.0000000000000000e+00  0.0000000000000000e+00 
 0.0000000000000000e+00  0.0000000000000000e+00  0.0000000000000000e+00  0.0000000000000000e+00 
 0.0000000000000000e+00  0.0000000000000000e+00  0.0000000000000000e+00  0.0000000000000000e+00 
 0.0000000000000000e+00  0.0000000000000000e+00  0.0000000000000000e+00  0.0000000000000000e+00 
 0.0000000000000000e+00  0.0000000000000000e+00  0.0000000000000000e+00  0.0000000000000000e+00 
 0.0000000000000000e+00  0.0000000000000000e+00  0.0000000000000000e+00  0.0000000000000000e+00 
 0.0000000000000000e+00  0.0000000000000000e+00  0.0000000000000000e+00  0.0000000000000000e+00 
 0.0000000000000000e+00  0.0000000000000000e+00  0.0000000000000000e+00  0.0000000000000000e+00 
 0.0000000000000000e+00  0.0000000000000000e+00  0.0000000000000000e+00  0.0000000000000000e+00 
 0.0000000000000000e+00  0.0000000000000000e+00  0.0000000000000000e+00  0.0000000000000000e+00 
 0.0000000000000000e+00  0.0000000000000000e+00  0.0000000000000000e+00  0.0000000000000000e+00 
 0.0000000000000000e+00  0.0000000000000000e+00  0.0000000000000000e+00  0.0000000000000000e+00 
 0.0000000000000000e+00 
</PP_PSWFC>


<PP_RHOATOM>
 1.0419874176606791e-16  1.0694343555455288e-16  1.0976042718606800e-16  1.1265162105465822e-16 
 1.1561897171792912e-16  1.1866448521840363e-16  1.2179022043968421e-16  1.2499829049833844e-16 
 1.2829086417244715e-16  1.3167016736778289e-16  1.3513848462260817e-16  1.3869816065211256e-16 
 1.4235160193353056e-16  1.4610127833301401e-16  1.4994972477535773e-16  1.5389954295770696e-16 
 1.5795340310840600e-16  1.6211404579217641e-16  1.6638428376284588e-16  1.7076700386487916e-16 
 1.7526516898499727e-16  1.7988182005520490e-16  1.8462007810857916e-16  1.8948314638920991e-16 
 1.9447431251771784e-16  1.9959695071381443e-16  2.0485452407740724e-16  2.1025058692979066e-16 
 2.1578878721650678e-16  2.2147286897349889e-16  2.2730667485822823e-16  2.3329414874746005e-16 
 2.3943933840348054e-16  2.4574639821054285e-16  2.5221959198339487e-16  2.5886329584978545e-16 
 2.6568200120890083e-16  2.7268031776772674e-16  2.7986297665739285e-16  2.8723483363160534e-16 
 2.9480087234932803e-16  3.0256620774393438e-16  3.1053608948110453e-16  3.1871590550780882e-16 
 3.2711118569477424e-16  3.3572760557489651e-16  3.4457099018012827e-16  3.5364731797943202e-16 
 3.6296272492046452e-16  3.7252350857772347e-16  3.8233613240996008e-16  3.9240723012973587e-16 
 4.0274361018808071e-16  4.1335226037727853e-16  4.2424035255489639e-16  4.3541524749225048e-16 
 4.4688449985058507e-16  4.5865586328832862e-16  4.7073729570288278e-16  4.8313696461048233e-16 
 4.9586325266777034e-16  5.0892476333881476e-16  5.2233032671140148e-16  5.3608900546653508e-16 
 5.5021010100518254e-16  5.6470315973640174e-16  5.7957797953110730e-16  5.9484461634583533e-16 
 6.1051339102098344e-16  6.2659489625812852e-16  6.4310000378113125e-16  6.6003987168587247e-16 
 6.7742595198359221e-16  6.9526999834292653e-16  7.1358407403588014e-16  7.3238056009310223e-16 
 7.5167216367398798e-16  7.7147192665724869e-16  7.9179323445777745e-16  8.1264982507575464e-16 
 8.3405579838412025e-16  8.5602562566068957e-16  8.7857415937135530e-16  9.0171664321098791e-16 
 9.2546872240883456e-16  9.4984645430536329e-16  9.7486631920772222e-16  1.0005452315311407e-15 
 1.0269005512338132e-15  1.0539500955529874e-15  1.0817121510501947e-15  1.1102054859737762e-15 
 1.1394493629470415e-15  1.1694635519906592e-15  1.2002683438880674e-15  1.2318845639029522e-15 
 1.2643335858580556e-15  1.2976373465848435e-15  1.3318183607537969e-15  1.3668997360953460e-15 
 1.4029051890217545e-15  1.4398590606604963e-15  1.4777863333099783e-15  1.5167126473287299e-15 
 1.5566643184694700e-15  1.5976683556697929e-15  1.6397524793114645e-15  1.6829451399607192e-15 
 1.7272755376021746e-15  1.7727736413794288e-15  1.8194702098556246e-15  1.8673968118077194e-15 
 1.9165858475685132e-15  1.9670705709308434e-15  2.0188851116287832e-15  2.0720644984110203e-15 
 2.1266446827220321e-15  2.1826625630070500e-15  2.2401560096572684e-15  2.2991638906121353e-15 
 2.3597260976360652e-15  2.4218835732873163e-15  2.4856783385972642e-15  2.5511535214788091e-15 
 2.6183533858831091e-15  2.6873233617243338e-15  2.7581100755927124e-15  2.8307613822765997e-15 
 2.9053263971148987e-15  2.9818555292017082e-15  3.0604005154656335e-15  3.1410144556468183e-15 
 3.2237518481953245e-15  3.3086686271151684e-15  3.3958221997788772e-15  3.4852714857381707e-15 
 3.5770769565569865e-15  3.6713006766937989e-15  3.7680063454608472e-15  3.8672593400886812e-15 
 3.9691267599250918e-15  4.0736774717983686e-15  4.1809821565754893e-15  4.2911133569468036e-15 
 4.4041455264694258e-15  4.5201550799025865e-15  4.6392204448689122e-15  4.7614221148765941e-15 
 4.8868427037382973e-15  5.0155670014235903e-15  5.1476820313826851e-15  5.2832771093801966e-15 
 5.4224439038788187e-15  5.5652764980135601e-15  5.7118714531986511e-15  5.8623278744099813e-15 
 6.0167474771872599e-15  6.1752346564012543e-15  6.3378965568325142e-15  6.5048431456093797e-15 
 6.6761872865542309e-15  6.8520448164882428e-15  7.0325346235462602e-15  7.2177787275547637e-15 
 7.4079023625272365e-15  7.6030340613327553e-15  7.8033057425950543e-15  8.0088527998808397e-15 
 8.2198141932376198e-15  8.4363325431430466e-15  8.6585542269291533e-15  8.8866294777469201e-15 
 9.1207124861378626e-15  9.3609615042814774e-15  9.6075389529890296e-15  9.8606115315159970e-15 
 1.0120350330267505e-14  1.0386930946472893e-14  1.0660533602907756e-14  1.0941343269743647e-14 
 1.1229549789607968e-14  1.1525348005938495e-14  1.1828937894719552e-14  1.2140524699688712e-14 
 1.2460319071105695e-14  1.2788537208177149e-14  1.3125401005233801e-14  1.3471138201758761e-14 
 1.3825982536368503e-14  1.4190173904850737e-14  1.4563958522365952e-14  1.4947589089922545e-14 
 1.5341324965237994e-14  1.5745432338101787e-14  1.6160184410358667e-14  1.6585861580634092e-14 
 1.7022751633926708e-14  1.7471149936196256e-14  1.7931359634078697e-14  1.8403691859863272e-14 
 1.8888465941870816e-14  1.9386009620375055e-14  1.9896659269213590e-14  2.0420760123238102e-14 
 2.0958666511758000e-14  2.1510742098135307e-14  2.2077360125693239e-14  2.2658903670104608e-14 
 2.3255765898431134e-14  2.3868350334988919e-14  2.4497071134220095e-14  2.5142353360755394e-14 
 2.5804633276857399e-14  2.6484358637438792e-14  2.7181988992855671e-14  2.7897995999680938e-14 
 2.8632863739668053e-14  2.9387089047121510e-14  3.0161181844895421e-14  3.0955665489248043e-14 
 3.1771077123786029e-14  3.2607968042737624e-14  3.3466904063801774e-14  3.4348465910825041e-14 
 3.5253249606566178e-14  3.6181866875814432e-14  3.7134945559134772e-14  3.8113130037520565e-14 
 3.9117081668241571e-14  4.0147479232183150e-14  4.1205019392979361e-14  4.2290417168252264e-14 
 4.3404406413276155e-14  4.4547740317395787e-14  4.5721191913534773e-14  4.6925554601140283e-14 
 4.8161642682919032e-14  4.9430291915728478e-14  5.0732360075998241e-14  5.2068727540064912e-14 
 5.3440297879814782e-14  5.4847998474039318e-14  5.6292781135918617e-14  5.7775622757059815e-14 
 5.9297525968527644e-14  6.0859519819317610e-14  6.2462660472732528e-14  6.4108031921136962e-14 
 6.5796746719575530e-14  6.7529946738755225e-14  6.9308803937904048e-14  7.1134521158032968e-14 
 7.3008332936141949e-14  7.4931506340925295e-14  7.6905341830545827e-14  7.8931174133064554e-14 
 8.1010373150125862e-14  8.3144344884516664e-14  8.5334532392232401e-14  8.7582416759702244e-14 
 8.9889518106841498e-14  9.2257396616618230e-14  9.4687653591839989e-14  9.7181932539884275e-14 
 9.9741920286118444e-14  1.0236934811677237e-13  1.0506599295205003e-13  1.0783367855028628e-13 
 1.1067427674397843e-13  1.1358970870854323e-13  1.1658194626467481e-13  1.1965301321520235e-13 
 1.2280498671737089e-13  1.2603999869149356e-13  1.2936023726695166e-13  1.3276794826654387e-13 
 1.3626543673021274e-13  1.3985506847920920e-13  1.4353927172178003e-13  1.4732053870149704e-13 
 1.5120142738937569e-13  1.5518456322096422e-13  1.5927264087961668e-13  1.6346842612719720e-13 
 1.6777475768349859e-13  1.7219454915569335e-13  1.7673079101917526e-13  1.8138655265118439e-13 
 1.8616498441865434e-13  1.9106931982175513e-13  1.9610287769464903e-13  2.0126906446493869e-13 
 2.0657137647325384e-13  2.1201340235515430e-13  2.1759882548688781e-13  2.2333142649668768e-13 
 2.2921508584341552e-13  2.3525378646442026e-13  2.4145161649453244e-13  2.4781277205817816e-13 
 2.5434156013665300e-13  2.6104240151266539e-13  2.6791983379431425e-13  2.7497851452074716e-13 
 2.8222322435179991e-13  2.8965887034400946e-13  2.9729048931544932e-13  3.0512325130193435e-13 
 3.1316246310720859e-13  3.2141357194982898e-13  3.2988216920953583e-13  3.3857399427600329e-13 
 3.4749493850295658e-13  3.5665104927074315e-13  3.6604853416055666e-13  3.7569376524361460e-13 
 3.8559328348871844e-13  3.9575380329173564e-13  4.0618221713067643e-13  4.1688560035017224e-13 
 4.2787121607929211e-13  4.3914652028680213e-13  4.5071916697809850e-13  4.6259701353822866e-13 
 4.7478812622557689e-13  4.8730078582096422e-13  5.0014349343711482e-13  5.1332497649362022e-13 
 5.2685419486276120e-13  5.4074034719174835e-13  5.5499287740719331e-13  5.6962148140785094e-13 
 5.8463611395194280e-13  6.0004699574564657e-13  6.1586462073961585e-13  6.3209976364071333e-13 
 6.4876348764645928e-13  6.6586715241004781e-13  6.8342242224413360e-13  7.0144127457200817e-13 
 7.1993600863516376e-13  7.3891925446670939e-13  7.5840398214054612e-13  7.7840351130672523e-13 
 7.9893152102392604e-13  8.2000205990055152e-13  8.4162955655654854e-13  8.6382883041868883e-13 
 8.8661510286273297e-13  9.1000400871661790e-13  9.3401160813959343e-13  9.5865439889306036e-13 
 9.8394932901973495e-13  1.0099138099487420e-12  1.0365657300452026e-12  1.0639234686240304e-12 
 1.0920059104487421e-12  1.1208324607373932e-12  1.1504230606990325e-12  1.1807982036255261e-12 
 1.2119789515651217e-12  1.2439869526057650e-12  1.2768444587979421e-12  1.3105743447487103e-12 
 1.3452001269206231e-12  1.3807459836713936e-12  1.4172367760725615e-12  1.4546980695478338e-12 
 1.4931561563745816e-12  1.5326380790948180e-12  1.5731716548851195e-12  1.6147855009383387e-12 
 1.6575090609135473e-12  1.7013726325145662e-12  1.7464073962615947e-12  1.7926454455250293e-12 
 1.8401198178953323e-12  1.8888645279681234e-12  1.9389146016292490e-12  1.9903061119307014e-12 
 2.0430762166547429e-12  2.0972631976707298e-12  2.1529065021966144e-12  2.2100467860854234e-12 
 2.2687259592657435e-12  2.3289872334748226e-12  2.3908751724331540e-12  2.4544357446204844e-12 
 2.5197163788251514e-12  2.5867660226515244e-12  2.6556352041842712e-12  2.7263760970231253e-12 
 2.7990425889180796e-12  2.8736903542523847e-12  2.9503769306395850e-12  3.0291617999212064e-12 
 3.1101064738736861e-12  3.1932745849568546e-12  3.2787319824619075e-12  3.3665468344444694e-12 
 3.4567897358582013e-12  3.5495338233366483e-12  3.6448548971059456e-12  3.7428315505484234e-12 
 3.8435453079780135e-12  3.9470807712320185e-12  4.0535257757313662e-12  4.1629715567125655e-12 
 4.2755129263899218e-12  4.3912484628663112e-12  4.5102807116753196e-12  4.6327164009073877e-12 
 4.7586666709477537e-12  4.8882473199355818e-12  5.0215790661414784e-12  5.1587878285556767e-12 
 5.3000050270818748e-12  5.4453679038426306e-12  5.5950198672221480e-12  5.7491108604018762e-12 
 5.9077977562844036e-12  6.0712447808523741e-12  6.2396239671728086e-12  6.4131156424339461e-12 
 6.5919089505927292e-12  6.7762024134176506e-12  6.9662045329346962e-12  7.1621344385254956e-12 
 7.3642225821874125e-12  7.5727114857472782e-12  7.7878565441248947e-12  8.0099268890718970e-12 
 8.2392063181674997e-12  8.4759942942372901e-12  8.7206070207773680e-12  8.9733785994155495e-12 
 9.2346622759276239e-12  9.5048317818518935e-12  9.7842827793135663e-12  1.0073434417284282e-11 
 1.0372731008166333e-11  1.0682643834308642e-11  1.1003673094837622e-11  1.1336350004024899e-11 
 1.1681239053321009e-11  1.2038940450164524e-11  1.2410092747736563e-11  1.2795375680976694e-11 
 1.3195513225415633e-11  1.3611276896720112e-11  1.4043489310294294e-11  1.4493028021848147e-11 
 1.4960829671537662e-11  1.5447894456112519e-11  1.5955290955487581e-11  1.6484161342295430e-11 
 1.7035727005292850e-11  1.7611294619997132e-11  1.8212262702635729e-11  1.8840128686419671e-11 
 1.9496496562316673e-11  2.0183085129922731e-11  2.0901736907732318e-11  2.1654427756110014e-11 
 2.2443277270594496e-11  2.3270560007846866e-11  2.4138717611616617e-11  2.5050371911572578e-11 
 2.6008339073766183e-11  2.7015644887895715e-11  2.8075541283463645e-11  2.9191524174406973e-11 
 3.0367352739877616e-11  3.1607070257607433e-11  3.2915026615764420e-11  3.4295902639449032e-11 
 3.5754736379060026e-11  3.7296951519740088e-11  3.8928388084072616e-11  4.0655335614217297e-11 
 4.2484569034833557e-11  4.4423387414539338e-11  4.6479655861389098e-11  4.8661850807041044e-11 
 5.0979108955033942e-11  5.3441280191041977e-11  5.6058984777255939e-11  5.8843675179303685e-11 
 6.1807702902533919e-11  6.4964390745221285e-11  6.8328110909496554e-11  7.1914369446771890e-11 
 7.5739897553338904e-11  7.9822750273907224e-11  8.4182413216387635e-11  8.8839917930488037e-11 
 9.3817966655985537e-11  9.9141067204201963e-11  1.0483567879859506e-10  1.1093036976787671e-10 
 1.1745598805809854e-10  1.2444584560916795e-10  1.3193591772675137e-10  1.3996505867304022e-10 
 1.4857523479995825e-10  1.5781177665671098e-10  1.6772365162079805e-10  1.7836375872845216e-10 
 1.8978924751774016e-10  2.0206186284610819e-10  2.1524831780492499e-10  2.2942069702755706e-10 
 2.4465689287582256e-10  2.6104107719346812e-10  2.7866421153590440e-10  2.9762459902418648e-10 
 3.1802848122966203e-10  3.3999068377544630e-10  3.6363531464368385e-10  3.8909651950536557e-10 
 4.1651929874429662e-10  4.4606039123098784e-10  4.7788923031811947e-10  5.1218897797950534e-10 
 5.4915764350198434e-10  5.8900929366750951e-10  6.3197536193424040e-10  6.7830606474430467e-10 
 7.2827193375606206e-10  7.8216547352438631e-10  8.4030295493842893e-10  9.0302635557743072e-10 
 9.7070545906700261e-10  1.0437401265167068e-09  1.1225627542012073e-09  1.2076409328186791e-09 
 1.2994803249290724e-09  1.3986277785494877e-09  1.5056746963730840e-09  1.6212606816914218e-09 
 1.7460774838481916e-09  1.8808732679464177e-09  2.0264572355836452e-09  2.1837046256137139e-09 
 2.3535621263440284e-09  2.5370537331894057e-09  2.7352870886348108e-09  2.9494603444280117e-09 
 3.1808695892496434e-09  3.4309168887141700e-09  3.7011189884645286e-09  3.9931167353617161e-09 
 4.3086852763660599e-09  4.6497450996901068e-09  5.0183739882068074e-09  5.4168199609570779e-09 
 5.8475152849567410e-09  6.3130916463970472e-09  6.8163965778111716e-09  7.3605112458918632e-09 
 7.9487697134469441e-09  8.5847797985291800e-09  9.2724456641394739e-09  1.0015992283147657e-08 
 1.0819991935279572e-08  1.1689392906265464e-08  1.2629550573623682e-08  1.3646261079163384e-08 
 1.4745797805236768e-08  1.5934950890172912e-08  1.7221070038307199e-08  1.8612110901721170e-08 
 2.0116685334377396e-08  2.1744115844937295e-08  2.3504494602362546e-08  2.5408747378621307e-08 
 2.7468702845655331e-08  2.9697167679449293e-08  3.2108007962825836e-08  3.4716237420747355e-08 
 3.7538113067734076e-08  4.0591238896834976e-08  4.3894678293770495e-08  4.7469075918787551e-08 
 5.1336789862856662e-08  5.5522034954555889e-08  6.0051038169832639e-08  6.4952207179362927e-08 
 7.0256313158037767e-08  7.5996689078857284e-08  8.2209444819918299e-08  8.8933700529026965e-08 
 9.6211839816608384e-08  1.0408978448495697e-07  1.1261729265149604e-07  1.2184828228671203e-07 
 1.3184118236502008e-07  1.4265931402033984e-07  1.5437130430907977e-07  1.6705153541314144e-07 
 1.8078063236622202e-07  1.9564599266001718e-07  2.1174236138503349e-07  2.2917245588588025e-07 
 2.4804764426566535e-07  2.6848868246122699e-07  2.9062651503340895e-07  3.1460314527775174e-07 
 3.4057258076447214e-07  3.6870186096640963e-07  3.9917217423410635e-07  4.3218007203316525e-07 
 4.6793878907575751e-07  5.0667967876138355e-07  5.4865377419811218e-07  5.9413348601145557e-07 
 6.4341444917144821e-07  6.9681753218779939e-07  7.5469102324737830e-07  8.1741300920793375e-07 
 8.8539396482803193e-07  9.5907957121785557e-07  1.0389537842524323e-06  1.1255421756126188e-06 
 1.2194155712263382e-06  1.3211940141909016e-06  1.4315510817866220e-06  1.5512185889640336e-06 
 1.6809917137258975e-06  1.8217345831570929e-06  1.9743863625095983e-06  2.1399678937580858e-06 
 2.3195889344394094e-06  2.5144560524154731e-06  2.7258812374964134e-06  2.9552912966770860e-06 
 3.2042381061266675e-06  3.4744098000863255e-06  3.7676429845368387e-06  4.0859360719668934e-06 
 4.4314638428810428e-06  4.8065933499188412e-06  5.2139012917087267e-06  5.6561929959549359e-06 
 6.1365231648687960e-06  6.6582185510341067e-06  7.2249027482801607e-06  7.8405233002808304e-06 
 8.5093813495751983e-06  9.2361640717042693e-06  1.0025980163388868e-05  1.0884398680367599e-05 
 1.1817491549926926e-05  1.2831880115571723e-05  1.3934786107016925e-05  1.5134087468076525e-05 
 1.6438379518467909e-05  1.7857041973462356e-05  1.9400312398165778e-05  2.1079366731525406e-05 
 2.2906407579505554e-05  2.4894761047891471e-05  2.7058982963570380e-05  2.9414975419679953e-05 
 3.1980114675569214e-05  3.4773391548036697e-05  3.7815565546850402e-05  4.1129334136280173e-05 
 4.4739518646574174e-05  4.8673268516415571e-05  5.2960285720978860e-05  5.7633071432014860e-05 
 6.2727197168353541e-05  6.8281602929461558e-05  7.4338925063576283e-05  8.0945856908066089e-05 
 8.8153545555912750e-05  9.6018028451740544e-05  1.0460071390714390e-04  1.1396891005203928e-04 
 1.2419640721066067e-04  1.3536411921231733e-04  1.4756078972332035e-04  1.6088377032324674e-04 
 1.7543987775222930e-04  1.9134633853310794e-04  2.0873183003065839e-04  2.2773762795800964e-04 
 2.4851887138692538e-04  2.7124595747383913e-04  2.9610607938834819e-04  3.2330492233727698e-04 
 3.5306853412847377e-04  3.8564538842849781e-04  4.2130866075283706e-04  4.6035873930314454e-04 
 5.0312599505162475e-04  5.4997383798798807e-04  6.0130208921088299e-04  6.5755070158666248e-04 
 7.1920386503875056e-04  7.8679453619763225e-04  8.6090943616337905e-04  9.4219456454031764e-04 
 1.0313612827296222e-03  1.1291930247448007e-03  1.2365526995836702e-03  1.3543908554866416e-03 
 1.4837546832747058e-03  1.6257979434325122e-03  1.7817919097245939e-03  1.9531374309486901e-03 
 2.1413782219824608e-03  2.3482155056105745e-03  2.5755241377696226e-03  2.8253703608567471e-03 
 3.1000313426496427e-03  3.4020166722105796e-03  3.7340919989187911e-03  4.0993050165086999e-03 
 4.5010140106896603e-03  4.9429192065764509e-03  5.4290971707416855e-03  5.9640385421650798e-03 
 6.5526893866283565e-03  7.2004964900893153e-03  7.9134569281299316e-03  8.6981722705390362e-03 
 9.5619078022419618e-03  1.0512657163857790e-02  1.1559212836821688e-02  1.2711242918859486e-02 
 1.3979374655177733e-02  1.5375285208483453e-02  1.6911800166234690e-02  1.8603000295609032e-02 
 2.0464337064720433e-02  2.2512757451662011e-02  2.4766838559934560e-02  2.7246932548546321e-02 
 2.9975322366225153e-02  3.2976388750334415e-02  3.6276788910670391e-02  3.9905647264674077e-02 
 4.3894758521938367e-02  4.8278803330368353e-02  5.3095576592020889e-02  5.8386228431513365e-02 
 6.4195517651934042e-02  7.0572077340364400e-02  7.7568692085435903e-02  8.5242586040794266e-02 
 9.3655720809012410e-02  1.0287510182849648e-01  1.1297309161943994e-01  1.2402772788209689e-01 
 1.3612304403974756e-01  1.4934938937783845e-01  1.6380374544788401e-01  1.7959003487762060e-01 
 1.9681941815517418e-01  2.1561057333200070e-01  2.3608995291430140e-01  2.5839201148285001e-01 
 2.8265939679456509e-01  3.0904309627481086e-01  3.3770252990865057e-01  3.6880557958696286e-01 
 4.0252854396976795e-01  4.3905600691190827e-01  4.7858060648294531e-01  5.2130269064368773e-01 
 5.6742984477096337e-01  6.1717627552190346e-01  6.7076203508927978e-01  7.2841206982879481e-01 
 7.9035507766265289e-01  8.5682215971776565e-01  9.2804525348150957e-01  1.0042553374831744e+00 
 1.0856804012373233e+00  1.1725431789675782e+00  1.2650586514402058e+00  1.3634313269496405e+00 
 1.4678523198692393e+00  1.5784962528527435e+00  1.6955180163039225e+00  1.8190494256596503e+00 
 1.9491958229546178e+00  2.0860326738079924e+00  2.2296022143673806e+00  2.3799102050652721e+00 
 2.5369228496490521e+00  2.7005639392234722e+00  2.8707122822366533e+00  3.0471994823973176e+00 
 3.2298081270025887e+00  3.4182704472666319e+00  3.6122675088396479e+00  3.8114289834821911e+00 
 4.0153335405155746e+00  4.2235098782086018e+00  4.4354383903852659e+00  4.6505534331593159e+00 
 4.8682461234799739e+00  5.0878675698397782e+00  5.3087324126182196e+00  5.5301225443685631e+00 
 5.7512908947238701e+00  5.9714652022746950e+00  6.1898517524316539e+00  6.4056391252894889e+00 
 6.6180020561814672e+00  6.8261055495053622e+00  7.0291093938415070e+00  7.2261732257190570e+00 
 7.4164623664944678e+00  7.5991536002298155e+00  7.7734419005916440e+00  7.9385480975209539e+00 
 8.0937260886984195e+00  8.2382702606956197e+00  8.3715227715060436e+00  8.4928804765837995e+00 
 8.6018013269662816e+00  8.6978100953149760e+00  8.7805033152537284e+00  8.8495533483656352e+00 
 8.9047115199491778e+00  8.9458102884237718e+00  8.9727644340793269e+00  8.9855712710177187e+00 
 8.9843099021013657e+00  8.9691395509424190e+00  8.9402970177580627e+00  8.8980933174685219e+00 
 8.8429095687777366e+00  8.7751922121062478e+00  8.6954476420290181e+00  8.6042363461644804e+00 
 8.5021666471220492e+00  8.3898881470220523e+00  8.2680849751735099e+00  8.1374689387010903e+00 
 7.9987726732777258e+00  7.8527428867269276e+00  7.7001337822452260e+00  7.5417007405458971e+00 
 7.3781943315663039e+00  7.2103547167693129e+00  7.0389064927815310e+00  6.8645540164330461e+00 
 6.6879772404795688e+00  6.5098280786681562e+00  6.3307273085952076e+00  6.1512620090959551e+00 
 5.9719835295170469e+00  5.7934059703971581e+00  5.6160051346353050e+00  5.4402179472495984e+00 
 5.2664422922409901e+00  5.0950372330276057e+00  4.9263235769982536e+00  4.7605847436678008e+00 
 4.5980678958098800e+00  4.4389852936672307e+00  4.2835158337677059e+00  4.1318067358730328e+00 
 3.9839753440256160e+00  3.8401110104080787e+00  3.7002770336714366e+00  3.5645126264122808e+00 
 3.4328348894929706e+00  3.3052407738224074e+00  3.1817090129858059e+00  3.0622020126826062e+00 
 2.9466676852717426e+00  2.8350412198151806e+00  2.7272467798498967e+00  2.6231991227119025e+00 
 2.5228051355983916e+00  2.4259652847075506e+00  2.3325749747660280e+00  2.2425258170701556e+00 
 2.1557068048576884e+00  2.0720053954204474e+00  1.9913084988904703e+00  1.9135033741058707e+00 
 1.8384784324061842e+00  1.7661239506349404e+00  1.6963326950495934e+00  1.6290004582613480e+00 
 1.5640265117518446e+00  1.5013139769381509e+00  1.4407701181780579e+00  1.3823065615173706e+00 
 1.3258394433720504e+00  1.2712894937019354e+00  1.2185820585607101e+00  1.1676470671904768e+00 
 1.1184189490614300e+00  1.0708365064316658e+00  1.0248427481143016e+00  9.8038469018592911e-01 
 9.3741312935012500e-01  8.9588239458169361e-01  8.5575008190880597e-01  8.1697678072960689e-01 
 7.7952579032627956e-01  7.4336283760023836e-01  7.0845579712740658e-01  6.7477441804751725e-01 
 6.4229006122301058e-01  6.1097544963490180e-01  5.8080443450156971e-01  5.5175177912014184e-01 
 5.2379296194796310e-01  4.9690399997249241e-01  4.7106129297028521e-01  4.4624148883708170e-01 
 4.2242136978799816e-01  3.9957775888473956e-01  3.7768744604963267e-01  3.5672713242039611e-01 
 3.3667339203054369e-01  3.1750264881378876e-01  2.9919116793727640e-01  2.8171505956308018e-01 
 2.6505029345198305e-01  2.4917272277609243e-01  2.3405811554789124e-01  2.1968219213976048e-01 
 2.0602066745509307e-01  1.9304929641517787e-01  1.8074392150538643e-01  1.6908052145184502e-01 
 1.5803525971083421e-01  1.4758453226645779e-01  1.3770501383665815e-01  1.2837370191726141e-01 
 1.1956795817115816e-01  1.1126554677625278e-01  1.0344466944412482e-01  9.6083996911020514e-02 
 8.9162696783564907e-02  8.2660457693386410e-02  7.6557509777785748e-02  7.0834641557875763e-02 
 6.5473213331630087e-02  6.0455167237387898e-02  5.5763034174033450e-02  5.1379937787784880e-02 
 4.7289595752787426e-02  4.3476318584031247e-02  3.9925006227022213e-02  3.6621142669660663e-02 
 3.3550788818460228e-02  3.0700573874109502e-02  2.8057685430989479e-02  2.5609858512156084e-02 
 2.3345363736029343e-02  2.1252994794135616e-02  1.9322055401258059e-02  1.7542345860764422e-02 
 1.5904149369181338e-02  1.4398218165699856e-02  1.3015759614626615e-02  1.1748422292166492e-02 
 1.0588282133616629e-02  9.5278286832811612e-03  8.5599514773290215e-03  7.6779265795031450e-03 
 6.8754032810746761e-03  6.1463909696942596e-03  5.4852461667500062e-03  4.8866597293833322e-03 
 4.3456442112928062e-03  3.8575213757014440e-03  3.4179098541880669e-03  3.0227129462936210e-03 
 2.6681065567123147e-03  2.3505272692744316e-03  2.0666605596409557e-03  1.8134291514925543e-03 
 1.5879815238570999e-03  1.3876805799497933e-03  1.2100924903880629e-03  1.0529757258012241e-03 
 9.1427029561441762e-04  7.9208721110077404e-04  6.8469819163718547e-04  5.9052563345751480e-04 
 5.0813286007876494e-04  4.3621467300061892e-04  3.7358822027897269e-04  3.1918419919118603e-04 
 2.7203840749404377e-04  2.3128365577929216e-04  1.9614205121398496e-04  1.6591766057271487e-04 
 1.3998955798585888e-04  1.1780526029759748e-04  9.8874550405331029e-05  8.2763686486453031e-05 
 6.9089992654071506e-05  5.7516824358605192e-05  4.7748899799506827e-05  3.9527986756498427e-05 
 3.2628932612008256e-05  2.6856023929018972e-05  2.2039660778308752e-05  1.8033330077551827e-05 
 1.4710861508348455e-05  1.1963949107919441e-05  9.6999213781511093e-06  7.8397427008478444e-06 
 6.3162289771640349e-06  5.0724607020126099e-06  4.0603771205058643e-06  3.2395356723135062e-06 
 2.5760215903895976e-06  2.0414932623425695e-06  1.6123497662954581e-06  1.2690078399703277e-06 
 9.9527641497760013e-07  7.7781773254291873e-07  6.0568493856932660e-07  4.6992692317185031e-07 
 3.6325201267676373e-07  2.7974293231155935e-07  2.1461622891823973e-07  1.6402007008733076e-07 
 1.2486501568905540e-07  9.4682987752794795e-08  7.1510244067721814e-08  5.3790689809107548e-08 
 4.0296340849908043e-08  3.0062183808705914e-08  2.2333063476429440e-08  1.6520570636469948e-08 
 1.2168205320622075e-08  8.9233552866885139e-09  6.5148601109972008e-09  4.7351309306199427e-09 
 3.4259676329729714e-09  2.4673621926317645e-09  1.7687017297112496e-09  1.2618903857295570e-09 
 8.9599775118128217e-10  6.3311559522418456e-10  4.4516608948656086e-10  3.1145542078375094e-10 
 2.1680828189710310e-10  1.5015265054763716e-10  1.0345176641155421e-10  7.0902378141181389e-11 
 4.8336086450322864e-11  3.2774747603847767e-11  2.2102092860088461e-11  1.4822524549652043e-11 
 9.8849352962041633e-12  6.5547489357133742e-12  4.3215160846969217e-12  2.8325713442457563e-12 
 1.8456807149690011e-12  1.1954437279814939e-12  7.6959790728614265e-13  4.9240863498373631e-13 
 3.1309777429168780e-13  1.9782950221216519e-13  1.2420026566002958e-13  7.7470710245996575e-14 
 4.8006359647866964e-14  2.9550739247126440e-14  1.8067918922773270e-14  1.0971833105280863e-14 
 6.6167132016236260e-15  3.9623937277378051e-15  2.3560516861750128e-15  1.3908587153275271e-15 
 8.1509992479404951e-16  4.7416162965202073e-16  2.7377086009301849e-16  1.5687375535268089e-16 
 8.9201484306861490e-17  5.0327864389956099e-17  2.8171823018994020e-17  1.5643947134950356e-17 
 8.6170213359148232e-18  4.7076230798028746e-18  2.5505519873141903e-18  1.3702808963029074e-18 
 7.2993592334939435e-19  3.8549663328398937e-19  2.0127329845786383e-19  1.0447417412068661e-19 
 5.3757046742696123e-20  2.7424090140468169e-20  1.3876733718386017e-20  6.9717006383277682e-21 
 3.4853298206140515e-21  0.0000000000000000e+00  0.0000000000000000e+00  0.0000000000000000e+00 
 0.0000000000000000e+00  0.0000000000000000e+00  0.0000000000000000e+00  0.0000000000000000e+00 
 0.0000000000000000e+00  0.0000000000000000e+00  0.0000000000000000e+00  0.0000000000000000e+00 
 0.0000000000000000e+00  0.0000000000000000e+00  0.0000000000000000e+00  0.0000000000000000e+00 
 0.0000000000000000e+00  0.0000000000000000e+00  0.0000000000000000e+00  0.0000000000000000e+00 
 0.0000000000000000e+00  0.0000000000000000e+00  0.0000000000000000e+00  0.0000000000000000e+00 
 0.0000000000000000e+00  0.0000000000000000e+00  0.0000000000000000e+00  0.0000000000000000e+00 
 0.0000000000000000e+00  0.0000000000000000e+00  0.0000000000000000e+00  0.0000000000000000e+00 
 0.0000000000000000e+00  0.0000000000000000e+00  0.0000000000000000e+00  0.0000000000000000e+00 
 0.0000000000000000e+00  0.0000000000000000e+00  0.0000000000000000e+00  0.0000000000000000e+00 
 0.0000000000000000e+00  0.0000000000000000e+00  0.0000000000000000e+00  0.0000000000000000e+00 
 0.0000000000000000e+00  0.0000000000000000e+00  0.0000000000000000e+00  0.0000000000000000e+00 
 0.0000000000000000e+00  0.0000000000000000e+00  0.0000000000000000e+00  0.0000000000000000e+00 
 0.0000000000000000e+00  0.0000000000000000e+00  0.0000000000000000e+00  0.0000000000000000e+00 
 0.0000000000000000e+00  0.0000000000000000e+00  0.0000000000000000e+00  0.0000000000000000e+00 
 0.0000000000000000e+00  0.0000000000000000e+00  0.0000000000000000e+00  0.0000000000000000e+00 
 0.0000000000000000e+00  0.0000000000000000e+00  0.0000000000000000e+00  0.0000000000000000e+00 
 0.0000000000000000e+00  0.0000000000000000e+00  0.0000000000000000e+00  0.0000000000000000e+00 
 0.0000000000000000e+00  0.0000000000000000e+00  0.0000000000000000e+00  0.0000000000000000e+00 
 0.0000000000000000e+00  0.0000000000000000e+00  0.0000000000000000e+00  0.0000000000000000e+00 
 0.0000000000000000e+00  0.0000000000000000e+00  0.0000000000000000e+00  0.0000000000000000e+00 
 0.0000000000000000e+00  0.0000000000000000e+00  0.0000000000000000e+00  0.0000000000000000e+00 
 0.0000000000000000e+00 
</PP_RHOATOM>


<PP_ADDINFO>
 6S  6  0   0.50  1.00 
 6P  6  1   0.50  0.17 
 6P  6  1   1.50  0.33 
 5D  5  2   1.50  3.80 
 5D  5  2   2.50  5.70 
  1   0.50 
  1   1.50 
  2   1.50 
  2   2.50 
 -6.28898928,  118.27164833,   80.00000000,    0.01300000 
</PP_ADDINFO>
