  <PP_INFO>

############################################################
#    Opium Parameter File                                  #
############################################################
#-----------------------------------------------------------
#Command line   : opium Tl Tl.log ae ps nl tc2 ke upf qmcpack rpt 
 
#Opium version  : 4.1 
#Compile Host   : py-garuda.cos.ncsu.edu 
#Compile OS     : Linux 5.15.0-113-generic x86_64 
#Compile Date   : Sat Jul 13 02:11:52 EDT 2024 
#-----------------------------------------------------------
#Execution Host : Gwaihir 
#Execution Date : Wed Apr  8 11:32:19 2026
 
#-----------------------------------------------------------
############################################################
[Atom]
Tl
15
100   2.00  -
200   2.00  -
210   6.00  -
300   2.00  -
310   6.00  -
320   10.00  -
400   2.00  -
410   6.00  -
420   10.00  -
430   14.00  -
500   2.00  -
510   6.00  -
520   9.50  -
600   1.50  -
610   0.50  -

[Pseudo]
3 -1 -1 -1
g

[Gaussinfo]
13 5
2 2 2 2 4
2 3.9402780 62.6534924  
2 1.6219532 38.0999013
2 2.7176799 55.8070418
2 1.0618053 17.0209069
2 7.0190220 69.6015582
2 2.0843420 -4.9507776
2 6.1957061 31.7261100
2 0.6235521 -0.3333534
1 3.0075250 13.0
3 2.9861954 39.09782500
2 2.2847162 -6.9653015
2 1.7923131 -14.9372952

[KBdesign]
s

[Relativity]
nrl

[XC]
pbe

[Configs]
13

520  10.00 -
600  2.00 -
610  1.00 -

520  10.00 -
600  1.00 -
610  2.00 -

520  10.00 -
600  2.00 -
610  0.00 -

520  10.00 -
600  1.00 -
610  1.00 -

520  10.00 -
600  0.00 -
610  2.00 -

520  10.00 -
600  1.00 -
610  0.00 -

520  9.00 -
600  2.00 -
610  0.00 -

520  10.00 -
600  0.00 -
610  1.00 -

520  9.00 -
600  0.00 -
610  2.00 -

520  10.00 -
600  0.00 -
610  0.00 -

520  9.00 -
600  1.00 -
610  0.00 -

520  9.00 -
600  0.00 -
610  1.00 -

520  9.00 -
600  0.00 -
610  0.00 -
############################################################
  </PP_INFO>



<PP_HEADER>
   0         Version Number
   Tl        Element
   NC        Norm - Conserving pseudopotential
    F      Nonlinear Core Correction
SLA  PW   PBE  PBE     PBE  Exchange-Correlation functional
 13          Z valence
 0          Total energy
 0.000000   0.000000     Suggested cutoff for wfc and rho
 2           Max angular momentum component
 1189           Number of points in mesh
 3  2     Number of Wavefuncitons, Number of Projectors
 Wavefunctions         nl  l   occ
                      6S  0  1.500000
                      6P  1  0.500000
                      5D  2  9.500000
</PP_HEADER>
<PP_MESH>
  <PP_R>
 2.3112042478354488e-05  2.3414460488598028e-05  2.3720835598392826e-05  2.4031219585861634e-05 
 2.4345664906637075e-05  2.4664224702726803e-05  2.4986952811494510e-05  2.5313903774758726e-05 
 2.5645132848010410e-05  2.5980696009751310e-05  2.6320649970954424e-05  2.6665052184648326e-05 
 2.7013960855626835e-05  2.7367434950285787e-05  2.7725534206588507e-05  2.8088319144161564e-05 
 2.8455851074522903e-05  2.8828192111443519e-05  2.9205405181444849e-05  2.9587554034433531e-05 
 2.9974703254475282e-05  3.0366918270709726e-05  3.0764265368408128e-05  3.1166811700175742e-05 
 3.1574625297300686e-05  3.1987775081251538e-05  3.2406330875325119e-05  3.2830363416446834e-05 
 3.3259944367125367e-05  3.3695146327563830e-05  3.4136042847929360e-05  3.4582708440783273e-05 
 3.5035218593673902e-05  3.5493649781894043e-05  3.5958079481405639e-05  3.6428586181933306e-05 
 3.6905249400229282e-05  3.7388149693511949e-05  3.7877368673080241e-05  3.8372989018106078e-05 
 3.8875094489607405e-05  3.9383769944604003e-05  3.9899101350458379e-05  4.0421175799404708e-05 
 4.0950081523267445e-05  4.1485907908372764e-05  4.2028745510655072e-05  4.2578686070961162e-05 
 4.3135822530554639e-05  4.3700249046823256e-05  4.4272061009191553e-05  4.4851355055242200e-05 
 4.5438229087047747e-05  4.6032782287716386e-05  4.6635115138154121e-05  4.7245329434046292e-05 
 4.7863528303061270e-05  4.8489816222279296e-05  4.9124299035849338e-05  4.9767083972877066e-05 
 5.0418279665546639e-05  5.1077996167480074e-05  5.1746344972336391e-05  5.2423439032654337e-05 
 5.3109392778941651e-05  5.3804322139014108e-05  5.4508344557587534e-05  5.5221579016126399e-05 
 5.5944146052951625e-05  5.6676167783612271e-05  5.7417767921523126e-05  5.8169071798872564e-05 
 5.8930206387804010e-05  5.9701300321874597e-05  6.0482483917794462e-05  6.1273889197450583e-05 
 6.2075649910218867e-05  6.2887901555568016e-05  6.3710781405959413e-05  6.4544428530046176e-05 
 6.5388983816176506e-05  6.6244589996203882e-05  6.7111391669609141e-05  6.7989535327938176e-05 
 6.8879169379559304e-05  6.9780444174744714e-05  7.0693512031079803e-05  7.1618527259205552e-05 
 7.2555646188897136e-05  7.3505027195484087e-05  7.4466830726616147e-05  7.5441219329379269e-05 
 7.6428357677766468e-05  7.7428412600508086e-05  7.8441553109266304e-05  7.9467950427198467e-05 
 8.0507778017894311e-05  8.1561211614691401e-05  8.2628429250374959e-05  8.3709611287265497e-05 
 8.4804940447700533e-05  8.5914601844915204e-05  8.7038783014326720e-05  8.8177673945228461e-05 
 8.9331467112898263e-05  9.0500357511127694e-05  9.1684542685176092e-05  9.2884222765156379e-05 
 9.4099600499857394e-05  9.5330881291009066e-05  9.6578273227995617e-05  9.7841987123023323e-05 
 9.9122236546748258e-05  1.0041923786437006e-04  1.0173321027219856e-04  1.0306437583469782e-04 
 1.0441295952201636e-04  1.0577918924800707e-04  1.0716329590874537e-04  1.0856551342155127e-04 
 1.0998607876452184e-04  1.1142523201658124e-04  1.1288321639805412e-04  1.1436027831177130e-04 
 1.1585666738471167e-04  1.1737263651019015e-04  1.1890844189059705e-04  1.2046434308069708e-04 
 1.2204060303149453e-04  1.2363748813467275e-04  1.2525526826761492e-04  1.2689421683901396e-04 
 1.2855461083507942e-04  1.3023673086634831e-04  1.3194086121510960e-04  1.3366728988344829e-04 
 1.3541630864191838e-04  1.3718821307885285e-04  1.3898330265031886e-04  1.4080188073072660e-04 
 1.4264425466409980e-04  1.4451073581601840e-04  1.4640163962623939e-04  1.4831728566200731e-04 
 1.5025799767206158e-04  1.5222410364135099e-04  1.5421593584646391e-04  1.5623383091178369e-04 
 1.5827812986637924e-04  1.6034917820163946e-04  1.6244732592966241e-04  1.6457292764240772e-04 
 1.6672634257162408e-04  1.6890793464955988e-04  1.7111807257046865e-04  1.7335712985291958e-04 
 1.7562548490292223e-04  1.7792352107787908e-04  1.8025162675137333e-04  1.8261019537880487e-04 
 1.8499962556388537e-04  1.8742032112600311e-04  1.8987269116846971e-04  1.9235715014765911e-04 
 1.9487411794305213e-04  1.9742401992819676e-04  2.0000728704259749e-04  2.0262435586454515e-04 
 2.0527566868489946e-04  2.0796167358183768e-04  2.1068282449657991e-04  2.1343958131010758e-04 
 2.1623240992088352e-04  2.1906178232359032e-04  2.2192817668889787e-04  2.2483207744427639e-04 
 2.2777397535586496e-04  2.3075436761141286e-04  2.3377375790430496e-04  2.3683265651868685e-04 
 2.3993158041570511e-04  2.4307105332087395e-04  2.4625160581258679e-04  2.4947377541178448e-04 
 2.5273810667279843e-04  2.5604515127538132e-04  2.5939546811794192e-04  2.6278962341200088e-04 
 2.6622819077788110e-04  2.6971175134165161e-04  2.7324089383333889e-04  2.7681621468642395e-04 
 2.8043831813864020e-04  2.8410781633409231e-04  2.8782532942670886e-04  2.9159148568505067e-04 
 2.9540692159848937e-04  2.9927228198477511e-04  3.0318822009901326e-04  3.0715539774406548e-04 
 3.1117448538239611e-04  3.1524616224938156e-04  3.1937111646810360e-04  3.2355004516564285e-04 
 3.2778365459089554e-04  3.3207266023393099e-04  3.3641778694691094e-04  3.4081976906659173e-04 
 3.4527935053842889e-04  3.4979728504230535e-04  3.5437433611990531e-04  3.5901127730375462e-04 
 3.6370889224794986e-04  3.6846797486059739e-04  3.7328932943798591e-04  3.7817377080051401e-04 
 3.8312212443039764e-04  3.8813522661117764e-04  3.9321392456905446e-04  3.9835907661607052e-04 
 4.0357155229516780e-04  4.0885223252714237e-04  4.1420200975952182e-04  4.1962178811739162e-04 
 4.2511248355619368e-04  4.3067502401652547e-04  4.3631034958096425e-04  4.4201941263294326e-04 
 4.4780317801770608e-04  4.5366262320536873e-04  4.5959873845611399e-04  4.6561252698754785e-04 
 4.7170500514424560e-04  4.7787720256951610e-04  4.8413016237941486e-04  4.9046494133903236e-04 
 4.9688261004109027e-04  5.0338425308687367e-04  5.0997096926953193e-04  5.1664387175977700e-04 
 5.2340408829401196e-04  5.3025276136492113e-04  5.3719104841455363e-04  5.4422012202993476e-04 
 5.5134117014123563e-04  5.5855539622253587e-04  5.6586401949521329e-04  5.7326827513399657e-04 
 5.8076941447571153e-04  5.8836870523076010e-04  5.9606743169736745e-04  6.0386689497862961e-04 
 6.1176841320240464e-04  6.1977332174407897e-04  6.2788297345224878e-04  6.3609873887735403e-04 
 6.4442200650330600e-04  6.5285418298214378e-04  6.6139669337176167e-04  6.7005098137674771e-04 
 6.7881850959237229e-04  6.8770075975177177e-04  6.9669923297636363e-04  7.0581545002954037e-04 
 7.1505095157368092e-04  7.2440729843052773e-04  7.3388607184496878e-04  7.4348887375227154e-04 
 7.5321732704881417e-04  7.6307307586635776e-04  7.7305778584991071e-04  7.8317314443922433e-04 
 7.9342086115397655e-04  8.0380266788268183e-04  8.1432031917538729e-04  8.2497559254019468e-04 
 8.3577028874366299e-04  8.4670623211514353e-04  8.5778527085509379e-04  8.6900927734743063e-04 
 8.8038014847596530e-04  8.9189980594498277e-04  9.0357019660401217e-04  9.1539329277685248e-04 
 9.2737109259489635e-04  9.3950562033482169e-04  9.5179892676069847e-04  9.6425308947057080e-04 
 9.7687021324757923e-04  9.8965243041567222e-04  1.0026019011999746e-03  1.0157208140918685e-03 
 1.0290113862188579e-03  1.0424758637192649e-03  1.0561165221218338e-03  1.0699356667303013e-03 
 1.0839356330129963e-03  1.0981187869975419e-03  1.1124875256707193e-03  1.1270442773835632e-03 
 1.1417915022617589e-03  1.1567316926214112e-03  1.1718673733902500e-03  1.1872011025343490e-03 
 1.2027354714904306e-03  1.2184731056038203e-03  1.2344166645721409e-03  1.2505688428948052e-03 
 1.2669323703283937e-03  1.2835100123479892e-03  1.3003045706145508e-03  1.3173188834483956e-03 
 1.3345558263088897e-03  1.3520183122804018e-03  1.3697092925646238e-03  1.3876317569793298e-03 
 1.4057887344636631e-03  1.4241832935900339e-03  1.4428185430827157e-03  1.4616976323432271e-03 
 1.4808237519825852e-03  1.5002001343605322e-03  1.5198300541318073e-03  1.5397168287995735e-03 
 1.5598638192760820e-03  1.5802744304506747e-03  1.6009521117652194e-03  1.6219003577970733e-03 
 1.6431227088496763e-03  1.6646227515508649e-03  1.6864041194590280e-03  1.7084704936771852e-03 
 1.7308256034750987e-03  1.7534732269195317e-03  1.7764171915127501e-03  1.7996613748393791e-03 
 1.8232097052217238e-03  1.8470661623836684e-03  1.8712347781232501e-03  1.8957196369940546e-03 
 1.9205248769955073e-03  1.9456546902722070e-03  1.9711133238224090e-03  1.9969050802157778e-03 
 2.0230343183205300e-03  2.0495054540400960e-03  2.0763229610594176e-03  2.1034913716010063e-03 
 2.1310152771909082e-03  2.1588993294346780e-03  2.1871482408035115e-03  2.2157667854306655e-03 
 2.2447597999182959e-03  2.2741321841548584e-03  2.3038889021431974e-03  2.3340349828394795e-03 
 2.3645755210030882e-03  2.3955156780576647e-03  2.4268606829633927e-03  2.4586158331007042e-03 
 2.4907864951655531e-03  2.5233781060763983e-03  2.5563961738930543e-03  2.5898462787475682e-03 
 2.6237340737872775e-03  2.6580652861301957e-03  2.6928457178329221e-03  2.7280812468711956e-03 
 2.7637778281332879e-03  2.7999414944263929e-03  2.8365783574961878e-03  2.8736946090597306e-03 
 2.9112965218518754e-03  2.9493904506853832e-03  2.9879828335248890e-03  3.0270801925749487e-03 
 3.0666891353822970e-03  3.1068163559525418e-03  3.1474686358814665e-03  3.1886528455011345e-03 
 3.2303759450409949e-03  3.2726449858041739e-03  3.3154671113591687e-03  3.3588495587471121e-03 
 3.4027996597048721e-03  3.4473248419041136e-03  3.4924326302066028e-03  3.5381306479359258e-03 
 3.5844266181658431e-03  3.6313283650255112e-03  3.6788438150217829e-03  3.7269809983787997e-03 
 3.7757480503951154e-03  3.8251532128185930e-03  3.8752048352392720e-03  3.9259113765004686e-03 
 3.9772814061283428e-03  4.0293236057801661e-03  4.0820467707115482e-03  4.1354598112628453e-03 
 4.1895717543650440e-03  4.2443917450653134e-03  4.2999290480725616e-03  4.3561930493231813e-03 
 4.4131932575672975e-03  4.4709393059757692e-03  4.5294409537682189e-03  4.5887080878623627e-03 
 4.6487507245449242e-03  4.7095790111644151e-03  4.7712032278460423e-03  4.8336337892291008e-03 
 4.8968812462270549e-03  4.9609562878106727e-03  5.0258697428144858e-03  5.0916325817668903e-03 
 5.1582559187441932e-03  5.2257510132489105e-03  5.2941292721126647e-03  5.3634022514239422e-03 
 5.4335816584811254e-03  5.5046793537710421e-03  5.5767073529734154e-03  5.6496778289915443e-03 
 5.7236031140095534e-03  5.7984957015765580e-03  5.8743682487181099e-03  5.9512335780752658e-03 
 6.0291046800716227e-03  6.1079947151087633e-03  6.1879170157903771e-03  6.2688850891754987e-03 
 6.3509126190612461e-03  6.4340134682953996e-03  6.5182016811192690e-03  6.6034914855412005e-03 
 6.6898972957411410e-03  6.7774337145066589e-03  6.8661155357008768e-03  6.9559577467626470e-03 
 7.0469755312394730e-03  7.1391842713535610e-03  7.2325995506014578e-03  7.3272371563876922e-03 
 7.4231130826928901e-03  7.5202435327767969e-03  7.6186449219166428e-03  7.7183338801814052e-03 
 7.8193272552422987e-03  7.9216421152200848e-03  8.0252957515696156e-03  8.1303056820021431e-03 
 8.2366896534458427e-03  8.3444656450450926e-03  8.4536518711989996e-03  8.5642667846396407e-03 
 8.6763290795506681e-03  8.7898576947266441e-03  8.9048718167737389e-03  9.0213908833523242e-03 
 9.1394345864619798e-03  9.2590228757694869e-03  9.3801759619803679e-03  9.5029143202545602e-03 
 9.6272586936667209e-03  9.7532300967119179e-03  9.8808498188570921e-03  1.0010139428139029e-02 
 1.0141120774809423e-02  1.0273815995027608e-02  1.0408247514601629e-02  1.0544438052778255e-02 
 1.0682410626082590e-02  1.0822188552207896e-02  1.0963795453956380e-02  1.1107255263231476e-02 
 1.1252592225082403e-02  1.1399830901801623e-02  1.1548996177075950e-02  1.1700113260191932e-02 
 1.1853207690296286e-02  1.2008305340712093e-02  1.2165432423311397e-02  1.2324615492945145e-02 
 1.2485881451930981e-02  1.2649257554599799e-02  1.2814771411901798e-02  1.2982450996072807e-02 
 1.3152324645361643e-02  1.3324421068819347e-02  1.3498769351151104e-02  1.3675398957631573e-02 
 1.3854339739084653e-02  1.4035621936928307e-02  1.4219276188285439e-02  1.4405333531161645e-02 
 1.4593825409690704e-02  1.4784783679448719e-02  1.4978240612837776e-02  1.5174228904540076e-02 
 1.5372781677043364e-02  1.5573932486238781e-02  1.5777715327091837e-02  1.5984164639387659e-02 
 1.6193315313551396e-02  1.6405202696544781e-02  1.6619862597839853e-02  1.6837331295470839e-02 
 1.7057645542165253e-02  1.7280842571555124e-02  1.7506960104469664e-02  1.7736036355310115e-02 
 1.7968110038508098e-02  1.8203220375068430e-02  1.8441407099197577e-02  1.8682710465018820e-02 
 1.8927171253375306e-02  1.9174830778722132e-02  1.9425730896108492e-02  1.9679914008251420e-02 
 1.9937423072701833e-02  2.0198301609104536e-02  2.0462593706553085e-02  2.0730344031040997e-02 
 2.1001597833010380e-02  2.1276400954999372e-02  2.1554799839389675e-02  2.1836841536255321e-02 
 2.2122573711314389e-02  2.2412044653984536e-02  2.2705303285544043e-02  2.3002399167399625e-02 
 2.3303382509462432e-02  2.3608304178633643e-02  2.3917215707401088e-02  2.4230169302548392e-02 
 2.4547217853977957e-02  2.4868414943649594e-02  2.5193814854635944e-02  2.5523472580296441e-02 
 2.5857443833571345e-02  2.6195785056397341e-02  2.6538553429246364e-02  2.6885806880789259e-02 
 2.7237604097685855e-02  2.7594004534503065e-02  2.7955068423763007e-02  2.8320856786122336e-02 
 2.8691431440684895e-02  2.9066855015449308e-02  2.9447190957893266e-02  2.9832503545696262e-02 
 3.0222857897602737e-02  3.0618319984427253e-02  3.1018956640203675e-02  3.1424835573480407e-02 
 3.1836025378763205e-02  3.2252595548107839e-02  3.2674616482864398e-02  3.3102159505575310e-02 
 3.3535296872029004e-02  3.3974101783471322e-02  3.4418648398976730e-02  3.4869011847981239e-02 
 3.5325268242979692e-02  3.5787494692388754e-02  3.6255769313578531e-02  3.6730171246074542e-02 
 3.7210780664932497e-02  3.7697678794288085e-02  3.8190947921084031e-02  3.8690671408976827e-02 
 3.9196933712425247e-02  3.9709820390963560e-02  4.0229418123661161e-02  4.0755814723771565e-02 
 4.1289099153573067e-02  4.1829361539403580e-02  4.2376693186892168e-02  4.2931186596389975e-02 
 4.3492935478602994e-02  4.4062034770429248e-02  4.4638580651003609e-02  4.5222670557952128e-02 
 4.5814403203859273e-02  4.6413878592950583e-02  4.7021198037993622e-02  4.7636464177420082e-02 
 4.8259780992671919e-02  4.8891253825774507e-02  4.9530989397139534e-02  5.0179095823601208e-02 
 5.0835682636688181e-02  5.1500860801134592e-02  5.2174742733633421e-02  5.2857442321835181e-02 
 5.3549074943595149e-02  5.4249757486472566e-02  5.4959608367484918e-02  5.5678747553120508e-02 
 5.6407296579613388e-02  5.7145378573483042e-02  5.7893118272343135e-02  5.8650642045982485e-02 
 5.9418077917721801e-02  6.0195555586049998e-02  6.0983206446543474e-02  6.1781163614072397e-02 
 6.2589561945297204e-02  6.3408538061459963e-02  6.4238230371473581e-02  6.5078779095313163e-02 
 6.5930326287713656e-02  6.6793015862177313e-02  6.7666993615295531e-02  6.8552407251388725e-02 
 6.9449406407468758e-02  7.0358142678527955e-02  7.1278769643159018e-02  7.2211442889510133e-02 
 7.3156320041579931e-02  7.4113560785855750e-02  7.5083326898301814e-02  7.6065782271699273e-02 
 7.7061092943344567e-02  7.8069427123110158e-02  7.9090955221872331e-02  8.0125849880311129e-02 
 8.1174285998086973e-02  8.2236440763399157e-02  8.3312493682931019e-02  8.4402626612187101e-02 
 8.5507023786227071e-02  8.6625871850801880e-02  8.7759359893897437e-02  8.8907679477690835e-02 
 9.0071024670924843e-02  9.1249592081705980e-02  9.2443580890731944e-02  9.3653192884952954e-02 
 9.4878632491675177e-02  9.6120106813108813e-02  9.7377825661369030e-02  9.8652001593934655e-02 
 9.9942849949570964e-02  1.0125058888472238e-01  1.0257543941038154e-01  1.0391762542944052e-01 
 1.0527737377453107e-01  1.0665491424635984e-01  1.0805047965254527e-01  1.0946430584696257e-01 
 1.1089663176960365e-01  1.1234769948695851e-01  1.1381775423292505e-01  1.1530704445025422e-01 
 1.1681582183253759e-01  1.1834434136674345e-01  1.1989286137631125e-01  1.2146164356480825e-01 
 1.2305095306015819e-01  1.2466105845944844e-01  1.2629223187432373e-01  1.2794474897697350e-01 
 1.2961888904672125e-01  1.3131493501722341e-01  1.3303317352428573e-01  1.3477389495430547e-01 
 1.3653739349334740e-01  1.3832396717686191e-01  1.4013391794005373e-01  1.4196755166890970e-01 
 1.4382517825189420e-01  1.4570711163232114e-01  1.4761366986141122e-01  1.4954517515204244e-01 
 1.5150195393320631e-01  1.5348433690517424e-01  1.5549265909538668e-01  1.5752725991507383e-01 
 1.5958848321661673e-01  1.6167667735165928e-01  1.6379219522998037e-01  1.6593539437913662e-01 
 1.6810663700488523e-01  1.7030629005239770e-01  1.7253472526827451e-01  1.7479231926337099e-01 
 1.7707945357644558e-01  1.7939651473864082e-01  1.8174389433880797e-01  1.8412198908968644e-01 
 1.8653120089494954e-01  1.8897193691712583e-01  1.9144460964641263e-01  1.9394963697038636e-01 
 1.9648744224462700e-01  1.9905845436426609e-01  2.0166310783647109e-01  2.0430184285387820e-01 
 2.0697510536898575e-01  2.0968334716952144e-01  2.1242702595479543e-01  2.1520660541305262e-01 
 2.1802255529983719e-01  2.2087535151738219e-01  2.2376547619503837e-01  2.2669341777075494e-01 
 2.2965967107362703e-01  2.3266473740752283e-01  2.3570912463580546e-01  2.3879334726716170e-01 
 2.4191792654255734e-01  2.4508339052332673e-01  2.4829027418041674e-01  2.5153911948479812e-01 
 2.5483047549905985e-01  2.5816489847020213e-01  2.6154295192364330e-01  2.6496520675845708e-01 
 2.6843224134385590e-01  2.7194464161693649e-01  2.7550300118170490e-01  2.7910792140939683e-01 
 2.8276001154011077e-01  2.8645988878577122e-01  2.9020817843443869e-01  2.9400551395598518e-01 
 2.9785253710915222e-01  3.0174989805000813e-01  3.0569825544182833e-01  3.0969827656640969e-01 
 3.1375063743684262e-01  3.1785602291175924e-01  3.2201512681107602e-01  3.2622865203325108e-01 
 3.3049731067407551e-01  3.3482182414701933e-01  3.3920292330515239e-01  3.4364134856465983e-01 
 3.4813785002997427e-01  3.5269318762054563e-01  3.5730813119926869e-01  3.6198346070259241e-01 
 3.6671996627233050e-01  3.7151844838919756e-01  3.7637971800809294e-01  3.8130459669515115e-01 
 3.8629391676659275e-01  3.9134852142938470e-01  3.9646926492374562e-01  4.0165701266751375e-01 
 4.0691264140240541e-01  4.1223703934218536e-01  4.1763110632277822e-01  4.2309575395434218e-01 
 4.2863190577533306e-01  4.3424049740858550e-01  4.3992247671943435e-01  4.4567880397590687e-01 
 4.5151045201100998e-01  4.5741840638714149e-01  4.6340366556265244e-01  4.6946724106058907e-01 
 4.7561015763964321e-01  4.8183345346733586e-01  4.8813818029547462e-01  4.9452540363789943e-01 
 5.0099620295055747e-01  5.0755167181393346e-01  5.1419291811786816e-01  5.2092106424879359e-01 
 5.2773724727941962e-01  5.3464261916090150e-01  5.4163834691752288e-01  5.4872561284392485e-01 
 5.5590561470491762e-01  5.6317956593790452e-01  5.7054869585795687e-01  5.7801424986557026e-01 
 5.8557748965714085e-01  5.9323969343819449e-01  6.0100215613940811e-01  6.0886618963545147e-01 
 6.1683312296670378e-01  6.2490430256385987e-01  6.3308109247548194e-01  6.4136487459852665e-01 
 6.4975704891188890e-01  6.5825903371300198e-01  6.6687226585753268e-01  6.7559820100221379e-01 
 6.8443831385085330e-01  6.9339409840356314e-01  7.0246706820924809e-01  7.1165875662140010e-01 
 7.2097071705723781e-01  7.3040452326023819e-01  7.3996176956610293e-01  7.4964407117220500e-01 
 7.5945306441056193e-01  7.6939040702437467e-01  7.7945777844819808e-01  7.8965688009176416e-01 
 7.9998943562752556e-01  8.1045719128196025e-01  8.2106191613068802e-01  8.3180540239744882e-01 
 8.4268946575699211e-01  8.5371594564193054e-01  8.6488670555360936e-01  8.7620363337704044e-01 
 8.8766864169996185e-01  8.9928366813606764e-01  9.1105067565247055e-01  9.2297165290144767e-01 
 9.3504861455652677e-01  9.4728360165297221e-01  9.5967868193272521e-01  9.7223595019385123e-01 
 9.8495752864457586e-01  9.9784556726193541e-01  1.0109022441551312e+00  1.0241297659336346e+00 
 1.0375303680801085e+00  1.0511063153282103e+00  1.0648599020453378e+00  1.0787934526203804e+00 
 1.0929093218565484e+00  1.1072098953693401e+00  1.1216975899897159e+00  1.1363748541725489e+00 
 1.1512441684104191e+00  1.1663080456528232e+00  1.1815690317308685e+00  1.1970297057875248e+00 
 1.2126926807135081e+00  1.2285606035888557e+00  1.2446361561303028e+00  1.2609220551444902e+00 
 1.2774210529871137e+00  1.2941359380280777e+00  1.3110695351227373e+00  1.3282247060893049e+00 
 1.3456043501925048e+00  1.3632114046335557e+00  1.3810488450465648e+00  1.3991196860014166e+00 
 1.4174269815132428e+00  1.4359738255585581e+00  1.4547633525981494e+00  1.4737987381068074e+00 
 1.4930831991099889e+00  1.5126199947275025e+00  1.5324124267243098e+00  1.5524638400685205e+00 
 1.5727776234967168e+00  1.5933572100866471e+00  1.6142060778374261e+00  1.6353277502573267e+00 
 1.6567257969592588e+00  1.6784038342640444e+00  1.7003655258115844e+00  1.7226145831800210e+00 
 1.7451547665130043e+00  1.7679898851551656e+00  1.7911237982959050e+00  1.8145604156216044e+00 
 1.8383036979763729e+00  1.8623576580314403e+00  1.8867263609633065e+00  1.9114139251407665e+00 
 1.9364245228209287e+00  1.9617623808543223e+00  1.9874317813992644e+00  2.0134370626455427e+00 
 2.0397826195475832e+00  2.0664729045672070e+00  2.0935124284261084e+00  2.1209057608681756e+00 
 2.1486575314317906e+00  2.1767724302322304e+00  2.2052552087543082e+00  2.2341106806553865e+00 
 2.2633437225788948e+00  2.2929592749784962e+00  2.3229623429530339e+00  2.3533579970924059e+00 
 2.3841513743345057e+00  2.4153476788333794e+00  2.4469521828387411e+00  2.4789702275869812e+00 
 2.5114072242038725e+00  2.5442686546190463e+00  2.5775600724924566e+00  2.6112871041529599e+00 
 2.6454554495491815e+00  2.6800708832128164e+00  2.7151392552345426e+00  2.7506664922526971e+00 
 2.7866585984548951e+00  2.8231216565927491e+00  2.8600618290098692e+00  2.8974853586833165e+00 
 2.9353985702786765e+00  2.9738078712189462e+00  3.0127197527674019e+00  3.0521407911246401e+00 
 3.0920776485399739e+00  3.1325370744373502e+00  3.1735259065560473e+00  3.2150510721062506e+00 
 3.2571195889397728e+00  3.2997385667360861e+00  3.3429152082038738e+00  3.3866568102983101e+00 
 3.4309707654542572e+00  3.4758645628356089e+00  3.5213457896009732e+00  3.5674221321859241e+00 
 3.6141013776020245e+00  3.6613914147528499e+00  3.7093002357672344e+00  3.7578359373499572e+00 
 3.8070067221501054e+00  3.8568209001473415e+00  3.9072868900563158e+00  3.9584132207494229e+00 
 4.0102085326982442e+00  4.0626815794337743e+00  4.1158412290258051e+00  4.1696964655816418e+00 
 4.2242563907644426e+00  4.2795302253314205e+00  4.3355273106921759e+00  4.3922571104874129e+00 
 4.4497292121883190e+00  4.5079533287168703e+00  4.5669393000873404e+00  4.6266970950692823e+00 
 4.6872368128722783e+00  4.7485686848527262e+00  4.8107030762429668e+00  4.8736504879030313e+00 
 4.9374215580953198e+00  5.0020270642824594e+00  5.0674779249487703e+00  5.1337852014454848e+00 
 5.2009600998601497e+00  5.2690139729104786e+00  5.3379583218629936e+00  5.4078047984767599e+00 
 5.4785652069725668e+00  5.5502515060278679e+00  5.6228758107978232e+00  5.6964503949627918e+00 
 5.7709876928026116e+00  5.8465003012980237e+00  5.9230009822595919e+00  6.0005026644844781e+00 
 6.0790184459414380e+00  6.1585615959844144e+00  6.2391455575950951e+00  6.3207839496547686e+00 
 6.4034905692460118e+00  6.4872793939843838e+00  6.5721645843806922e+00  6.6581604862341477e+00 
 6.7452816330568437e+00  6.8335427485299487e+00  6.9229587489920483e+00  7.0135447459600391e+00 
 7.1053160486830125e+00  7.1982881667295509e+00  7.2924768126088910e+00  7.3878979044263620e+00 
 7.4845675685735920e+00  7.5825021424539063e+00  7.6817181772433827e+00  7.7822324406880474e+00 
 7.8840619199376665e+00  7.9872238244165725e+00  8.0917355887321705e+00  8.1976148756213778e+00 
 8.3048795789356813e+00  8.4135478266652406e+00  8.5236379840025656e+00  8.6351686564462700e+00 
 8.7481586929454505e+00  8.8626271890852006e+00  8.9785934903138180e+00  9.0960771952122190e+00 
 9.2150981588061569e+00  9.3356764959217546e+00  9.4578325845849776e+00  9.5815870694655523e+00 
 9.7069608653659696e+00  9.8339751607561414e+00  9.9626514213543107e+00  1.0093011393754745e+01 
 1.0225077109103067e+01  1.0358870886819501e+01  1.0494415338370922e+01  1.0631733371092251e+01 
 1.0770848192057848e+01  1.0911783312003566e+01  1.1054562549300108e+01  1.1199210033978414e+01 
 1.1345750211807664e+01  1.1494207848426692e+01  1.1644608033529432e+01  1.1796976185105132e+01 
 1.1951338053734059e+01  1.2107719726939408e+01  1.2266147633596153e+01  1.2426648548397596e+01 
 1.2589249596380364e+01  1.2753978257508530e+01  1.2920862371317918e+01  1.3089930141620963e+01 
 1.3261210141273237e+01  1.3434731317002351e+01  1.3610522994300002e+01  1.3788614882378049e+01 
 1.3969037079189455e+01  1.4151820076514904e+01  1.4336994765115982e+01  1.4524592439955802e+01 
 1.4714644805487907e+01  1.4907183981014422e+01  1.5102242506114267e+01  1.5299853346142443e+01 
 1.5500049897801246e+01  1.5702865994784425e+01  1.5908335913495037e+01  1.6116494378838404e+01 
 1.6327376570090614e+01  1.6541018126843905e+01  1.6757455155029856e+01  1.6976724233021368e+01 
 1.7198862417814507e+01  1.7423907251291219e+01  1.7651896766563976e+01  1.7882869494403508e+01 
 1.8116864469750553e+01  1.8353921238312878e+01  1.8594079863248584e+01  1.8837380931936888e+01 
 1.9083865562837477e+01  1.9333575412439632e+01  1.9586552682302273e+01  1.9842840126186147e+01 
 2.0102481057279189e+01  2.0365519355516760e+01  2.0631999474997322e+01  2.0901966451495312e+01 
 2.1175465910072308e+01  2.1452544072787763e+01  2.1733247766510647e+01  2.2017624430833308e+01 
 2.2305722126088853e+01  2.2597589541473479e+01  2.2893276003275073e+01  2.3192831483209424e+01 
 2.3496306606865623e+01  2.3803752662261864e+01  2.4115221608513263e+01  2.4430766084613062e+01 
 2.4750439418328746e+01  2.5074295635214611e+01  2.5402389467742037e+01  2.5734776364549649e+01 
 2.6071512499814130e+01  2.6412654782743797e+01  2.6758260867196430e+01  2.7108389161422863e+01 
 2.7463098837938166e+01  2.7822449843521913e+01  2.8186502909349343e+01  2.8555319561255047e+01 
 2.8928962130131030e+01  2.9307493762460734e+01  2.9690978430990963e+01  3.0079480945543434e+01 
 3.0473066963967771e+01  3.0871803003237869e+01  3.1275756450693393e+01  3.1684995575428466e+01 
 3.2099589539829083e+01  3.2519608411262062e+01  3.2945123173916357e+01  3.3376205740799627e+01 
 3.3812928965891686e+01  3.4255366656457021e+01  3.4703593585518384e+01  3.5157685504493614e+01 
 3.5617719155997797e+01  3.6083772286812959e+01  3.6555923661027457e+01  3.7034253073347308e+01 
 3.7518841362581661e+01  3.8009770425304758e+01  3.8507123229696667e+01  3.9010983829565070e+01 
 3.9521437378550580e+01  4.0038570144517990e+01  4.0562469524135416e+01  4.1093224057645024e+01 
 4.1630923443826227e+01  4.2175658555155053e+01  4.2727521453161856e+01  4.3286605403989881e+01 
 4.3853004894157479e+01  4.4426815646526585e+01  4.5008134636480072e+01  4.5597060108310842e+01 
 4.6193691591825335e+01  4.6798129919164296e+01  4.7410477241843672e+01  4.8030837048018441e+01 
 4.8659314179972370e+01  4.9296014851836581e+01  4.9941046667540043e+01  5.0594518638994927e+01 
 5.1256541204519557e+01  5.1927226247503292e+01  5.2606687115314656e+01  5.3295038638457534e+01 
 5.3992397149977648e+01  5.4698880505123235e+01  5.5414608101262822e+01  5.6139700898063644e+01 
 5.6874281437934165e+01  5.7618473866733979e+01  5.8372403954754816e+01  5.9136199117975977e+01 
 5.9909988439597946e+01  6.0693902691857787e+01  6.1488074358129900e+01  6.2292637655316106e+01 
 6.3107728556528564e+01  6.3933484814069686e+01  6.4770045982712148e+01  6.5617553443284692e+01 
 6.6476150426565241e+01  6.7345982037487559e+01  6.8227195279664173e+01  6.9119939080230367e+01 
 7.0024364315013258e+01  7.0940623834030163e+01  7.1868872487320559e+01  7.2809267151116174e+01 
 7.3761966754353423e+01  7.4727132305532791e+01  7.5704926919929591e+01  7.6695515847160905e+01 
 7.7699066499113144e+01  7.8715748478235014e+01  7.9745733606200815e+01  8.0789195952948759e+01 
 8.1846311866098716e+01  8.2917260000756201e+01  8.4002221349704882e+01  8.5101379273995093e+01 
 8.6214919533932118e+01  8.7343030320470234e+01  8.8485902287017382e+01  8.9643728581656021e+01 
 9.0816704879785718e+01  9.2005029417192631e+01  9.3208903023551926e+01  9.4428529156368413e+01 
 9.5664113935361357e+01  9.6915866177299222e+01  9.8183997431290180e+01  9.9468722014534436e+01 
 1.0077025704854435e+02  1.0208882249583860e+02  1.0342464119711575e+02  1.0477793890891584e+02 
 1.0614894434177319e+02  1.0753788919886904e+02  1.0894500821519007e+02  1.1037053919719916e+02 
 1.1181472306302510e+02  1.1327780388317858e+02  1.1476002892180043e+02  1.1626164867845004e+02 
 1.1778291693044028e+02 
  </PP_R>
  <PP_RAB>
 3.0045655221860832e-07  3.0438798635177436e-07  3.0837086277910673e-07  3.1240585461620125e-07 
 3.1649364378628197e-07  3.2063492113544845e-07  3.2483038654942861e-07  3.2908074907186344e-07 
 3.3338672702413534e-07  3.3774904812676701e-07  3.4216844962240747e-07  3.4664567840042820e-07 
 3.5118149112314886e-07  3.5577665435371520e-07  3.6043194468565058e-07  3.6514814887410032e-07 
 3.6992606396879774e-07  3.7476649744876574e-07  3.7967026735878301e-07  3.8463820244763587e-07 
 3.8967114230817863e-07  3.9476993751922640e-07  3.9993544978930562e-07  4.0516855210228464e-07 
 4.1047012886490893e-07  4.1584107605626997e-07  4.2128230137922650e-07  4.2679472441380880e-07 
 4.3237927677262976e-07  4.3803690225832976e-07  4.4376855702308166e-07  4.4957520973018255e-07 
 4.5545784171776072e-07  4.6141744716462251e-07  4.6745503325827328e-07  4.7357162036513295e-07 
 4.7976824220298069e-07  4.8604594601565529e-07  4.9240579275004310e-07  4.9884885723537900e-07 
 5.0537622836489620e-07  5.1198900927985204e-07  5.1868831755595895e-07  5.2547528539226118e-07 
 5.3235105980247679e-07  5.3931680280884588e-07  5.4637369163851592e-07  5.5352291892249511e-07 
 5.6076569289721028e-07  5.6810323760870234e-07  5.7553679311949019e-07  5.8306761571814854e-07 
 5.9069697813162073e-07  5.9842616974031296e-07  6.0625649679600353e-07  6.1418928264260172e-07 
 6.2222586793979647e-07  6.3036761088963083e-07  6.3861588746604139e-07  6.4697209164740178e-07 
 6.5543763565210626e-07  6.6401395017724091e-07  6.7270248464037305e-07  6.8150470742450632e-07 
 6.9042210612624139e-07  6.9945618780718336e-07  7.0860847924863787e-07  7.1788052720964312e-07 
 7.2727389868837106e-07  7.3679018118695948e-07  7.4643098297980061e-07  7.5619793338534332e-07 
 7.6609268304145209e-07  7.7611690418436973e-07  7.8627229093132793e-07  7.9656055956685753e-07 
 8.0698344883284520e-07  8.1754272022238413e-07  8.2824015827747238e-07  8.3907757089060029e-07 
 8.5005678961029452e-07  8.6117966995065044e-07  8.7244809170491878e-07  8.8386395926319626e-07 
 8.9542920193427086e-07  9.0714577427168125e-07  9.1901565640403741e-07  9.3104085436967210e-07 
 9.4322340045566275e-07  9.5556535354129302e-07  9.6806879944600996e-07  9.8073585128193038e-07 
 9.9356864981096395e-07  1.0065693638066051e-06  1.0197401904204619e-06  1.0330833555535801e-06 
 1.0466011142326260e-06  1.0602957509909882e-06  1.0741695802548743e-06  1.0882249467344513e-06 
 1.1024642258201068e-06  1.1168898239838977e-06  1.1315041791862472e-06  1.1463097612879699e-06 
 1.1613090724676775e-06  1.1765046476446599e-06  1.1918990549072891e-06  1.2074948959470329e-06 
 1.2232948064981460e-06  1.2393014567831179e-06  1.2555175519639429e-06  1.2719458325993032e-06 
 1.2885890751077272e-06  1.3054500922368108e-06  1.3225317335385813e-06  1.3398368858510717e-06 
 1.3573684737862126e-06  1.3751294602240918e-06  1.3931228468136898e-06  1.4113516744801664e-06 
 1.4298190239387839e-06  1.4485280162155561e-06  1.4674818131747034e-06  1.4866836180530268e-06 
 1.5061366760012516e-06  1.5258442746324718e-06  1.5458097445777617e-06  1.5660364600490619e-06 
 1.5865278394094289e-06  1.6072873457507456e-06  1.6283184874789939e-06  1.6496248189071813e-06 
 1.6712099408560323e-06  1.6930775012625279e-06  1.7152311957964247e-06  1.7376747684848277e-06 
 1.7604120123449390e-06  1.7834467700250870e-06  1.8067829344541451e-06  1.8304244494994457e-06 
 1.8543753106332973e-06  1.8786395656082391e-06  1.9032213151411121e-06  1.9281247136060948e-06 
 1.9533539697368005e-06  1.9789133473375630e-06  2.0048071660040308e-06  2.0310398018531879e-06 
 2.0576156882629302e-06  2.0845393166213131e-06  2.1118152370856113e-06  2.1394480593513003e-06 
 2.1674424534311130e-06  2.1958031504442785e-06  2.2245349434160925e-06  2.2536426880879544e-06 
 2.2831313037379888e-06  2.3130057740124282e-06  2.3432711477678533e-06  2.3739325399244630e-06 
 2.4049951323305097e-06  2.4364641746380404e-06  2.4683449851901061e-06  2.5006429519195681e-06 
 2.5333635332596774e-06  2.5665122590665577e-06  2.6000947315537672e-06  2.6341166262390868e-06 
 2.6685836929036930e-06  2.7035017565638898e-06  2.7388767184555387e-06  2.7747145570313983e-06 
 2.8110213289714855e-06  2.8478031702066739e-06  2.8850662969556720e-06  2.9228170067755928e-06 
 2.9610616796262444e-06  2.9998067789483672e-06  3.0390588527559643e-06  3.0788245347429291e-06 
 3.1191105454041664e-06  3.1599236931713614e-06  3.2012708755636281e-06  3.2431590803531983e-06 
 3.2855953867463795e-06  3.3285869665799568e-06  3.3721410855332447e-06  3.4162651043560112e-06 
 3.4609664801124541e-06  3.5062527674414707e-06  3.5521316198334053e-06  3.5986107909235112e-06 
 3.6456981358023225e-06  3.6934016123432000e-06  3.7417292825472149e-06  3.7906893139056587e-06 
 3.8402899807803621e-06  3.8905396658020763e-06  3.9414468612871718e-06  3.9930201706728506e-06 
 4.0452683099711497e-06  4.0982001092419603e-06  4.1518245140853466e-06  4.2061505871533571e-06 
 4.2611875096816416e-06  4.3169445830411029e-06  4.3734312303098425e-06  4.4306569978656926e-06 
 4.4886315569995753e-06  4.5473647055499692e-06  4.6068663695587692e-06  4.6671466049488097e-06 
 4.7282155992233476e-06  4.7900836731877657e-06  4.8527612826938169e-06  4.9162590204066815e-06 
 4.9805876175951691e-06  5.0457579459453094e-06  5.1117810193977080e-06  5.1786679960089163e-06 
 5.2464301798371809e-06  5.3150790228528509e-06  5.3846261268737833e-06  5.4550832455260911e-06 
 5.5264622862305176e-06  5.5987753122148312e-06  5.6720345445525349e-06  5.7462523642282618e-06 
 5.8214413142301791e-06  5.8976141016697933e-06  5.9747835999294817e-06  6.0529628508381222e-06 
 6.1321650668751922e-06  6.2124036334037094e-06  6.2936921109323926e-06  6.3760442374074202e-06 
 6.4594739305341735e-06  6.5439952901293572e-06  6.6296226005039150e-06  6.7163703328771011e-06 
 6.8042531478221554e-06  6.8932858977439741e-06  6.9834836293891972e-06  7.0748615863891515e-06 
 7.1674352118360631e-06  7.2612201508929663e-06  7.3562322534377729e-06  7.4524875767419552e-06 
 7.5500023881842495e-06  7.6487931679998807e-06  7.7488766120657763e-06  7.8502696347221843e-06 
 7.9529893716312602e-06  8.0570531826730271e-06  8.1624786548792338e-06  8.2692836054056020e-06 
 8.3774860845429775e-06  8.4871043787678684e-06  8.5981570138329010e-06  8.7106627578977192e-06 
 8.8246406247008386e-06  8.9401098767730319e-06  9.0570900286927272e-06  9.1756008503840238e-06 
 9.2956623704578512e-06  9.4172948795968603e-06  9.5405189339845931e-06  9.6653553587795302e-06 
 9.7918252516345846e-06  9.9199499862626500e-06  1.0049751216048839e-05  1.0181250877709916e-05 
 1.0314471195001694e-05  1.0449434682474864e-05  1.0586164149280035e-05  1.0724682703022530e-05 
 1.0865013753667618e-05  1.1007181017496865e-05  1.1151208521116219e-05  1.1297120605516597e-05 
 1.1444941930187549e-05  1.1594697477284776e-05  1.1746412555852157e-05  1.1900112806099082e-05 
 1.2055824203733651e-05  1.2213573064352682e-05  1.2373386047889079e-05  1.2535290163117420e-05 
 1.2699312772218530e-05  1.2865481595403738e-05  1.3033824715599669e-05  1.3204370583194290e-05 
 1.3377148020845153e-05  1.3552186228350444e-05  1.3729514787583839e-05  1.3909163667493917e-05 
 1.4091163229168950e-05  1.4275544230968044e-05  1.4462337833719351e-05  1.4651575605986321e-05 
 1.4843289529402865e-05  1.5037512004078346e-05  1.5234275854073249e-05  1.5433614332946536e-05 
 1.5635561129375599e-05  1.5840150372849664e-05  1.6047416639437832e-05  1.6257394957632467e-05 
 1.6470120814269118e-05  1.6685630160523860e-05  1.6903959417989161e-05  1.7125145484829143e-05 
 1.7349225742015564e-05  1.7576238059645221e-05  1.7806220803340108e-05  1.8039212840731288e-05 
 1.8275253548027619e-05  1.8514382816670439e-05  1.8756641060075305e-05  1.9002069220461952e-05 
 1.9250708775773607e-05  1.9502601746686917e-05  1.9757790703713494e-05  2.0016318774394454e-05 
 2.0278229650589064e-05  2.0543567595858768e-05  2.0812377452947851e-05  2.1084704651361952e-05 
 2.1360595215045792e-05  2.1640095770161244e-05  2.1923253552967362e-05  2.2210116417803406e-05 
 2.2500732845176282e-05  2.2795151949953912e-05  2.3093423489665750e-05  2.3395597872911927e-05 
 2.3701726167882409e-05  2.4011860110987689e-05  2.4326052115602250e-05  2.4644355280922710e-05 
 2.4966823400941595e-05  2.5293510973538688e-05  2.5624473209691315e-05  2.5959766042805110e-05 
 2.6299446138166890e-05  2.6643570902521247e-05  2.6992198493772429e-05  2.7345387830813081e-05 
 2.7703198603481807e-05  2.8065691282650812e-05  2.8432927130445650e-05  2.8804968210598651e-05 
 2.9181877398937847e-05  2.9563718394013156e-05  2.9950555727861566e-05  3.0342454776913233e-05 
 3.0739481773040148e-05  3.1141703814749637e-05  3.1549188878524108e-05  3.1962005830309153e-05 
 3.2380224437152191e-05  3.2803915378993177e-05  3.3233150260609705e-05  3.3668001623718389e-05 
 3.4108542959234606e-05  3.4554848719692543e-05  3.5006994331827985e-05  3.5465056209325545e-05 
 3.5929111765732738e-05  3.6399239427543108e-05  3.6875518647450442e-05  3.7358029917776498e-05 
 3.7846854784074377e-05  3.8342075858909981e-05  3.8843776835823554e-05  3.9352042503474331e-05 
 3.9866958759969861e-05  4.0388612627383041e-05  4.0917092266459062e-05  4.1452486991514750e-05 
 4.1994887285532934e-05  4.2544384815454260e-05  4.3101072447669194e-05  4.3665044263712456e-05 
 4.4236395576163332e-05  4.4815222944753476e-05  4.5401624192685835e-05  4.5995698423167034e-05 
 4.6597546036155955e-05  4.7207268745331643e-05  4.7824969595283174e-05  4.8450752978924396e-05 
 4.9084724655136495e-05  4.9726991766641710e-05  5.0377662858110532e-05  5.1036847894506089e-05 
 5.1704658279668451e-05  5.2381206875142158e-05  5.3066608019250124e-05  5.3760977546416983e-05 
 5.4464432806745567e-05  5.5177092685849071e-05  5.5899077624943299e-05  5.6630509641201357e-05 
 5.7371512348374864e-05  5.8122210977684999e-05  5.8882732398986845e-05  5.9653205142210713e-05 
 6.0433759419084010e-05  6.1224527145137392e-05  6.2025641961998551e-05  6.2837239259978307e-05 
 6.3659456200951711e-05  6.4492431741538738e-05  6.5336306656588319e-05  6.6191223562969573e-05 
 6.7057326943674504e-05  6.7934763172235833e-05  6.8823680537464640e-05  6.9724229268511252e-05 
 7.0636561560254629e-05  7.1560831599023543e-05  7.2497195588654397e-05  7.3445811776890079e-05 
 7.4406840482124184e-05  7.5380444120495249e-05  7.6366787233335425e-05  7.7366036514978450e-05 
 7.8378360840931097e-05  7.9403931296413913e-05  8.0442921205274904e-05  8.1495506159281485e-05 
 8.2561864047796200e-05  8.3642175087840192e-05  8.4736621854550489e-05  8.5845389312035601e-05 
 8.6968664844634829e-05  8.8106638288586563e-05  8.9259501964111397e-05  9.0427450707914411e-05 
 9.1610681906113145e-05  9.2809395527596283e-05  9.4023794157818951e-05  9.5254083033039991e-05 
 9.6500470075007566e-05  9.7763165926098361e-05  9.9042383984916351e-05  1.0033834044235826e-04 
 1.0165125431814988e-04  1.0298134749786110e-04  1.0432884477040500e-04  1.0569397386602785e-04 
 1.0707696549479595e-04  1.0847805338558619e-04  1.0989747432558699e-04  1.1133546820031533e-04 
 1.1279227803415868e-04  1.1426815003144637e-04  1.1576333361805860e-04  1.1727808148358022e-04 
 1.1881264962400573e-04  1.2036729738500332e-04  1.2194228750574478e-04  1.2353788616330927e-04 
 1.2515436301766737e-04  1.2679199125725492e-04  1.2845104764514219e-04  1.3013181256580738e-04 
 1.3183457007252250e-04  1.3355960793535890e-04  1.3530721768982118e-04  1.3707769468611732e-04 
 1.3887133813907367e-04  1.4068845117870264e-04  1.4252934090143294e-04  1.4439431842200919e-04 
 1.4628369892607124e-04  1.4819780172342108e-04  1.5013695030198734e-04  1.5210147238249510e-04 
 1.5409169997385172e-04  1.5610796942925719e-04  1.5815062150304816e-04  1.6022000140828688e-04 
 1.6231645887510276e-04  1.6444034820979739e-04  1.6659202835472337e-04  1.6877186294894647e-04 
 1.7098022038970135e-04  1.7321747389465150e-04  1.7548400156496433e-04  1.7778018644921045e-04 
 1.8010641660810048e-04  1.8246308518006800e-04  1.8485059044771068e-04  1.8726933590510137e-04 
 1.8971973032597914e-04  1.9220218783283334e-04  1.9471712796689108e-04  1.9726497575902097e-04 
 1.9984616180156374e-04  2.0246112232110414e-04  2.0511029925219387e-04  2.0779414031203957e-04 
 2.1051309907616815e-04  2.1326763505508215e-04  2.1605821377191809e-04  2.1888530684112091e-04 
 2.2174939204814829e-04  2.2465095343021660e-04  2.2759048135810562e-04  2.3056847261903148e-04 
 2.3358543050060526e-04  2.3664186487588957e-04  2.3973829228956850e-04  2.4287523604524466e-04 
 2.4605322629387896e-04  2.4927280012338772e-04  2.5253450164941038e-04  2.5583888210726845e-04 
 2.5918649994512383e-04  2.6257792091835894e-04  2.6601371818519009e-04  2.6949447240353296e-04 
 2.7302077182913490e-04  2.7659321241499185e-04  2.8021239791206577e-04  2.8387893997131915e-04 
 2.8759345824708703e-04  2.9135658050179897e-04  2.9516894271207253e-04  2.9903118917619511e-04 
 3.0294397262301161e-04  3.0690795432223732e-04  3.1092380419621413e-04  3.1499220093312907e-04 
 3.1911383210171343e-04  3.2328939426744469e-04  3.2751959311026725e-04  3.3180514354385374e-04 
 3.3614676983642746e-04  3.4054520573316541e-04  3.4500119458020270e-04  3.4951548945026033e-04 
 3.5408885326991611e-04  3.5872205894853986e-04  3.6341588950891907e-04  3.6817113821959032e-04 
 3.7298860872890359e-04  3.7786911520084097e-04  3.8281348245261244e-04  3.8782254609405140e-04 
 3.9289715266883554e-04  3.9803815979755428e-04  4.0324643632264778e-04  4.0852286245524527e-04 
 4.1386832992392164e-04  4.1928374212540188e-04  4.2477001427723715e-04  4.3032807357247900e-04 
 4.3595885933637703e-04  4.4166332318512717e-04  4.4744242918669746e-04  4.5329715402375606e-04 
 4.5922848715873599e-04  4.6523743100105377e-04  4.7132500107652090e-04  4.7749222619896899e-04 
 4.8374014864412243e-04  4.9006982432574513e-04  4.9648232297409237e-04  5.0297872831669879e-04 
 5.0956013826152814e-04  5.1622766508252623e-04  5.2298243560759509e-04  5.2982559140903030e-04 
 5.3675828899644984e-04  5.4378170001224654e-04  5.5089701142959822e-04  5.5810542575306966e-04 
 5.6540816122183893e-04  5.7280645201558016e-04  5.8030154846304687e-04  5.8789471725337761e-04 
 5.9558724165017054e-04  6.0338042170835751e-04  6.1127557449391706e-04  6.1927403430646105e-04 
 6.2737715290473492e-04  6.3558629973506852e-04  6.4390286216281392e-04  6.5232824570681566e-04 
 6.6086387427694634e-04  6.6951119041474964e-04  6.7827165553723445e-04  6.8714675018385733e-04 
 6.9613797426673694e-04  7.0524684732414333e-04  7.1447490877730394e-04  7.2382371819056655e-04 
 7.3329485553497403e-04  7.4288992145527953e-04  7.5261053754046073e-04  7.6245834659777222e-04 
 7.7243501293038335e-04  7.8254222261864997e-04  7.9278168380506509e-04  8.0315512698294115e-04 
 8.1366430528886360e-04  8.2431099479897949e-04  8.3509699482915657e-04  8.4602412823907107e-04 
 8.5709424174027751e-04  8.6830920620830504e-04  8.7967091699884192e-04  8.9118129426805340e-04 
 9.0284228329709385e-04  9.1465585482086340e-04  9.2662400536106719e-04  9.3874875756363172e-04 
 9.5103216054053907e-04  9.6347629021612468e-04  9.7608324967792350e-04  9.8885516953209048e-04 
 1.0017942082634792e-03  1.0149025526004320e-03  1.0281824178843403e-03  1.0416360484440446e-03 
 1.0552657179751306e-03  1.0690737299241890e-03  1.0830624178781031e-03  1.0972341459584323e-03 
 1.1115913092209519e-03  1.1261363340604243e-03  1.1408716786206667e-03  1.1557998332099807e-03 
 1.1709233207220229e-03  1.1862446970621777e-03  1.2017665515795153e-03  1.2174915075043884e-03 
 1.2334222223917772e-03  1.2495613885704145e-03  1.2659117335977973e-03  1.2824760207211505e-03 
 1.2992570493444225e-03  1.3162576555013909e-03  1.3334807123349599e-03  1.3509291305827268e-03 
 1.3686058590689039e-03  1.3865138852026779e-03  1.4046562354830885e-03  1.4230359760105133e-03 
 1.4416562130048474e-03  1.4605200933304606e-03  1.4796308050280256e-03  1.4989915778533048e-03 
 1.5186056838229886e-03  1.5384764377676648e-03  1.5586071978920461e-03  1.5790013663425071e-03 
 1.5996623897820564e-03  1.6205937599728297e-03  1.6417990143662083e-03  1.6632817367006555e-03 
 1.6850455576073761e-03  1.7070941552239042e-03  1.7294312558157143e-03  1.7520606344059711e-03 
 1.7749861154135161e-03  1.7982115732992046e-03  1.8217409332206983e-03  1.8455781716958260e-03 
 1.8697273172746244e-03  1.8941924512201748e-03  1.9189777081983458e-03  1.9440872769765517e-03 
 1.9695254011316819e-03  1.9952963797672651e-03  2.0214045682400267e-03  2.0478543788959597e-03 
 2.0746502818160175e-03  2.1017968055715703e-03  2.1292985379897447e-03  2.1571601269287761e-03 
 2.1853862810635081e-03  2.2139817706811698e-03  2.2429514284875687e-03  2.2723001504238228e-03 
 2.3020328964937927e-03  2.3321546916023304e-03  2.3626706264045037e-03  2.3935858581659235e-03 
 2.4249056116343441e-03  2.4566351799226358e-03  2.4887799254033642e-03  2.5213452806150225e-03 
 2.5543367491801510e-03  2.5877599067354591e-03  2.6216204018741241e-03  2.6559239571004164e-03 
 2.6906763697968146e-03  2.7258835132037786e-03  2.7615513374123404e-03  2.7976858703696837e-03 
 2.8342932188978832e-03  2.8713795697259685e-03  2.9089511905354987e-03  2.9470144310198140e-03 
 2.9855757239571515e-03  3.0246415862977966e-03  3.0642186202654710e-03  3.1043135144731017e-03 
 3.1449330450532454e-03  3.1860840768032474e-03  3.2277735643454174e-03  3.2700085533023753e-03 
 3.3127961814877777e-03  3.3561436801126275e-03  3.4000583750073629e-03  3.4445476878599418e-03 
 3.4896191374701267e-03  3.5352803410201744e-03  3.5815390153621637e-03  3.6284029783221587e-03 
 3.6758801500214400e-03  3.7239785542150256e-03  3.7727063196477026e-03  3.8220716814278072e-03 
 3.8720829824189784e-03  3.9227486746501051e-03  3.9740773207437678e-03  4.0260775953633258e-03 
 4.0787582866789540e-03  4.1321282978528696e-03  4.1861966485439881e-03  4.2409724764322634e-03 
 4.2964650387629817e-03  4.3526837139112508e-03  4.4096380029669813e-03  4.4673375313405775e-03 
 4.5257920503896654e-03  4.5850114390670934e-03  4.6450057055904929e-03  4.7057849891337013e-03 
 4.7673595615402966e-03  4.8297398290595680e-03  4.8929363341052084e-03  4.9569597570369647e-03 
 5.0218209179657058e-03  5.0875307785820008e-03  5.1541004440086927e-03  5.2215411646776783e-03 
 5.2898643382312703e-03  5.3590815114484096e-03  5.4292043821961167e-03  5.5002448014064478e-03 
 5.5722147750793295e-03  5.6451264663116112e-03  5.7189921973526464e-03  5.7938244516867890e-03 
 5.8696358761431292e-03  5.9464392830328389e-03  6.0242476523144819e-03  6.1030741337876580e-03 
 6.1829320493153612e-03  6.2638348950753656e-03  6.3457963438411698e-03  6.4288302472926924e-03 
 6.5129506383572464e-03  6.5981717335811350e-03  6.6845079355322854e-03  6.7719738352343163e-03 
 6.8605842146324545e-03  6.9503540490917191e-03  7.0412985099277976e-03  7.1334329669710227e-03 
 7.2267729911639289e-03  7.3213343571927585e-03  7.4171330461534389e-03  7.5141852482524130e-03 
 7.6125073655428305e-03  7.7121160146965285e-03  7.8130280298123050e-03  7.9152604652608684e-03 
 8.0188305985671483e-03  8.1237559333301786e-03  8.2300542021812653e-03  8.3377433697808465e-03 
 8.4468416358545548e-03  8.5573674382690250e-03  8.6693394561479249e-03  8.7827766130287796e-03 
 8.8976980800610922e-03  9.0141232792463211e-03  9.1320718867202253e-03  9.2515638360782006e-03 
 9.3726193217440919e-03  9.4952588023830952e-03  9.6195030043593373e-03  9.7453729252386639e-03 
 9.8728898373373047e-03  1.0002075291316871e-02  1.0132951119826575e-02  1.0265539441192933e-02 
 1.0399862663157832e-02  1.0535943486665483e-02  1.0673804909698943e-02  1.0813470231166834e-02 
 1.0954963054840897e-02  1.1098307293345096e-02  1.1243527172196921e-02  1.1390647233901525e-02 
 1.1539692342099504e-02  1.1690687685768879e-02  1.1843658783482116e-02  1.1998631487718819e-02 
 1.2155631989234847e-02  1.2314686821488638e-02  1.2475822865125427e-02  1.2639067352520066e-02 
 1.2804447872379486e-02  1.2971992374405160e-02  1.3141729174016705e-02  1.3313686957137250e-02 
 1.3487894785041409e-02  1.3664382099266733e-02  1.3843178726589390e-02  1.4024314884064944e-02 
 1.4207821184135130e-02  1.4393728639801422e-02  1.4582068669866307e-02  1.4772873104243136e-02 
 1.4966174189335447e-02  1.5162004593486701e-02  1.5360397412501290e-02  1.5561386175237821e-02 
 1.5765004849275604e-02  1.5971287846655122e-02  1.6180270029693935e-02  1.6391986716878370e-02 
 1.6606473688832477e-02  1.6823767194365010e-02  1.7043903956595583e-02  1.7266921179160961e-02 
 1.7492856552502562e-02  1.7721748260236224e-02  1.7953634985605340e-02  1.8188555918018413e-02 
 1.8426550759672155e-02  1.8667659732261255e-02  1.8911923583775941e-02  1.9159383595388494e-02 
 1.9410081588429856e-02  1.9664059931457530e-02  1.9921361547416028e-02  2.0182029920890764e-02 
 2.0446109105457317e-02  2.0713643731126410e-02  2.0984679011886540e-02  2.1259260753345246e-02 
 2.1537435360470362e-02  2.1819249845432577e-02  2.2104751835550596e-02  2.2393989581340274e-02 
 2.2687011964669053e-02  2.2983868507017152e-02  2.3284609377846762e-02  2.3589285403080855e-02 
 2.3897948073692846e-02  2.4210649554408721e-02  2.4527442692522983e-02  2.4848381026829965e-02 
 2.5173518796672071e-02  2.5502910951106190e-02  2.5836613158190434e-02  2.6174681814392052e-02 
 2.6517174054118582e-02  2.6864147759373690e-02  2.7215661569539407e-02  2.7571774891286281e-02 
 2.7932547908613277e-02  2.8298041593018994e-02  2.8668317713806006e-02  2.9043438848520023e-02 
 2.9423468393525630e-02  2.9808470574720448e-02  3.0198510458389439e-02  3.0593653962201275e-02 
 3.0993967866348573e-02  3.1399519824833931e-02  3.1810378376903634e-02  3.2226612958630753e-02 
 3.2648293914650343e-02  3.3075492510047599e-02  3.3508280942401936e-02  3.3946732353988478e-02 
 3.4390920844139361e-02  3.4840921481766610e-02  3.5296810318049050e-02  3.5758664399285059e-02 
 3.6226561779913631e-02  3.6700581535705733e-02  3.7180803777128298e-02  3.7667309662883112e-02 
 3.8160181413622790e-02  3.8659502325846300e-02  3.9165356785976220e-02  3.9677830284620318e-02 
 4.0197009431019656e-02  4.0722981967685548e-02  4.1255836785228615e-02  4.1795663937381260e-02 
 4.2342554656217044e-02  4.2896601367569120e-02  4.3457897706650359e-02  4.4026538533878029e-02 
 4.4602619950905344e-02  4.5186239316862914e-02  4.5777495264812652e-02  4.6376487718417014e-02 
 4.6983317908826316e-02  4.7598088391787044e-02  4.8220903064974042e-02  4.8851867185549444e-02 
 4.9491087387951369e-02  5.0138671701915438e-02  5.0794729570732104e-02  5.1459371869742497e-02 
 5.2132710925077173e-02  5.2814860532639063e-02  5.3505935977335460e-02  5.4206054052561341e-02 
 5.4915333079937755e-02  5.5633892929308461e-02  5.6361855038998286e-02  5.7099342436336367e-02 
 5.7846479758448144e-02  5.8603393273319308e-02  5.9370210901135423e-02  6.0147062235900668e-02 
 6.0934078567339615e-02  6.1731392903085436e-02  6.2539139991158565e-02  6.3357456342739399e-02 
 6.4186480255239153e-02  6.5026351835671972e-02  6.5877213024334011e-02  6.6739207618791305e-02 
 6.7612481298181940e-02  6.8497181647836219e-02  6.9393458184218909e-02  7.0301462380197868e-02 
 7.1221347690643366e-02  7.2153269578362281e-02  7.3097385540371693e-02  7.4053855134516289e-02 
 7.5022840006433944e-02  7.6004503916874300e-02  7.6999012769374695e-02  7.8006534638298208e-02 
 7.9027239797238691e-02  8.0061300747797381e-02  8.1108892248736228e-02  8.2170191345511984e-02 
 8.3245377400198148e-02  8.4334632121796982e-02  8.5438139596949000e-02  8.6556086321043918e-02 
 8.7688661229738965e-02  8.8836055730889332e-02  8.9998463736896628e-02  9.1176081697480510e-02 
 9.2369108632879157e-02  9.3577746167484155e-02  9.4802198563915585e-02  9.6042672757542705e-02 
 9.7299378391456692e-02  9.8572527851900779e-02  9.9862336304163968e-02  1.0116902172894461e-01 
 1.0249280495918967e-01  1.0383390971741543e-01  1.0519256265351822e-01  1.0656899338307790e-01 
 1.0796343452616385e-01  1.0937612174664813e-01  1.1080729379203334e-01  1.1225719253380151e-01 
 1.1372606300829086e-01  1.1521415345810761e-01  1.1672171537407963e-01  1.1824900353775884e-01 
 1.1979627606448004e-01  1.2136379444698281e-01  1.2295182359960470e-01  1.2456063190305218e-01 
 1.2619049124975759e-01  1.2784167708982982e-01  1.2951446847760603e-01  1.3120914811881168e-01 
 1.3292600241833985e-01  1.3466532152865351e-01  1.3642739939882198e-01  1.3821253382419926e-01 
 1.4002102649675202e-01  1.4185318305604636e-01  1.4370931314090141e-01  1.4558973044171938e-01 
 1.4749475275349963e-01  1.4942470202954700e-01  1.5137990443588259e-01  1.5336069040636671e-01 
 1.5536739469854274e-01  1.5740035645021230e-01  1.5945991923674999e-01  1.6154643112916875e-01 
 1.6366024475294472e-01  1.6580171734761087e-01  1.6797121082713293e-01  1.7016909184107251e-01 
 1.7239573183655207e-01  1.7465150712103056e-01  1.7693679892590003e-01  1.7925199347091464e-01 
 1.8159748202946291e-01  1.8397366099469373e-01  1.8638093194650776e-01  1.8881970171942541e-01 
 1.9129038247134278e-01  1.9379339175318747e-01  1.9632915257948547e-01  1.9889809349985174e-01 
 2.0150064867141618e-01  2.0413725793219750e-01  2.0680836687543547e-01  2.0951442692489924e-01 
 2.1225589541117798e-01  2.1503323564897076e-01  2.1784691701538811e-01  2.2069741502927778e-01 
 2.2358521143158858e-01  2.2651079426678583e-01  2.2947465796533167e-01  2.3247730342724560e-01 
 2.3551923810675718e-01  2.3860097609806741e-01  2.4172303822223160e-01  2.4488595211517952e-01 
 2.4809025231688719e-01  2.5133648036171519e-01  2.5462518486992952e-01  2.5795692164041989e-01 
 2.6133225374462943e-01  2.6475175162171788e-01  2.6821599317496519e-01  2.7172556386943902e-01 
 2.7528105683094001e-01  2.7888307294624093e-01  2.8253222096463843e-01  2.8622911760083297e-01 
 2.8997438763915506e-01  2.9376866403915519e-01  2.9761258804257595e-01  3.0150680928172252e-01 
 3.0545198588925310e-01  3.0944878460940423e-01  3.1349788091067238e-01  3.1759995909996980e-01 
 3.2175571243827367e-01  3.2596584325778993e-01  3.3023106308064648e-01  3.3455209273914543e-01 
 3.3892966249758366e-01  3.4336451217566932e-01  3.4785739127355358e-01  3.5240905909849723e-01 
 3.5702028489319615e-01  3.6169184796578485e-01  3.6642453782154144e-01  3.7121915429631558e-01 
 3.7607650769170337e-01  3.8099741891198952e-01  3.8598271960288250e-01  3.9103325229206465e-01 
 3.9614987053158102e-01  4.0133343904209229e-01  4.0658483385901412e-01  4.1190494248057002e-01 
 4.1729466401777804e-01  4.2275490934640680e-01  4.2828660126091261e-01  4.3389067463039510e-01 
 4.3956807655659191e-01  4.4531976653394123e-01  4.5114671661173894e-01  4.5704991155841695e-01 
 4.6303034902797136e-01  4.6908903972856847e-01  4.7522700759335690e-01  4.8144528995351499e-01 
 4.8774493771356159e-01  4.9412701552896182e-01  5.0059260198605660e-01  5.0714278978434590e-01 
 5.1377868592115750e-01  5.2050141187873389e-01  5.2731210381376037e-01  5.3421191274938529e-01 
 5.4120200476974090e-01  5.4828356121701571e-01  5.5545777889110415e-01  5.6272587025186838e-01 
 5.7008906362404721e-01  5.7754860340484560e-01  5.8510575027424094e-01  5.9276178140804092e-01 
 6.0051799069372935e-01  6.0837568894913585e-01  6.1633620414396773e-01  6.2440088162423968e-01 
 6.3257108433964082e-01  6.4084819307387553e-01  6.4923360667802055e-01  6.5772874230693401e-01 
 6.6633503565875418e-01  6.7505394121754281e-01  6.8388693249909049e-01  6.9283550229994795e-01 
 7.0190116294970939e-01  7.1108544656660200e-01  7.2038990531641667e-01  7.2981611167482729e-01 
 7.3936565869314408e-01  7.4904016026754172e-01  7.5884125141181258e-01  7.6877058853368763e-01 
 7.7882984971477331e-01  7.8902073499415115e-01  7.9934496665568866e-01  8.0980428951910932e-01 
 8.2040047123487125e-01  8.3113530258290591e-01  8.4201059777525789e-01  8.5302819476270098e-01 
 8.6418995554534805e-01  8.7549776648733824e-01  8.8695353863563420e-01  8.9855920804299472e-01 
 9.1031673609517227e-01  9.2222810984239212e-01  9.3429534233516720e-01  9.4652047296451025e-01 
 9.5890556780659442e-01  9.7145271997192628e-01  9.8416404995908469e-01  9.9704170601309172e-01 
 1.0100878644884708e+00  1.0233047302170550e+00  1.0366945368806106e+00  1.0502595473883338e+00 
 1.0640020542592832e+00  1.0779243800098306e+00  1.0920288775461635e+00  1.1063179305619362e+00 
 1.1207939539411176e+00  1.1354593941661131e+00  1.1503167297312260e+00  1.1653684715615282e+00 
 1.1806171634372142e+00  1.1960653824235041e+00  1.2117157393061750e+00  1.2275708790327893e+00 
 1.2436334811596976e+00  1.2599062603048898e+00  1.2763919666067722e+00  1.2930933861889475e+00 
 1.3100133416310764e+00  1.3271546924459017e+00  1.3445203355625046e+00  1.3621132058159060e+00 
 1.3799362764430514e+00  1.3979925595852973e+00  1.4162851067974709e+00  1.4348170095635890e+00 
 1.4535913998193262e+00  1.4726114504813215e+00  1.4918803759834054e+00  1.5114014328198504e+00 
 1.5311779200957236e+00 
  </PP_RAB>
</PP_MESH>


<PP_LOCAL>
1.5770159371593101e+02 1.5770159370832525e+02 1.5770159370057684e+02 1.5770159369277349e+02 
1.5770159368452201e+02 1.5770159367632027e+02 1.5770159366789909e+02 1.5770159365913878e+02 
1.5770159365015084e+02 1.5770159364100920e+02 1.5770159363143503e+02 1.5770159362190842e+02 
1.5770159361174203e+02 1.5770159360152977e+02 1.5770159359112671e+02 1.5770159358026351e+02 
1.5770159356919189e+02 1.5770159355788297e+02 1.5770159354621970e+02 1.5770159353425711e+02 
1.5770159352207503e+02 1.5770159350937590e+02 1.5770159349635676e+02 1.5770159348323654e+02 
1.5770159346968401e+02 1.5770159345571494e+02 1.5770159344140964e+02 1.5770159342663769e+02 
1.5770159341154195e+02 1.5770159339602839e+02 1.5770159338001935e+02 1.5770159336368494e+02 
1.5770159334704891e+02 1.5770159332972801e+02 1.5770159331217883e+02 1.5770159329412760e+02 
1.5770159327544013e+02 1.5770159325636959e+02 1.5770159323676887e+02 1.5770159321667700e+02 
1.5770159319605960e+02 1.5770159317486213e+02 1.5770159315326362e+02 1.5770159313088169e+02 
1.5770159310789239e+02 1.5770159308438258e+02 1.5770159306029339e+02 1.5770159303557139e+02 
1.5770159301018225e+02 1.5770159298408259e+02 1.5770159295739833e+02 1.5770159292984033e+02 
1.5770159290169912e+02 1.5770159287280498e+02 1.5770159284306612e+02 1.5770159281256753e+02 
1.5770159278127207e+02 1.5770159274924049e+02 1.5770159271624226e+02 1.5770159268238552e+02 
1.5770159264777450e+02 1.5770159261211754e+02 1.5770159257553047e+02 1.5770159253799102e+02 
1.5770159249957305e+02 1.5770159245994139e+02 1.5770159241939373e+02 1.5770159237777253e+02 
1.5770159233499899e+02 1.5770159229126622e+02 1.5770159224618470e+02 1.5770159220002856e+02 
1.5770159215255777e+02 1.5770159210391864e+02 1.5770159205397621e+02 1.5770159200271161e+02 
1.5770159195004925e+02 1.5770159189607025e+02 1.5770159184068683e+02 1.5770159178376656e+02 
1.5770159172550348e+02 1.5770159166551690e+02 1.5770159160396992e+02 1.5770159154092326e+02 
1.5770159147614967e+02 1.5770159140957162e+02 1.5770159134146843e+02 1.5770159127138146e+02 
1.5770159119951040e+02 1.5770159112578995e+02 1.5770159105005024e+02 1.5770159097232244e+02 
1.5770159089253360e+02 1.5770159081070386e+02 1.5770159072674215e+02 1.5770159064046203e+02 
1.5770159055197570e+02 1.5770159046121597e+02 1.5770159036795565e+02 1.5770159027224136e+02 
1.5770159017407664e+02 1.5770159007333086e+02 1.5770158996990082e+02 1.5770158986374045e+02 
1.5770158975477369e+02 1.5770158964293830e+02 1.5770158952815885e+02 1.5770158941041066e+02 
1.5770158928949050e+02 1.5770158916541925e+02 1.5770158903805972e+02 1.5770158890733077e+02 
1.5770158877324960e+02 1.5770158863550222e+02 1.5770158849422765e+02 1.5770158834918837e+02 
1.5770158820036266e+02 1.5770158804758847e+02 1.5770158789080168e+02 1.5770158772987040e+02 
1.5770158756474257e+02 1.5770158739521133e+02 1.5770158722121721e+02 1.5770158704261422e+02 
1.5770158685937437e+02 1.5770158667131179e+02 1.5770158647824130e+02 1.5770158628009273e+02 
1.5770158607675339e+02 1.5770158586803998e+02 1.5770158565384750e+02 1.5770158543401428e+02 
1.5770158520834534e+02 1.5770158497675601e+02 1.5770158473904138e+02 1.5770158449513320e+02 
1.5770158424477975e+02 1.5770158398778972e+02 1.5770158372407798e+02 1.5770158345338064e+02 
1.5770158317559452e+02 1.5770158289043238e+02 1.5770158259781863e+02 1.5770158229745184e+02 
1.5770158198919438e+02 1.5770158167281971e+02 1.5770158134811990e+02 1.5770158101484475e+02 
1.5770158067275929e+02 1.5770158032172233e+02 1.5770157996139443e+02 1.5770157959162447e+02 
1.5770157921209389e+02 1.5770157882254844e+02 1.5770157842273954e+02 1.5770157801240762e+02 
1.5770157759126943e+02 1.5770157715904861e+02 1.5770157671545167e+02 1.5770157626013514e+02 
1.5770157579284034e+02 1.5770157531322741e+02 1.5770157482100149e+02 1.5770157431580662e+02 
1.5770157379729562e+02 1.5770157326512694e+02 1.5770157271893538e+02 1.5770157215836699e+02 
1.5770157158302121e+02 1.5770157099251483e+02 1.5770157038644126e+02 1.5770156976445264e+02 
1.5770156912604619e+02 1.5770156847081358e+02 1.5770156779833047e+02 1.5770156710814661e+02 
1.5770156639977785e+02 1.5770156567273213e+02 1.5770156492653999e+02 1.5770156416073041e+02 
1.5770156337470095e+02 1.5770156256797682e+02 1.5770156174000400e+02 1.5770156089023263e+02 
1.5770156001806023e+02 1.5770155912291284e+02 1.5770155820419487e+02 1.5770155726127024e+02 
1.5770155629351453e+02 1.5770155530025082e+02 1.5770155428085431e+02 1.5770155323455191e+02 
1.5770155216073167e+02 1.5770155105860675e+02 1.5770154992745393e+02 1.5770154876651270e+02 
1.5770154757498821e+02 1.5770154635205438e+02 1.5770154509692020e+02 1.5770154380873535e+02 
1.5770154248660339e+02 1.5770154112963999e+02 1.5770153973695110e+02 1.5770153830755356e+02 
1.5770153684050373e+02 1.5770153533481459e+02 1.5770153378946443e+02 1.5770153220339125e+02 
1.5770153057556547e+02 1.5770152890483516e+02 1.5770152719010591e+02 1.5770152543018611e+02 
1.5770152362392503e+02 1.5770152177008137e+02 1.5770151986739498e+02 1.5770151791459358e+02 
1.5770151591034264e+02 1.5770151385330158e+02 1.5770151174208041e+02 1.5770150957523407e+02 
1.5770150735130144e+02 1.5770150506879276e+02 1.5770150272614990e+02 1.5770150032180234e+02 
1.5770149785411317e+02 1.5770149532143341e+02 1.5770149272201323e+02 1.5770149005413955e+02 
1.5770148731596575e+02 1.5770148450566862e+02 1.5770148162133853e+02 1.5770147866102954e+02 
1.5770147562273658e+02 1.5770147250439933e+02 1.5770146930392596e+02 1.5770146601914260e+02 
1.5770146264781383e+02 1.5770145918768125e+02 1.5770145563641037e+02 1.5770145199157179e+02 
1.5770144825072558e+02 1.5770144441133408e+02 1.5770144047079137e+02 1.5770143642643839e+02 
1.5770143227556110e+02 1.5770142801532461e+02 1.5770142364286488e+02 1.5770141915521120e+02 
1.5770141454935077e+02 1.5770140982215216e+02 1.5770140497042109e+02 1.5770139999087243e+02 
1.5770139488013882e+02 1.5770138963479243e+02 1.5770138425124600e+02 1.5770137872589146e+02 
1.5770137305495820e+02 1.5770136723464910e+02 1.5770136126101357e+02 1.5770135512999539e+02 
1.5770134883747133e+02 1.5770134237917890e+02 1.5770133575074112e+02 1.5770132894769074e+02 
1.5770132196542201e+02 1.5770131479921702e+02 1.5770130744421607e+02 1.5770129989545012e+02 
1.5770129214783739e+02 1.5770128419610427e+02 1.5770127603489144e+02 1.5770126765868358e+02 
1.5770125906179862e+02 1.5770125023844460e+02 1.5770124118264656e+02 1.5770123188826665e+02 
1.5770122234904196e+02 1.5770121255850790e+02 1.5770120251004295e+02 1.5770119219685913e+02 
1.5770118161198269e+02 1.5770117074824273e+02 1.5770115959830295e+02 1.5770114815461775e+02 
1.5770113640945294e+02 1.5770112435486439e+02 1.5770111198269555e+02 1.5770109928458197e+02 
1.5770108625193558e+02 1.5770107287594334e+02 1.5770105914755553e+02 1.5770104505749504e+02 
1.5770103059622417e+02 1.5770101575396578e+02 1.5770100052068977e+02 1.5770098488608110e+02 
1.5770096883956745e+02 1.5770095237030543e+02 1.5770093546714907e+02 1.5770091811866561e+02 
1.5770090031312202e+02 1.5770088203847874e+02 1.5770086328237863e+02 1.5770084403213110e+02 
1.5770082427471201e+02 1.5770080399676814e+02 1.5770078318457035e+02 1.5770076182406069e+02 
1.5770073990077614e+02 1.5770071739989677e+02 1.5770069430619986e+02 1.5770067060406558e+02 
1.5770064627746328e+02 1.5770062130993546e+02 1.5770059568460078e+02 1.5770056938411517e+02 
1.5770054239070348e+02 1.5770051468609637e+02 1.5770048625155761e+02 1.5770045706785316e+02 
1.5770042711524411e+02 1.5770039637346645e+02 1.5770036482172847e+02 1.5770033243868204e+02 
1.5770029920242814e+02 1.5770026509048273e+02 1.5770023007976721e+02 1.5770019414660263e+02 
1.5770015726667933e+02 1.5770011941505186e+02 1.5770008056610655e+02 1.5770004069357512e+02 
1.5769999977047667e+02 1.5769995776912549e+02 1.5769991466111014e+02 1.5769987041727038e+02 
1.5769982500767492e+02 1.5769977840159976e+02 1.5769973056751613e+02 1.5769968147306369e+02 
1.5769963108503327e+02 1.5769957936932522e+02 1.5769952629096076e+02 1.5769947181402409e+02 
1.5769941590166337e+02 1.5769935851604583e+02 1.5769929961834811e+02 1.5769923916872062e+02 
1.5769917712626571e+02 1.5769911344900649e+02 1.5769904809385807e+02 1.5769898101659848e+02 
1.5769891217184863e+02 1.5769884151302020e+02 1.5769876899231099e+02 1.5769869456064444e+02 
1.5769861816766112e+02 1.5769853976166894e+02 1.5769845928961638e+02 1.5769837669704577e+02 
1.5769829192807759e+02 1.5769820492534501e+02 1.5769811562997577e+02 1.5769802398154357e+02 
1.5769792991803268e+02 1.5769783337578829e+02 1.5769773428948116e+02 1.5769763259205263e+02 
1.5769752821468444e+02 1.5769742108673850e+02 1.5769731113571908e+02 1.5769719828721207e+02 
1.5769708246484930e+02 1.5769696359024368e+02 1.5769684158294285e+02 1.5769671636037239e+02 
1.5769658783778465e+02 1.5769645592819322e+02 1.5769632054231570e+02 1.5769618158852515e+02 
1.5769603897276829e+02 1.5769589259851739e+02 1.5769574236669976e+02 1.5769558817562654e+02 
1.5769542992092940e+02 1.5769526749549121e+02 1.5769510078936307e+02 1.5769492968970366e+02 
1.5769475408069317e+02 1.5769457384345395e+02 1.5769438885598200e+02 1.5769419899304793e+02 
1.5769400412612080e+02 1.5769380412328744e+02 1.5769359884914601e+02 1.5769338816473064e+02 
1.5769317192740766e+02 1.5769294999078033e+02 1.5769272220459402e+02 1.5769248841463073e+02 
1.5769224846260286e+02 1.5769200218605039e+02 1.5769174941822860e+02 1.5769148998798974e+02 
1.5769122371968112e+02 1.5769095043300902e+02 1.5769066994292709e+02 1.5769038205950838e+02 
1.5769008658781573e+02 1.5768978332776874e+02 1.5768947207401277e+02 1.5768915261577553e+02 
1.5768882473672093e+02 1.5768848821480785e+02 1.5768814282214043e+02 1.5768778832481081e+02 
1.5768742448273613e+02 1.5768705104950553e+02 1.5768666777220400e+02 1.5768627439124595e+02 
1.5768587064019616e+02 1.5768545624559096e+02 1.5768503092675473e+02 1.5768459439560175e+02 
1.5768414635645021e+02 1.5768368650581468e+02 1.5768321453220284e+02 1.5768273011590369e+02 
1.5768223292877360e+02 1.5768172263400680e+02 1.5768119888591306e+02 1.5768066132967968e+02 
1.5768010960113213e+02 1.5767954332648941e+02 1.5767896212210152e+02 1.5767836559420093e+02 
1.5767775333862474e+02 1.5767712494054888e+02 1.5767647997420033e+02 1.5767581800257091e+02 
1.5767513857711913e+02 1.5767444123746924e+02 1.5767372551109355e+02 1.5767299091299432e+02 
1.5767223694537591e+02 1.5767146309730416e+02 1.5767066884436147e+02 1.5766985364828761e+02 
1.5766901695661946e+02 1.5766815820230988e+02 1.5766727680334799e+02 1.5766637216236109e+02 
1.5766544366620832e+02 1.5766449068556702e+02 1.5766351257450364e+02 1.5766250867003382e+02 
1.5766147829167610e+02 1.5766042074098570e+02 1.5765933530108282e+02 1.5765822123616286e+02 
1.5765707779100148e+02 1.5765590419043676e+02 1.5765469963884661e+02 1.5765346331960399e+02 
1.5765219439452781e+02 1.5765089200330925e+02 1.5764955526292968e+02 1.5764818326705876e+02 
1.5764677508544165e+02 1.5764532976326632e+02 1.5764384632051292e+02 1.5764232375129097e+02 
1.5764076102315485e+02 1.5763915707640251e+02 1.5763751082335546e+02 1.5763582114762150e+02 
1.5763408690333515e+02 1.5763230691437880e+02 1.5763047997358669e+02 1.5762860484192171e+02 
1.5762668024763508e+02 1.5762470488540563e+02 1.5762267741544670e+02 1.5762059646260423e+02 
1.5761846061541578e+02 1.5761626842515838e+02 1.5761401840485831e+02 1.5761170902828653e+02 
1.5760933872892122e+02 1.5760690589888205e+02 1.5760440888783995e+02 1.5760184600189825e+02 
1.5759921550243976e+02 1.5759651560494848e+02 1.5759374447779695e+02 1.5759090024100450e+02 
1.5758798096496091e+02 1.5758498466911544e+02 1.5758190932063386e+02 1.5757875283301942e+02 
1.5757551306469639e+02 1.5757218781755702e+02 1.5756877483547029e+02 1.5756527180275285e+02 
1.5756167634259592e+02 1.5755798601545550e+02 1.5755419831739675e+02 1.5755031067839664e+02 
1.5754632046060101e+02 1.5754222495653735e+02 1.5753802138727912e+02 1.5753370690056252e+02 
1.5752927856885296e+02 1.5752473338736345e+02 1.5752006827201643e+02 1.5751528005735835e+02 
1.5751036549441247e+02 1.5750532124848235e+02 1.5750014389689244e+02 1.5749482992667120e+02 
1.5748937573217637e+02 1.5748377761265388e+02 1.5747803176973392e+02 1.5747213430486519e+02 
1.5746608121667632e+02 1.5745986839827341e+02 1.5745349163446352e+02 1.5744694659890769e+02 
1.5744022885119969e+02 1.5743333383386678e+02 1.5742625686929475e+02 1.5741899315657059e+02 
1.5741153776824541e+02 1.5740388564700990e+02 1.5739603160228768e+02 1.5738797030673550e+02 
1.5737969629265623e+02 1.5737120394831723e+02 1.5736248751417159e+02 1.5735354107898638e+02 
1.5734435857586408e+02 1.5733493377816671e+02 1.5732526029533204e+02 1.5731533156858018e+02 
1.5730514086651311e+02 1.5729468128059844e+02 1.5728394572053563e+02 1.5727292690950634e+02 
1.5726161737929860e+02 1.5725000946530918e+02 1.5723809530141477e+02 1.5722586681471483e+02 
1.5721331572013591e+02 1.5720043351490065e+02 1.5718721147285535e+02 1.5717364063865062e+02 
1.5715971182177566e+02 1.5714541559044011e+02 1.5713074226529974e+02 1.5711568191302243e+02 
1.5710022433969260e+02 1.5708435908404684e+02 1.5706807541053908e+02 1.5705136230223053e+02 
1.5703420845350027e+02 1.5701660226257326e+02 1.5699853182385777e+02 1.5697998492009444e+02 
1.5696094901430496e+02 1.5694141124154203e+02 1.5692135840043250e+02 1.5690077694450929e+02 
1.5687965297332897e+02 1.5685797222336825e+02 1.5683572005869550e+02 1.5681288146141185e+02 
1.5678944102185662e+02 1.5676538292857174e+02 1.5674069095802145e+02 1.5671534846405876e+02 
1.5668933836713646e+02 1.5666264314325420e+02 1.5663524481264000e+02 1.5660712492815517e+02 
1.5657826456342110e+02 1.5654864430066095e+02 1.5651824421824949e+02 1.5648704387796678e+02 
1.5645502231194578e+02 1.5642215800931450e+02 1.5638842890251996e+02 1.5635381235333134e+02 
1.5631828513851468e+02 1.5628182343517449e+02 1.5624440280575408e+02 1.5620599818268863e+02 
1.5616658385270608e+02 1.5612613344076786e+02 1.5608461989364380e+02 1.5604201546311455e+02 
1.5599829168879540e+02 1.5595341938057541e+02 1.5590736860066511e+02 1.5586010864524539e+02 
1.5581160802571495e+02 1.5576183444952525e+02 1.5571075480060151e+02 1.5565833511934062e+02 
1.5560454058218116e+02 1.5554933548074067e+02 1.5549268320051317e+02 1.5543454619912242e+02 
1.5537488598412543e+02 1.5531366309036110e+02 1.5525083705684000e+02 1.5518636640316933e+02 
1.5512020860551070e+02 1.5505232007206422e+02 1.5498265611807921e+02 1.5491117094038395e+02 
1.5483781759143520e+02 1.5476254795288315e+02 1.5468531270865100e+02 1.5460606131752684e+02 
1.5452474198526832e+02 1.5444130163621895e+02 1.5435568588443732e+02 1.5426783900433895e+02 
1.5417770390085516e+02 1.5408522207910966e+02 1.5399033361361711e+02 1.5389297711700854e+02 
1.5379308970828924e+02 1.5369060698063532e+02 1.5358546296873652e+02 1.5347759011569511e+02 
1.5336691923949095e+02 1.5325337949902331e+02 1.5313689835974355e+02 1.5301740155889379e+02 
1.5289481307036576e+02 1.5276905506920076e+02 1.5264004789574784e+02 1.5250771001950406e+02 
1.5237195800265940e+02 1.5223270646337357e+02 1.5208986803881237e+02 1.5194335334797424e+02 
1.5179307095434146e+02 1.5163892732839147e+02 1.5148082681000761e+02 1.5131867157083084e+02 
1.5115236157659902e+02 1.5098179454952066e+02 1.5080686593073727e+02 1.5062746884292841e+02 
1.5044349405312022e+02 1.5025482993576145e+02 1.5006136243613477e+02 1.4986297503417620e+02 
1.4965954870877991e+02 1.4945096190267139e+02 1.4923709048793589e+02 1.4901780773229530e+02 
1.4879298426623239e+02 1.4856248805106637e+02 1.4832618434809083e+02 1.4808393568889173e+02 
1.4783560184696745e+02 1.4758103981078392e+02 1.4732010375840116e+02 1.4705264503381775e+02 
1.4677851212518587e+02 1.4649755064505914e+02 1.4620960331284240e+02 1.4591450993962300e+02 
1.4561210741556977e+02 1.4530222970009817e+02 1.4498470781500720e+02 1.4465936984080454e+02 
1.4432604091644731e+02 1.4398454324273436e+02 1.4363469608959920e+02 1.4327631580756196e+02 
1.4290921584361067e+02 1.4253320676179393e+02 1.4214809626881848e+02 1.4175368924495743e+02 
1.4134978778058706e+02 1.4093619121868286e+02 1.4051269620361688e+02 1.4007909673661322e+02 
1.3963518423822890e+02 1.3918074761824201e+02 1.3871557335334009e+02 1.3823944557301752e+02 
1.3775214615409888e+02 1.3725345482432226e+02 1.3674314927542542e+02 1.3622100528619180e+02 
1.3568679685592446e+02 1.3514029634882630e+02 1.3458127464977673e+02 1.3400950133200556e+02 
1.3342474483717083e+02 1.3282677266836083e+02 1.3221535159654300e+02 1.3159024788099239e+02 
1.3095122750423459e+02 1.3029805642204406e+02 1.2963050082903916e+02 1.2894832744041616e+02 
1.2825130379036182e+02 1.2753919854768269e+02 1.2681178184918011e+02 1.2606882565129318e+02 
1.2531010410051965e+02 1.2453539392311023e+02 1.2374447483451378e+02 1.2293712996902961e+02 
1.2211314633009788e+02 1.2127231526162873e+02 1.2041443294073846e+02 1.1953930089222143e+02 
1.1864672652504223e+02 1.1773652369108545e+02 1.1680851326634412e+02 1.1586252375466731e+02 
1.1489839191412132e+02 1.1391596340594459e+02 1.1291509346599473e+02 1.1189564759850032e+02 
1.1085750229183239e+02 1.0980054575590765e+02 1.0872467868072380e+02 1.0762981501540693e+02 
1.0651588276702188e+02 1.0538282481825789e+02 1.0423059976295701e+02 1.0305918275829295e+02 
1.0186856639224655e+02 1.0065876156484568e+02 9.9429798381455981e+01 9.8181727056213774e+01 
9.6914618823491665e+01 9.5628566855075434e+01 9.4323687180512692e+01 9.3000119607866907e+01 
9.1658028641874211e+01 9.0297604396264617e+01 8.8919063496758710e+01 8.7522649971003176e+01 
8.6108636121454111e+01 8.4677323376961880e+01 8.3229043118554799e+01 8.1764157474665694e+01 
8.0283060080792083e+01 7.8786176798337380e+01 7.7273966387141115e+01 7.5746921125978815e+01 
7.4205567375098269e+01 7.2650466074659619e+01 7.1082213172769201e+01 6.9501439976639048e+01 
6.7908813420275010e+01 6.6305036241998167e+01 6.4690847065032301e+01 6.3067020374372724e+01 
6.1434366383156735e+01 5.9793730781823008e+01 5.8145994363457987e+01 5.6492072518895441e+01 
5.4832914595362915e+01 5.3169503112760104e+01 5.1502852832013509e+01 4.9834009670383175e+01 
4.8164049459102799e+01 4.6494076539319749e+01 4.4825222192966649e+01 4.3158642905943914e+01 
4.1495518461826400e+01 3.9837049865222696e+01 3.8184457094918649e+01 3.6538976688022345e+01 
3.4901859157487849e+01 3.3274366246646082e+01 3.1657768025676798e+01 3.0053339836341262e+01 
2.8462359092730182e+01 2.6886101947269164e+01 2.5325839832746727e+01 2.3782835892679405e+01 
2.2258341313886902e+01 2.0753591576704959e+01 1.9269802639795106e+01 1.7808167078000309e+01 
1.6369850193124005e+01 1.4955986118855391e+01 1.3567673942303324e+01 1.2205973865712194e+01 
1.0871903432891607e+01 9.5664338456749967e+00 8.2904863963020627e+00 7.0449290419862374e+00 
5.8305731480389094e+00 4.6481704257783880e+00 3.4984100910217659e+00 2.3819162682313277e+00 
1.2992456643538279e+00 2.5088553503830324e-01 -7.6274803575207117e-01 -1.7413115237109862e+00 
-2.6845350030231381e+00 -3.5922228219481447e+00 -4.4642539039295110e+00 -5.3005816661534464e+00 
-6.1012335508615436e+00 -6.8663101682938352e+00 -7.5959840538651004e+00 -8.2904980460059825e+00 
-8.9501632949865435e+00 -9.5753569169153714e+00 -1.0166519310927193e+01 -1.0724151161260364e+01 
-1.1248810149428140e+01 -1.1741107404937113e+01 -1.2201703725942485e+01 -1.2631305603793498e+01 
-1.3030661087559363e+01 -1.3400555526289041e+01 -1.3741807227904566e+01 -1.4055263074227398e+01 
-1.4341794131667017e+01 -1.4602291296549435e+01 -1.4837661012932529e+01 -1.5048821099055203e+01 
-1.5236696716326467e+01 -1.5402216512012458e+01 -1.5546308963576479e+01 -1.5669898949024729e+01 
-1.5773904563682327e+01 -1.5859234199643184e+01 -1.5926783899789529e+01 -1.5977434993848906e+01 
-1.6012052019537769e+01 -1.6031480927520935e+01 -1.6036547564782406e+01 -1.6028056427136363e+01 
-1.6006789668083915e+01 -1.5973506348106817e+01 -1.5928941905840162e+01 -1.5873807830425704e+01 
-1.5808791512747458e+01 -1.5734556252208677e+01 -1.5651741395228351e+01 -1.5560962581706304e+01 
-1.5462812076304983e+01 -1.5357859162489222e+01 -1.5246650578803946e+01 -1.5129710978799128e+01 
-1.5007543398265343e+01 -1.4880629715950306e+01 -1.4749431096611348e+01 -1.4614388408040391e+01 
-1.4475922606497885e+01 -1.4334435087730791e+01 -1.4190308003352170e+01 -1.4043904544755488e+01 
-1.3895569198863123e+01 -1.3745627981810877e+01 -1.3594388658105609e+01 -1.3442140953829625e+01 
-1.3289156773084290e+01 -1.3135690427062322e+01 -1.2981978884921169e+01 -1.2828242055023701e+01 
-1.2674683104150917e+01 -1.2521488821024517e+01 -1.2368830028962195e+01 -1.2216862050791891e+01 
-1.2065725227344643e+01 -1.1915545489003378e+01 -1.1766434977979944e+01 -1.1618492717295565e+01 
-1.1471805320913086e+01 -1.1326447738167259e+01 -1.1182484024604408e+01 -1.1039968130604484e+01 
-1.0898944698732535e+01 -1.0759449860654723e+01 -1.0621512024644003e+01 -1.0485152645168784e+01 
-1.0350386966768657e+01 -1.0217224735333717e+01 -1.0085670870966963e+01 -9.9557260977739581e+00 
-9.8273875271372688e+00 -9.7006491922465798e+00 -9.5755025328238315e+00 -9.4519368300681919e+00 
-9.3299395928166469e+00 -9.2094968967505668e+00 -9.0905936791619020e+00 -8.9732139923193071e+00 
-8.8573412188456508e+00 -8.7429582527421807e+00 -8.6300476497845082e+00 -8.5185917509882252e+00 
-8.4085727827174068e+00 -8.2999729368077393e+00 -8.1927744338179753e+00 -8.0869595722290786e+00 
-7.9825107660958725e+00 -7.8794105733376476e+00 -7.7776417165435543e+00 -7.6771870978753460e+00 
-7.5780298093809160e+00 -7.4801531397910983e+00 -7.3835405786615445e+00 -7.2881758185410854e+00 
-7.1940427556968780e+00 -7.1011254898023379e+00 -7.0094083228937256e+00 -6.9188757578221241e+00 
-6.8295124963659628e+00 -6.7413034371225455e+00 -6.6542336732619214e+00 -6.5682884902008931e+00 
-6.4834533632361540e+00 -6.3997139551629090e+00 -6.3170561138957950e+00 -6.2354658701030772e+00 
-6.1549294348608017e+00 -6.0754331973309528e+00 -5.9969637224659440e+00 -5.9195077487406627e+00 
-5.8430521859126250e+00 -5.7675841128104395e+00 -5.6930907751504520e+00 -5.6195595833814513e+00 
-5.5469781105570837e+00 -5.4753340902357248e+00 -5.4046154144074308e+00 -5.3348101314476741e+00 
-5.2659064440974861e+00 -5.1978927074697268e+00 -5.1307574270810159e+00 -5.0644892569091819e+00 
-4.9990769974757399e+00 -4.9345095939531580e+00 -4.8707761342965625e+00 -4.8078658473995830e+00 
-4.7457681012740007e+00 -4.6844724012529193e+00 -4.6239683882171478e+00 -4.5642458368444769e+00 
-4.5052946538815801e+00 -4.4471048764382264e+00 -4.3896666703035301e+00 -4.3329703282839453e+00 
-4.2770062685627304e+00 -4.2217650330805911e+00 -4.1672372859372446e+00 -4.1134138118136567e+00 
-4.0602855144145868e+00 -4.0078434149313269e+00 -3.9560786505242445e+00 -3.9049824728249511e+00 
-3.8545462464578004e+00 -3.8047614475804945e+00 -3.7556196624435301e+00 -3.7071125859682565e+00 
-3.6592320203432980e+00 -3.6119698736391048e+00 -3.5653181584403932e+00 -3.5192689904962604e+00 
-3.4738145873877224e+00 -3.4289472672124672e+00 -3.3846594472865981e+00 -3.3409436428631363e+00 
-3.2977924658670821e+00 -3.2551986236468302e+00 -3.2131549177416625e+00 -3.1716542426652126e+00 
-3.1306895847046166e+00 -3.0902540207351805e+00 -3.0503407170503518e+00 -3.0109429282068101e+00 
-2.9720539958844712e+00 -2.9336673477612134e+00 -2.8957764964021391e+00 -2.8583750381631847e+00 
-2.8214566521088882e+00 -2.7850150989441391e+00 -2.7490442199597167e+00 -2.7135379359914582e+00 
-2.6784902463928657e+00 -2.6438952280209786e+00 -2.6097470342353493e+00 -2.5760398939099609e+00 
-2.5427681104578674e+00 -2.5099260608684753e+00 -2.4775081947572368e+00 -2.4455090334276215e+00 
-2.4139231689452041e+00 -2.3827452632237081e+00 -2.3519700471228617e+00 -2.3215923195578951e+00 
-2.2916069466205484e+00 -2.2620088607114268e+00 -2.2327930596835648e+00 -2.2039546059970530e+00 
-2.1754886258845803e+00 -2.1473903085277550e+00 -2.1196549052440679e+00 -2.0922777286843504e+00 
-2.0652541520406005e+00 -2.0385796082640537e+00 -2.0122495892933205e+00 -1.9862596452925261e+00 
-1.9606053838992770e+00 -1.9352824694823372e+00 -1.9102866224088986e+00 -1.8856136183213146e+00 
-1.8612592874231697e+00 -1.8372195137745764e+00 -1.8134902345965715e+00 -1.7900674395844953e+00 
-1.7669471702302428e+00 -1.7441255191532641e+00 -1.7215986294402097e+00 -1.6993626939931021e+00 
-1.6774139548859273e+00 -1.6557487027295323e+00 -1.6343632760447437e+00 -1.6132540606435499e+00 
-1.5924174890183049e+00 -1.5718500397388118e+00 -1.5515482368571898e+00 -1.5315086493204317e+00 
-1.5117278903905478e+00 -1.4922026170721978e+00 -1.4729295295477203e+00 -1.4539053706194507e+00 
-1.4351269251592513e+00 -1.4165910195651445e+00 -1.3982945212249682e+00 -1.3802343379869551e+00 
-1.3624074176371530e+00 -1.3448107473835931e+00 -1.3274413533471203e+00 -1.3102963000587999e+00 
-1.2933726899638240e+00 -1.2766676629318039e+00 -1.2601783957734118e+00 -1.2439021017632519e+00 
-1.2278360301688973e+00 -1.2119774657860098e+00 -1.1963237284794639e+00 -1.1808721727303970e+00 
-1.1656201871891116e+00 -1.1505651942337505e+00 -1.1357046495346705e+00 -1.1210360416244494e+00 
-1.1065568914734367e+00 -1.0922647520707958e+00 -1.0781572080109505e+00 -1.0642318750853772e+00 
-1.0504863998796685e+00 -1.0369184593757967e+00 -1.0235257605595276e+00 -1.0103060400328834e+00 
-9.9725706363163091e-01 -9.8437662604770060e-01 -9.7166255045648353e-01 -9.5911268814894468e-01 
-9.4672491816848403e-01 -9.3449714695249075e-01 -9.2242730797852579e-01 -9.1051336141507577e-01 
-8.9875329377681468e-01 -8.8714511758432157e-01 -8.7568687102819154e-01 -8.6437661763748463e-01 
-8.5321244595245849e-01 -8.4219246920152646e-01 -8.3131482498238896e-01 -8.2057767494728173e-01 
-8.0997920449229643e-01 -7.9951762245069913e-01 -7.8919116079022522e-01 -7.7899807431427626e-01 
-7.6893664036697718e-01 -7.5900515854204376e-01 -7.4920195039540960e-01 -7.3952535916156537e-01 
-7.2997374947356131e-01 -7.2054550708662635e-01 -7.1123903860535731e-01 -7.0205277121442999e-01 
-6.9298515241279157e-01 -6.8403464975128259e-01 -6.7519975057365023e-01 -6.6647896176090549e-01 
-6.5787080947898280e-01 -6.4937383892965705e-01 -6.4098661410468416e-01 -6.3270771754310517e-01 
-6.2453575009169637e-01 -6.1646933066850873e-01 -6.0850709602946063e-01 -6.0064770053794714e-01 
-5.9288981593742440e-01 -5.8523213112693018e-01 -5.7767335193950553e-01 -5.7021220092347702e-01 
-5.6284741712656472e-01 -5.5557775588277825e-01 -5.4840198860206468e-01 -5.4131890256267468e-01 
-5.3432730070620904e-01 -5.2742600143531360e-01 -5.2061383841398545e-01 -5.1388966037045980e-01 
-5.0725233090264477e-01 -5.0070072828606171e-01 -4.9423374528427544e-01 -4.8785028896176613e-01 
-4.8154928049922235e-01 -4.7532965501121682e-01 -4.6919036136623865e-01 -4.6313036200904989e-01 
-4.5714863278533568e-01 -4.5124416276862028e-01 -4.4541595408941742e-01 -4.3966302176658878e-01 
-4.3398439354087925e-01 -4.2837910971060283e-01 -4.2284622296945135e-01 -4.1738479824639657e-01 
-4.1199391254766166e-01 -4.0667265480073195e-01 -4.0142012570038460e-01 -3.9623543755669915e-01 
-3.9111771414503965e-01 -3.8606609055796864e-01 -3.8107971305907645e-01 -3.7615773893869792e-01 
-3.7129933637149187e-01 -3.6650368427586083e-01 -3.6176997217518669e-01 -3.5709740006085772e-01 
-3.5248517825706543e-01 -3.4793252728734730e-01 -3.4343867774285386e-01 -3.3900287015231623e-01 
-3.3462435485369396e-01 -3.3030239186748034e-01 -3.2603625077164389e-01 -3.2182521057818519e-01 
-3.1766855961128987e-01 -3.1356559538705070e-01 -3.0951562449474845e-01 -3.0551796247966295e-01 
-3.0157193372739882e-01 -2.9767687134970500e-01 -2.9383211707176898e-01 -2.9003702112096702e-01 
-2.8629094211705058e-01 -2.8259324696375215e-01 -2.7894331074178985e-01 -2.7534051660325493e-01 
-2.7178425566736308e-01 -2.6827392691755181e-01 -2.6480893709990749e-01 -2.6138870062290398e-01 
-2.5801263945843605e-01 -2.5468018304413126e-01 -2.5139076818692485e-01 -2.4814383896787637e-01 
-2.4493884664821977e-01 -2.4177524957662494e-01 -2.3865251309765703e-01 -2.3557010946141860e-01 
-2.3252751773435892e-01 -2.2952422371123427e-01 -2.2655971982820669e-01 -2.2363350507706409e-01 
-2.2074508492054892e-01 
</PP_LOCAL>


<PP_NONLOCAL>
  <PP_BETA>
  1  1      Beta    L
  1189  
 -5.9583796018758669e-11  -6.1153289725591817e-11  -6.2764125385623170e-11  -6.4417391985129092e-11 
 -6.6114207195318291e-11  -6.7855718127920194e-11  -6.9643102110676274e-11  -7.1477567483258371e-11 
 -7.3360354414152586e-11  -7.5292735739060326e-11  -7.7276017821383949e-11  -7.9311541435378101e-11 
 -8.1400682672564572e-11  -8.3544853872022416e-11  -8.5745504575182989e-11  -8.8004122505775793e-11 
 -9.0322234575585902e-11  -9.2701407916704798e-11  -9.5143250940971929e-11  -9.7649414427321651e-11 
 -1.0022159263777362e-10  -1.0286152446281825e-10  -1.0557099459697295e-10  -1.0835183474530408e-10 
 -1.1120592486172959e-10  -1.1413519441993911e-10  -1.1714162371779237e-10  -1.2022724521607598e-10 
 -1.2339414491252475e-10  -1.2664446375203535e-10  -1.2998039907402784e-10  -1.3340420609793013e-10 
 -1.3691819944779268e-10  -1.4052475471706334e-10  -1.4422631007457866e-10  -1.4802536791285975e-10 
 -1.5192449653982480e-10  -1.5592633191506383e-10  -1.6003357943184814e-10  -1.6424901574607915e-10 
 -1.6857549065341449e-10  -1.7301592901583850e-10  -1.7757333273898165e-10  -1.8225078280152216e-10 
 -1.8705144133804668e-10  -1.9197855377677383e-10  -1.9703545103358719e-10  -2.0222555176386413e-10 
 -2.0755236467361481e-10  -2.1301949089150389e-10  -2.1863062640335047e-10  -2.2438956455075657e-10 
 -2.3030019859555065e-10  -2.3636652435178251e-10  -2.4259264288704641e-10  -2.4898276329495981e-10 
 -2.5554120554067158e-10  -2.6227240338132549e-10  -2.6918090736344763e-10  -2.7627138789929300e-10 
 -2.8354863842422172e-10  -2.9101757863724581e-10  -2.9868325782693360e-10  -3.0655085828492356e-10 
 -3.1462569880935292e-10  -3.2291323830056651e-10  -3.3141907945154779e-10  -3.4014897253554895e-10 
 -3.4910881929350159e-10  -3.5830467692381700e-10  -3.6774276217728677e-10  -3.7742945555984391e-10 
 -3.8737130564603230e-10  -3.9757503350609227e-10  -4.0804753724966577e-10  -4.1879589668918124e-10 
 -4.2982737812608060e-10  -4.4114943926311909e-10  -4.5276973424605831e-10  -4.6469611883816645e-10 
 -4.7693665573101259e-10  -4.8949961999516035e-10  -5.0239350467443470e-10  -5.1562702652754522e-10 
 -5.2920913192095402e-10  -5.4314900287696201e-10  -5.5745606328111218e-10  -5.7213998525309999e-10 
 -5.8721069568550058e-10  -6.0267838295473097e-10  -6.1855350380878806e-10  -6.3484679043641109e-10 
 -6.5156925772246103e-10  -6.6873221069440980e-10  -6.8634725216497120e-10  -7.0442629057605595e-10 
 -7.2298154804934247e-10  -7.4202556864889920e-10  -7.6157122686146426e-10  -7.8163173630009424e-10 
 -8.0222065863708438e-10  -8.2335191277218186e-10  -8.4503978424230492e-10  -8.6729893487912410e-10 
 -8.9014441272102891e-10  -9.1359166218618883e-10  -9.3765653451357935e-10  -9.6235529847904225e-10 
 -9.8770465139360954e-10  -1.0137217303915417e-09  -1.0404241240156938e-09  -1.0678298841080671e-09 
 -1.0959575380135514e-09  -1.1248261011051420e-09  -1.1544550896390738e-09  -1.1848645339485809e-09 
 -1.2160749919851793e-09  -1.2481075632166591e-09  -1.2809839028911462e-09  -1.3147262366769091e-09 
 -1.3493573756877777e-09  -1.3849007319043629e-09  -1.4213803340014806e-09  -1.4588208435924698e-09 
 -1.4972475719014356e-09  -1.5366864968746297e-09  -1.5771642807425644e-09  -1.6187082880447524e-09 
 -1.6613466041292079e-09  -1.7051080541392657e-09  -1.7500222225005152e-09  -1.7961194729210602e-09 
 -1.8434309689185878e-09  -1.8919886948881572e-09  -1.9418254777249181e-09  -1.9929750090164130e-09 
 -2.0454718678194355e-09  -2.0993515440368577e-09  -2.1546504624102407e-09  -2.2114060071444064e-09 
 -2.2696565471806830e-09  -2.3294414621358437e-09  -2.3908011689243138e-09  -2.4537771490816576e-09 
 -2.5184119768077648e-09  -2.5847493477487316e-09  -2.6528341085368988e-09  -2.7227122871090038e-09 
 -2.7944311238229358e-09  -2.8680391033941508e-09  -2.9435859876733154e-09  -3.0211228492873654e-09 
 -3.1007021061667019e-09  -3.1823775569818485e-09  -3.2662044175135956e-09  -3.3522393579811222e-09 
 -3.4405405413534380e-09  -3.5311676626699445e-09  -3.6241819893967555e-09  -3.7196464028460722e-09 
 -3.8176254406865762e-09  -3.9181853405735716e-09  -4.0213940849284400e-09  -4.1273214468976072e-09 
 -4.2360390375221375e-09  -4.3476203541498080e-09  -4.4621408301224470e-09  -4.5796778857720569e-09 
 -4.7003109807602833e-09  -4.8241216677965061e-09  -4.9511936477710018e-09  -5.0816128263403153e-09 
 -5.2154673720031755e-09  -5.3528477757062450e-09  -5.4938469120199007e-09  -5.6385601019254817e-09 
 -5.7870851772564323e-09  -5.9395225468369190e-09  -6.0959752643625893e-09  -6.2565490980694254e-09 
 -6.4213526022377378e-09  -6.5904971905797002e-09  -6.7640972115599613e-09  -6.9422700257003414e-09 
 -7.1251360849207990e-09  -7.3128190139703883e-09  -7.5054456940031455e-09  -7.7031463483555921e-09 
 -7.9060546305835612e-09  -8.1143077148182173e-09  -8.3280463885020357e-09  -8.5474151475676567e-09 
 -8.7725622941238492e-09  -9.0036400367146664e-09  -9.2408045932195893e-09  -9.4842162964641207e-09 
 -9.7340397026124787e-09  -9.9904437024153190e-09  -1.0253601635388046e-08  -1.0523691406996639e-08 
 -1.0800895608930388e-08  -1.1085401642542771e-08  -1.1377401845543948e-08  -1.1677093622030565e-08 
 -1.1984679575940696e-08  -1.2300367648024226e-08  -1.2624371256421217e-08  -1.2956909440943444e-08 
 -1.3298207011156345e-08  -1.3648494698361879e-08  -1.4008009311584765e-08  -1.4376993897667688e-08 
 -1.4755697905583671e-08  -1.5144377355076719e-08  -1.5543295009744764e-08  -1.5952720554681905e-08 
 -1.6372930778800044e-08  -1.6804209761953259e-08  -1.7246849066991294e-08  -1.7701147936872125e-08 
 -1.8167413496966862e-08  -1.8645960962693739e-08  -1.9137113852621470e-08  -1.9641204207186359e-08 
 -2.0158572813170656e-08  -2.0689569434094225e-08  -2.1234553046675110e-08  -2.1793892083519068e-08 
 -2.2367964682201862e-08  -2.2957158940913105e-08  -2.3561873180834035e-08  -2.4182516215427170e-08 
 -2.4819507626819371e-08  -2.5473278049465518e-08  -2.6144269461284550e-08  -2.6832935482464599e-08 
 -2.7539741682139297e-08  -2.8265165893142534e-08  -2.9009698535054863e-08  -2.9773842945759152e-08 
 -3.0558115721730697e-08  -3.1363047067290844e-08  -3.2189181153061129e-08  -3.3037076483859575e-08 
 -3.3907306276288362e-08  -3.4800458846268130e-08  -3.5717138006780418e-08  -3.6657963476087753e-08 
 -3.7623571296707468e-08  -3.8614614265421422e-08  -3.9631762374613937e-08  -4.0675703265235147e-08 
 -4.1747142691696444e-08  -4.2846804999012307e-08  -4.3975433612511525e-08  -4.5133791540447772e-08 
 -4.6322661889850905e-08  -4.7542848395966656e-08  -4.8795175965643296e-08  -5.0080491235032158e-08 
 -5.1399663141980336e-08  -5.2753583513501019e-08  -5.4143167668720330e-08  -5.5569355037707621e-08 
 -5.7033109796607789e-08  -5.8535421519506012e-08  -6.0077305847464944e-08  -6.1659805175188031e-08 
 -6.3283989355772339e-08  -6.4950956424029348e-08  -6.6661833338861627e-08  -6.8417776745199118e-08 
 -7.0219973756009765e-08  -7.2069642754914800e-08  -7.3968034219950523e-08  -7.5916431569035600e-08 
 -7.7916152027715464e-08  -7.9968547519770867e-08  -8.2075005581293993e-08  -8.4236950298849641e-08 
 -8.6455843272357650e-08  -8.8733184603346145e-08  -9.1070513909245203e-08  -9.3469411364406197e-08 
 -9.5931498768550468e-08  -9.8458440643368364e-08  -1.0105194535801152e-07  -1.0371376628423625e-07 
 -1.0644570298197793e-07  -1.0924960241615880e-07  -1.1212736020554801e-07  -1.1508092190449298e-07 
 -1.1811228431822144e-07  -1.2122349685287864e-07  -1.2441666290123860e-07  -1.2769394126493539e-07 
 -1.3105754761416401e-07  -1.3450975598584300e-07  -1.3805290032124890e-07  -1.4168937604416452e-07 
 -1.4542164168060872e-07  -1.4925222052124366e-07  -1.5318370232758296e-07  -1.5721874508315783e-07 
 -1.6136007679082362e-07  -1.6561049731742431e-07  -1.6997288028706314e-07  -1.7445017502425964e-07 
 -1.7904540854830949e-07  -1.8376168762019509e-07  -1.8860220084343398e-07  -1.9357022082028495e-07 
 -1.9866910636477284e-07  -2.0390230477402915e-07  -2.0927335415948451e-07  -2.1478588583949378e-07 
 -2.2044362679501041e-07  -2.2625040218997277e-07  -2.3221013795811103e-07  -2.3832686345792247e-07 
 -2.4460471419761274e-07  -2.5104793463185231e-07  -2.5766088103223348e-07  -2.6444802443338070e-07 
 -2.7141395365670063e-07  -2.7856337841382266e-07  -2.8590113249183520e-07  -2.9343217702246555e-07 
 -3.0116160383742582e-07  -3.0909463891219219e-07  -3.1723664590055146e-07  -3.2559312976230759e-07 
 -3.3416974048660771e-07  -3.4297227691340486e-07  -3.5200669065565178e-07  -3.6127909012487727e-07 
 -3.7079574466287658e-07  -3.8056308878231036e-07  -3.9058772651908928e-07  -4.0087643589949167e-07 
 -4.1143617352503874e-07  -4.2227407927824043e-07  -4.3339748115238988e-07  -4.4481390020869381e-07 
 -4.5653105566408663e-07  -4.6855687011317978e-07  -4.8089947488789394e-07  -4.9356721555839133e-07 
 -5.0656865757905477e-07  -5.1991259208333029e-07  -5.3360804183136063e-07  -5.4766426731445774e-07 
 -5.6209077302053300e-07  -5.7689731386475047e-07  -5.9209390178975734e-07  -6.0769081253997285e-07 
 -6.2369859261452307e-07  -6.4012806640355125e-07  -6.5699034351273163e-07  -6.7429682628096990e-07 
 -6.9205921749638003e-07  -7.1028952831578354e-07  -7.2900008639310420e-07  -7.4820354422216968e-07 
 -7.6791288769959653e-07  -7.8814144491355596e-07  -8.0890289516440710e-07  -8.3021127822330917e-07 
 -8.5208100383510670e-07  -8.7452686147194821e-07  -8.9756403034424992e-07  -9.2120808967582851e-07 
 -9.4547502925016148e-07  -9.7038126023496721e-07  -9.9594362629243699e-07  -1.0221794149826990e-06 
 -1.0491063694682453e-06  -1.0767427005272993e-06  -1.1051070988842733e-06  -1.1342187478657357e-06 
 -1.1640973363904638e-06  -1.1947630723024497e-06  -1.2262366960559132e-06  -1.2585394947616546e-06 
 -1.2916933166043006e-06  -1.3257205856402649e-06  -1.3606443169864939e-06  -1.3964881324103627e-06 
 -1.4332762763313284e-06  -1.4710336322452529e-06  -1.5097857395825865e-06  -1.5495588110119130e-06 
 -1.5903797502006486e-06  -1.6322761700450191e-06  -1.6752764113817497e-06  -1.7194095621942238e-06 
 -1.7647054773262465e-06  -1.8111947987168534e-06  -1.8589089761699888e-06  -1.9078802886732502e-06 
 -1.9581418662802476e-06  -2.0097277125715632e-06  -2.0626727277096375e-06  -2.1170127321033743e-06 
 -2.1727844906986447e-06  -2.2300257379112960e-06  -2.2887752032197732e-06  -2.3490726374348377e-06 
 -2.4109588396644060e-06  -2.4744756849919693e-06  -2.5396661528875682e-06  -2.6065743563708263e-06 
 -2.6752455719460101e-06  -2.7457262703297008e-06  -2.8180641479921354e-06  -2.8923081595338869e-06 
 -2.9685085509201759e-06  -3.0467168935955643e-06  -3.1269861195025980e-06  -3.2093705570283891e-06 
 -3.2939259679039538e-06  -3.3807095850816870e-06  -3.4697801516170405e-06  -3.5611979605812739e-06 
 -3.6550248960327008e-06  -3.7513244750748302e-06  -3.8501618910302763e-06  -3.9516040577604342e-06 
 -4.0557196551613858e-06  -4.1625791758675889e-06  -4.2722549731956889e-06  -4.3848213103615005e-06 
 -4.5003544110044461e-06  -4.6189325110543056e-06  -4.7406359119763456e-06  -4.8655470354317622e-06 
 -4.9937504793913758e-06  -5.1253330757416101e-06  -5.2603839494227903e-06  -5.3989945791409550e-06 
 -5.5412588596954239e-06  -5.6872731659656266e-06  -5.8371364186017400e-06  -5.9909501514651287e-06 
 -6.1488185808655300e-06  -6.3108486766436381e-06  -6.4771502351485751e-06  -6.6478359541616061e-06 
 -6.8230215098185046e-06  -7.0028256355845502e-06  -7.1873702033377692e-06  -7.3767803066172013e-06 
 -7.5711843460950932e-06  -7.7707141173329672e-06  -7.9755049008836287e-06  -8.1856955548026569e-06 
 -8.4014286096349355e-06  -8.6228503659430987e-06  -8.8501109944474198e-06  -9.0833646388478664e-06 
 -9.3227695214014697e-06  -9.5684880513301734e-06  -9.8206869361360334e-06  -1.0079537295903613e-05 
 -1.0345214780670683e-05  -1.0617899690951503e-05  -1.0897777101498770e-05  -1.1185036988392977e-05 
 -1.1479874359550538e-05  -1.1782489388744358e-05  -1.2093087553233488e-05  -1.2411879775101120e-05 
 -1.2739082566402928e-05  -1.3074918178230879e-05  -1.3419614753800631e-05  -1.3773406485673483e-05 
 -1.4136533777227356e-05  -1.4509243408494545e-05  -1.4891788706487104e-05  -1.5284429720134664e-05 
 -1.5687433399962675e-05  -1.6101073782643251e-05  -1.6525632180554147e-05  -1.6961397376485801e-05 
 -1.7408665823640255e-05  -1.7867741851070110e-05  -1.8338937874709701e-05  -1.8822574614155862e-05 
 -1.9318981315359569e-05  -1.9828495979394959e-05  -2.0351465597477208e-05  -2.0888246392405343e-05 
 -2.1439204066612457e-05  -2.2004714057009716e-05  -2.2585161796817533e-05  -2.3180942984582406e-05 
 -2.3792463860584101e-05  -2.4420141490844103e-05  -2.5064404058952420e-05  -2.5725691165937067e-05 
 -2.6404454138406544e-05  -2.7101156345203701e-05  -2.7816273522815636e-05  -2.8550294109792950e-05 
 -2.9303719590438387e-05  -3.0077064848034403e-05  -3.0870858527885699e-05  -3.1685643410463626e-05 
 -3.2521976794946193e-05  -3.3380430893458510e-05  -3.4261593236327124e-05  -3.5166067088671392e-05 
 -3.6094471878666530e-05  -3.7047443637822617e-05  -3.8025635453634891e-05  -3.9029717934973205e-05 
 -4.0060379690588892e-05  -4.1118327821130601e-05  -4.2204288425073041e-05  -4.3319007118976249e-05 
 -4.4463249572505224e-05  -4.5637802058656182e-05  -4.6843472019648464e-05  -4.8081088648957637e-05 
 -4.9351503489979759e-05  -5.0655591051835698e-05  -5.1994249442837998e-05  -5.3368401022163652e-05 
 -5.4778993070292594e-05  -5.6226998478791482e-05  -5.7713416460041719e-05  -5.9239273277531639e-05 
 -6.0805622997354271e-05  -6.2413548261573104e-05  -6.4064161084142798e-05  -6.5758603670094872e-05 
 -6.7498049258723168e-05  -6.9283702991530094e-05  -7.1116802805721641e-05  -7.2998620354066410e-05 
 -7.4930461951963596e-05  -7.6913669552595225e-05  -7.8949621751068144e-05  -8.1039734818485934e-05 
 -8.3185463766922432e-05  -8.5388303446307215e-05  -8.7649789674266367e-05  -8.9971500400003941e-05 
 -9.2355056903346881e-05  -9.4802125030118791e-05  -9.7314416465051380e-05  -9.9893690043487628e-05 
 -1.0254175310317621e-04  -1.0526046287750869e-04  -1.0805172793159891e-04  -1.1091750964265937e-04 
 -1.1385982372618411e-04  -1.1688074180950449e-04  -1.1998239305434809e-04  -1.2316696583008696e-04 
 -1.2643670943943705e-04  -1.2979393589842813e-04  -1.3324102177254317e-04  -1.3678041007099775e-04 
 -1.4041461220120596e-04  -1.4414620998556325e-04  -1.4797785774276110e-04  -1.5191228443593347e-04 
 -1.5595229589003285e-04  -1.6010077708092336e-04  -1.6436069449878672e-04  -1.6873509858853408e-04 
 -1.7322712627003200e-04  -1.7784000354106516e-04  -1.8257704816607306e-04  -1.8744167245383130e-04 
 -1.9243738612736958e-04  -1.9756779928956547e-04  -2.0283662548798608e-04  -2.0824768488270413e-04 
 -2.1380490752097227e-04  -2.1951233672279770e-04  -2.2537413258163588e-04  -2.3139457558459333e-04 
 -2.3757807035672189e-04  -2.4392914953417960e-04  -2.5045247777123568e-04  -2.5715285588631491e-04 
 -2.6403522515249005e-04  -2.7110467173808013e-04  -2.7836643130323688e-04  -2.8582589375867451e-04 
 -2.9348860819295060e-04  -3.0136028797499788e-04  -3.0944681603888588e-04  -3.1775425035810876e-04 
 -3.2628882961700442e-04  -3.3505697908725460e-04  -3.4406531671775815e-04  -3.5332065944653672e-04 
 -3.6283002974371597e-04  -3.7260066239503271e-04  -3.8264001153571738e-04  -3.9295575794506289e-04 
 -4.0355581661244042e-04  -4.1444834458598836e-04  -4.2564174911572826e-04  -4.3714469610336618e-04 
 -4.4896611887158957e-04  -4.6111522726625828e-04  -4.7360151710546303e-04  -4.8643477999007540e-04 
 -4.9962511349105820e-04  -5.1318293172949265e-04  -5.2711897636599416e-04  -5.4144432801694236e-04 
 -5.5617041811573131e-04  -5.7130904123806146e-04  -5.8687236791115694e-04  -6.0287295792767887e-04 
 -6.1932377418604065e-04  -6.3623819707980063e-04  -6.5363003945983578e-04  -6.7151356219405129e-04 
 -6.8990349035048175e-04  -7.0881503003082267e-04  -7.2826388588260126e-04  -7.4826627931947264e-04 
 -7.6883896748044286e-04  -7.8999926296015625e-04  -8.1176505434383921e-04  -8.3415482758194886e-04 
 -8.5718768824112482e-04  -8.8088338466964439e-04  -9.0526233211723182e-04  -9.3034563785084285e-04 
 -9.5615512730978032e-04  -9.8271337134542606e-04  -1.0100437145927738e-03  -1.0381703050229478e-03 
 -1.0671181247280141e-03  -1.0969130219914832e-03  -1.1275817447001710e-03  -1.1591519751553707e-03 
 -1.1916523663436499e-03  -1.2251125797300506e-03  -1.2595633246389709e-03  -1.2950363992906058e-03 
 -1.3315647335634816e-03  -1.3691824335563554e-03  -1.4079248280255148e-03  -1.4478285167764031e-03 
 -1.4889314210913575e-03  -1.5312728362782632e-03  -1.5748934864278597e-03  -1.6198355814705280e-03 
 -1.6661428766264223e-03  -1.7138607343458758e-03  -1.7630361888401316e-03  -1.8137180133054541e-03 
 -1.8659567899467571e-03  -1.9198049829098496e-03  -1.9753170142343224e-03  -2.0325493429419013e-03 
 -2.0915605473778025e-03  -2.1524114109251376e-03  -2.2151650112147798e-03  -2.2798868129552002e-03 
 -2.3466447645085729e-03  -2.4155093983410270e-03  -2.4865539354759427e-03  -2.5598543940798940e-03 
 -2.6354897023109442e-03  -2.7135418155585732e-03  -2.7940958382033027e-03  -2.8772401500221549e-03 
 -2.9630665373632614e-03  -3.0516703292090227e-03  -3.1431505382422675e-03  -3.2376100070234787e-03 
 -3.3351555593794662e-03  -3.4358981570943798e-03  -3.5399530619827737e-03  -3.6474400034111039e-03 
 -3.7584833513184964e-03  -3.8732122947693999e-03  -3.9917610260499095e-03  -4.1142689302952262e-03 
 -4.2408807806083000e-03  -4.3717469385979894e-03  -4.5070235602294598e-03  -4.6468728068388681e-03 
 -4.7914630611187508e-03  -4.9409691478288723e-03  -5.0955725589295958e-03  -5.2554616827698948e-03 
 -5.4208320368896801e-03  -5.5918865039152766e-03  -5.7688355699368355e-03  -5.9518975646563098e-03 
 -6.1412989024836528e-03  -6.3372743236357314e-03  -6.5400671341564283e-03  -6.7499294436261592e-03 
 -6.9671223991631609e-03  -7.1919164141367427e-03  -7.4245913898118463e-03  -7.6654369279244997e-03 
 -7.9147525319460572e-03  -8.1728477945305650e-03  -8.4400425683506895e-03  -8.7166671172129971e-03 
 -9.0030622440005221e-03  -9.2995793916173190e-03  -9.6065807127049766e-03  -9.9244391034617584e-03 
 -1.0253538196420072e-02  -1.0594272306524733e-02  -1.0947046324301312e-02  -1.1312275549308640e-02 
 -1.1690385456430696e-02  -1.2081811386878335e-02  -1.2486998155040745e-02  -1.2906399561546334e-02 
 -1.3340477802064927e-02  -1.3789702760505508e-02  -1.4254551174336499e-02  -1.4735505658780393e-02 
 -1.5233053575611720e-02  -1.5747685731220075e-02  -1.6279894887491389e-02  -1.6830174067914400e-02 
 -1.7399014640143637e-02  -1.7986904155049197e-02  -1.8594323921070438e-02  -1.9221746291471952e-02 
 -1.9869631640894531e-02  -2.0538425006411509e-02  -2.1228552367164880e-02  -2.1940416535583439e-02 
 -2.2674392632204401e-02  -2.3430823115253775e-02  -2.4210012335424101e-02  -2.5012220585750131e-02 
 -2.5837657616165060e-02  -2.6686475582258767e-02  -2.7558761397998763e-02  -2.8454528462763057e-02 
 -2.9373707734014716e-02  -3.0316138118375507e-02  -3.1281556155778718e-02  -3.2269584973852919e-02 
 -3.3279722492760400e-02  -3.4311328864443734e-02  -3.5363613134667349e-02  -3.6435619121446106e-02 
 -3.7526210509474127e-02  -3.8634055167085998e-02  -3.9757608700159111e-02  -4.0895097266304477e-02 
 -4.2044499682800801e-02  -4.3203528873150938e-02  -4.4369612710072642e-02  -4.5539874327401995e-02 
 -4.6711111990098211e-02  -4.7879778630635896e-02  -4.9041961181972467e-02  -5.0193359862458278e-02 
 -5.1329267596982926e-02  -5.2444549791801784e-02  -5.3533624718263298e-02  -5.4590444803289090e-02 
 -5.5608479171964063e-02  -5.6580697839625431e-02  -5.7499558006595966e-02  -5.8356992966825193e-02 
 -5.9144404200135066e-02  -5.9852657273727669e-02  -6.0472082228520407e-02  -6.0992479165341090e-02 
 -6.1403129769972087e-02  -6.1692815518886855e-02  -6.1849843283508461e-02  -6.1862078994578733e-02 
 -6.1716989935439753e-02  -6.1401696101489878e-02  -6.0903030893319707e-02  -6.0207611207337829e-02 
 -5.9301916757863754e-02  -5.8172378219568492e-02  -5.6805473530869004e-02  -5.5187831458588889e-02 
 -5.3306341299628857e-02  -5.1148267389452745e-02  -4.8701366897885949e-02  -4.5954009214805816e-02 
 -4.2895295056332113e-02  -3.9515173253889348e-02  -3.5804553027767271e-02  -3.1755409405184502e-02 
 -2.7360879339707041e-02  -2.2615346050706951e-02  -1.7514509158903683e-02  -1.2055438378238253e-02 
 -6.2366088606484148e-03  -5.7916790421981515e-05  6.4793255231592800e-03  1.3372415044696702e-02 
 2.0617303095993685e-02  2.8208658578875872e-02  3.6139947204384286e-02  4.4403524211781141e-02 
 5.2990737874700593e-02  6.1892041026241809e-02  7.1097107764222331e-02  8.0594952290799229e-02 
 9.0374046454198748e-02  1.0042243228601172e-01  1.1072782364953024e-01  1.2127768775279106e-01 
 1.3205931164057769e-01  1.4305983314317508e-01  1.5426623567939385e-01  1.6566529942648464e-01 
 1.7724350300118805e-01  1.8898687146172155e-01  2.0088076837614097e-01  2.1290963200979537e-01 
 2.2505665826934129e-01  2.3730343580006652e-01  2.4962954145811173e-01  2.6201210715742168e-01 
 2.7442537170799441e-01  2.8684023360204464e-01  2.9922382265457798e-01  3.1153910985689254e-01 
 3.2374457565796427e-01  3.3579395706644827e-01  3.4763609340241919e-01  3.5921488918387467e-01 
 3.7046941049821563e-01  3.8133412830321234e-01  3.9173931847778981e-01  4.0161162418432955e-01 
 4.1087478132544875e-01  4.1945050272082463e-01  4.2725951125765599e-01  4.3422270686275893e-01 
 4.4026244689648136e-01  4.4530391467348723e-01  4.4927654646327492e-01  4.5211548369333765e-01 
 4.5376301433008931e-01  4.5416996568214657e-01  4.5329701026088565e-01  4.5111584691193685e-01 
 4.4761022123134159e-01  4.4277675227721197e-01  4.3662553673113480e-01  4.2918050687132353e-01 
 4.2047952482415335e-01  4.1057420239707676e-01  3.9952944316905603e-01  3.8742271117607002e-01 
 3.7434303823363513e-01  3.6038978942485528e-01  3.4567121329136091e-01  3.3030280954640717e-01 
 3.1440555245609209e-01  2.9810401220845012e-01  2.8152441945323359e-01  2.6479271963718498e-01 
 2.4803266372320545e-01  2.3136398036699202e-01  2.1490067168885493e-01  1.9874947053541336e-01 
 1.8300849174112624e-01  1.6776610358312435e-01  1.5310003861996976e-01  1.3907675568507674e-01 
 1.2575105724965591e-01  1.1316595895826445e-01  1.0135280113836626e-01  9.0331585734582498e-02 
 8.0111516623297657e-02  7.0691716785412737e-02  6.2062092466062070e-02  5.4204312289834210e-02 
 4.7092868335736636e-02  4.0696186365653822e-02  3.4977753655761966e-02  2.9897235077256931e-02 
 2.5411551055414136e-02  2.1475894628953711e-02  1.8044668848105034e-02  1.5072330001446971e-02 
 1.2514126467236212e-02  1.0326727177946912e-02  8.4687376215569869e-03  6.9011048593569449e-03 
 5.5874161261087662e-03  4.4940981319835588e-03  3.5905261740699010e-03  2.8490535830028394e-03 
 2.2449728966327728e-03  1.7564205078482008e-03  1.3642364340387605e-03  1.0517903694542525e-03 
 8.0478438424541566e-04  6.1104160297725590e-04  4.6028900754621123e-04  3.4394123618745930e-04 
 2.5489095609347183e-04  1.8731012681314974e-04  1.3646528946966875e-04  9.8548946329284255e-05 
 7.0528158887027517e-05  5.0010703112190991e-05  3.5128481244805230e-05  2.4437396901029082e-05 
 1.6832544240995760e-05  1.1477328588641074e-05  7.7450082101174762e-06  5.1711067200861663e-06 
 3.4151743998452266e-06  2.2304570921051255e-06  1.4401470646087112e-06  9.1902783244923617e-07 
 5.7947221399283942e-07  3.6090120100678185e-07  2.2195334841858840e-07  1.3474567776224416e-07 
 8.0724617117271318e-08  4.7707805860563293e-08  2.7804524047445092e-08  1.5974608463928078e-08 
 9.0443149420806573e-09  5.0441687361936082e-09  2.7701627045452722e-09  1.4974475700459856e-09 
 7.9643972818265993e-10  4.1660962595571875e-10  2.1423728914608613e-10  1.0825807721926578e-10 
 5.3731669801723294e-11  2.6182384525318458e-11  1.2519431872166769e-11  5.8714465200059685e-12 
 2.6995108714205142e-12  1.2160486599645716e-12  5.3646798061349540e-13  2.3172326826322371e-13 
 9.7834279389732859e-14  4.0376315565142005e-14  1.6332402578266183e-14  6.3919186258576600e-15 
 2.4465683806681858e-15  9.5820262440592442e-16  3.5988843567564714e-16  8.4390335246782392e-17 
 7.9069092877813183e-17  0.0000000000000000e+00  0.0000000000000000e+00  0.0000000000000000e+00 
 0.0000000000000000e+00  0.0000000000000000e+00  0.0000000000000000e+00  0.0000000000000000e+00 
 0.0000000000000000e+00  0.0000000000000000e+00  0.0000000000000000e+00  0.0000000000000000e+00 
 0.0000000000000000e+00  0.0000000000000000e+00  0.0000000000000000e+00  0.0000000000000000e+00 
 0.0000000000000000e+00  0.0000000000000000e+00  0.0000000000000000e+00  0.0000000000000000e+00 
 0.0000000000000000e+00  0.0000000000000000e+00  0.0000000000000000e+00  0.0000000000000000e+00 
 0.0000000000000000e+00  0.0000000000000000e+00  0.0000000000000000e+00  0.0000000000000000e+00 
 0.0000000000000000e+00  0.0000000000000000e+00  0.0000000000000000e+00  0.0000000000000000e+00 
 0.0000000000000000e+00  0.0000000000000000e+00  0.0000000000000000e+00  0.0000000000000000e+00 
 0.0000000000000000e+00  0.0000000000000000e+00  0.0000000000000000e+00  0.0000000000000000e+00 
 0.0000000000000000e+00  0.0000000000000000e+00  0.0000000000000000e+00  0.0000000000000000e+00 
 0.0000000000000000e+00  0.0000000000000000e+00  0.0000000000000000e+00  0.0000000000000000e+00 
 0.0000000000000000e+00  0.0000000000000000e+00  0.0000000000000000e+00  0.0000000000000000e+00 
 0.0000000000000000e+00  0.0000000000000000e+00  0.0000000000000000e+00  0.0000000000000000e+00 
 0.0000000000000000e+00  0.0000000000000000e+00  0.0000000000000000e+00  0.0000000000000000e+00 
 0.0000000000000000e+00  0.0000000000000000e+00  0.0000000000000000e+00  0.0000000000000000e+00 
 0.0000000000000000e+00  0.0000000000000000e+00  0.0000000000000000e+00  0.0000000000000000e+00 
 0.0000000000000000e+00  0.0000000000000000e+00  0.0000000000000000e+00  0.0000000000000000e+00 
 0.0000000000000000e+00  0.0000000000000000e+00  0.0000000000000000e+00  0.0000000000000000e+00 
 0.0000000000000000e+00  0.0000000000000000e+00  0.0000000000000000e+00  0.0000000000000000e+00 
 0.0000000000000000e+00  0.0000000000000000e+00  0.0000000000000000e+00  0.0000000000000000e+00 
 0.0000000000000000e+00  0.0000000000000000e+00  0.0000000000000000e+00  0.0000000000000000e+00 
 0.0000000000000000e+00  0.0000000000000000e+00  0.0000000000000000e+00  0.0000000000000000e+00 
 0.0000000000000000e+00  0.0000000000000000e+00  0.0000000000000000e+00  0.0000000000000000e+00 
 0.0000000000000000e+00  0.0000000000000000e+00  0.0000000000000000e+00  0.0000000000000000e+00 
 0.0000000000000000e+00  0.0000000000000000e+00  0.0000000000000000e+00  0.0000000000000000e+00 
 0.0000000000000000e+00  0.0000000000000000e+00  0.0000000000000000e+00  0.0000000000000000e+00 
 0.0000000000000000e+00  0.0000000000000000e+00  0.0000000000000000e+00  0.0000000000000000e+00 
 0.0000000000000000e+00  0.0000000000000000e+00  0.0000000000000000e+00  0.0000000000000000e+00 
 0.0000000000000000e+00  0.0000000000000000e+00  0.0000000000000000e+00  0.0000000000000000e+00 
 0.0000000000000000e+00  0.0000000000000000e+00  0.0000000000000000e+00  0.0000000000000000e+00 
 0.0000000000000000e+00  0.0000000000000000e+00  0.0000000000000000e+00  0.0000000000000000e+00 
 0.0000000000000000e+00  0.0000000000000000e+00  0.0000000000000000e+00  0.0000000000000000e+00 
 0.0000000000000000e+00  0.0000000000000000e+00  0.0000000000000000e+00  0.0000000000000000e+00 
 0.0000000000000000e+00  0.0000000000000000e+00  0.0000000000000000e+00  0.0000000000000000e+00 
 0.0000000000000000e+00  0.0000000000000000e+00  0.0000000000000000e+00  0.0000000000000000e+00 
 0.0000000000000000e+00  0.0000000000000000e+00  0.0000000000000000e+00  0.0000000000000000e+00 
 0.0000000000000000e+00  0.0000000000000000e+00  0.0000000000000000e+00  0.0000000000000000e+00 
 0.0000000000000000e+00  0.0000000000000000e+00  0.0000000000000000e+00  0.0000000000000000e+00 
 0.0000000000000000e+00  0.0000000000000000e+00  0.0000000000000000e+00  0.0000000000000000e+00 
 0.0000000000000000e+00  0.0000000000000000e+00  0.0000000000000000e+00  0.0000000000000000e+00 
 0.0000000000000000e+00  0.0000000000000000e+00  0.0000000000000000e+00  0.0000000000000000e+00 
 0.0000000000000000e+00  0.0000000000000000e+00  0.0000000000000000e+00  0.0000000000000000e+00 
 0.0000000000000000e+00  0.0000000000000000e+00  0.0000000000000000e+00  0.0000000000000000e+00 
 0.0000000000000000e+00  0.0000000000000000e+00  0.0000000000000000e+00  0.0000000000000000e+00 
 0.0000000000000000e+00  0.0000000000000000e+00  0.0000000000000000e+00  0.0000000000000000e+00 
 0.0000000000000000e+00  0.0000000000000000e+00  0.0000000000000000e+00  0.0000000000000000e+00 
 0.0000000000000000e+00  0.0000000000000000e+00  0.0000000000000000e+00  0.0000000000000000e+00 
 0.0000000000000000e+00  0.0000000000000000e+00  0.0000000000000000e+00  0.0000000000000000e+00 
 0.0000000000000000e+00  0.0000000000000000e+00  0.0000000000000000e+00  0.0000000000000000e+00 
 0.0000000000000000e+00  0.0000000000000000e+00  0.0000000000000000e+00  0.0000000000000000e+00 
 0.0000000000000000e+00  0.0000000000000000e+00  0.0000000000000000e+00  0.0000000000000000e+00 
 0.0000000000000000e+00  0.0000000000000000e+00  0.0000000000000000e+00  0.0000000000000000e+00 
 0.0000000000000000e+00  0.0000000000000000e+00  0.0000000000000000e+00  0.0000000000000000e+00 
 0.0000000000000000e+00  0.0000000000000000e+00  0.0000000000000000e+00  0.0000000000000000e+00 
 0.0000000000000000e+00  0.0000000000000000e+00  0.0000000000000000e+00  0.0000000000000000e+00 
 0.0000000000000000e+00  0.0000000000000000e+00  0.0000000000000000e+00  0.0000000000000000e+00 
 0.0000000000000000e+00 
  </PP_BETA>
  <PP_BETA>
  2  2      Beta    L
  1189  
 -6.5563710073402643e-13  -6.8171210544639589e-13  -7.0882412571859605e-13  -7.3701440416157123e-13 
 -7.6632582362488720e-13  -7.9680297242982119e-13  -8.2849221219679782e-13  -8.6144174837035555e-13 
 -8.9570170354892661e-13  -9.3132419373097960e-13  -9.6836340759350598e-13  -1.0068756889234482e-12 
 -1.0469196223274725e-12  -1.0885561223504568e-12  -1.1318485261382601e-12  -1.1768626897857487e-12 
 -1.2236670885166115e-12  -1.2723329208473917e-12  -1.3229342168941667e-12  -1.3755479509866313e-12 
 -1.4302541587609141e-12  -1.4871360589092102e-12  -1.5462801797714751e-12  -1.6077764909617230e-12 
 -1.6717185402291742e-12  -1.7382035957624192e-12  -1.8073327941531130e-12  -1.8792112942442402e-12 
 -1.9539484370970104e-12  -2.0316579123197084e-12  -2.1124579310115283e-12  -2.1964714055844698e-12 
 -2.2838261367368287e-12  -2.3746550078627324e-12  -2.4690961871934164e-12  -2.5672933379777820e-12 
 -2.6693958370219109e-12  -2.7755590019200261e-12  -2.8859443273225351e-12  -3.0007197306005455e-12 
 -3.1200598072806190e-12  -3.2441460966382486e-12  -3.3731673578541679e-12  -3.5073198571534640e-12 
 -3.6468076663644296e-12  -3.7918429733511833e-12  -3.9426464047923847e-12  -4.0994473617970245e-12 
 -4.2624843688677655e-12  -4.4320054367427961e-12  -4.6082684396680396e-12  -4.7915415076736690e-12 
 -4.9821034344516608e-12  -5.1802441014548496e-12  -5.3862649188625841e-12  -5.6004792840838252e-12 
 -5.8232130584951214e-12  -6.0548050631387261e-12  -6.2956075941348019e-12  -6.5459869585919181e-12 
 -6.8063240318308893e-12  -7.0770148367697263e-12  -7.3584711463509805e-12  -7.6511211099279720e-12 
 -7.9554099045626724e-12  -8.2718004122259942e-12  -8.6007739239307800e-12  -8.9428308718683575e-12 
 -9.2984915906626960e-12  -9.6682971088998526e-12  -1.0052809972137076e-11  -1.0452615098643279e-11 
 -1.0868320669172867e-11  -1.1300559052126137e-11  -1.1749987765503973e-11  -1.2217290477119757e-11 
 -1.2703178044590373e-11  -1.3208389596688059e-11  -1.3733693657698218e-11  -1.4279889316493507e-11 
 -1.4847807442102546e-11  -1.5438311947622405e-11  -1.6052301104397611e-11  -1.6690708908464586e-11 
 -1.7354506501340389e-11  -1.8044703647316819e-11  -1.8762350269507352e-11  -1.9508538046983389e-11 
 -2.0284402075429406e-11  -2.1091122593843263e-11  -2.1929926779908150e-11  -2.2802090616767510e-11 
 -2.3708940834042405e-11  -2.4651856926044356e-11  -2.5632273250253151e-11  -2.6651681209252646e-11 
 -2.7711631519442895e-11  -2.8813736569980265e-11  -2.9959672875533853e-11  -3.1151183626589141e-11 
 -3.2390081341178727e-11  -3.3678250622073468e-11  -3.5017651023628841e-11  -3.6410320032647046e-11 
 -3.7858376167789624e-11  -3.9364022202255304e-11  -4.0929548514625247e-11  -4.2557336572973560e-11 
 -4.4249862557542080e-11  -4.6009701127491506e-11  -4.7839529337457558e-11  -4.9742130709871108e-11 
 -5.1720399469236195e-11  -5.3777344944807776e-11  -5.5916096148366237e-11  -5.8139906534052460e-11 
 -6.0452158947503546e-11  -6.2856370771819122e-11  -6.5356199278184773e-11  -6.7955447189292754e-11 
 -7.0658068464023225e-11  -7.3468174312184734e-11  -7.6390039448465091e-11  -7.9428108595103780e-11 
 -8.2587003243180700e-11  -8.5871528682803991e-11  -8.9286681312892311e-11  -9.2837656241671676e-11 
 -9.6529855189447640e-11  -1.0036889470567505e-10  -1.0436061471282560e-10  -1.0851108739004900e-10 
 -1.1282662641014289e-10  -1.1731379654388167e-10  -1.2197942364631492e-10  -1.2683060504022644e-10 
 -1.3187472031254946e-10  -1.3711944254016082e-10  -1.4257274996213178e-10  -1.4824293811619021e-10 
 -1.5413863245785795e-10  -1.6026880148145616e-10  -1.6664277036294280e-10  -1.7327023514533284e-10 
 -1.8016127748827968e-10  -1.8732638000425710e-10  -1.9477644220467020e-10  -2.0252279708015080e-10 
 -2.1057722834026329e-10  -2.1895198833884075e-10  -2.2765981671222462e-10  -2.3671395975875791e-10 
 -2.4612819058901082e-10  -2.5591683007739332e-10  -2.6609476864702768e-10  -2.7667748892101600e-10 
 -2.8768108927456470e-10  -2.9912230832378921e-10  -3.1101855038845418e-10  -3.2338791196738323e-10 
 -3.3624920926681187e-10  -3.4962200682355866e-10  -3.6352664726656001e-10  -3.7798428226203800e-10 
 -3.9301690468937922e-10  -4.0864738209666658e-10  -4.2489949148676017e-10  -4.4179795548684279e-10 
 -4.5936847995645286e-10  -4.7763779309121127e-10  -4.9663368608173060e-10  -5.1638505538955731e-10 
 -5.3692194670445107e-10  -5.5827560064988396e-10  -5.8047850030626888e-10  -6.0356442062422334e-10 
 -6.2756847980303474e-10  -6.5252719271247889e-10  -6.7847852643926342e-10  -7.0546195804259382e-10 
 -7.3351853460671600e-10  -7.6269093568179391e-10  -7.9302353820810632e-10  -8.2456248402232390e-10 
 -8.5735575004856131e-10  -8.9145322128098268e-10  -9.2690676666897474e-10  -9.6377031802033496e-10 
 -1.0020999520424978e-09  -1.0419539756466002e-09  -1.0833930146441649e-09  -1.1264801059713137e-09 
 -1.1712807935808081e-09  -1.2178632281478037e-09  -1.2662982707409760e-09  -1.3166596006167270e-09 
 -1.3690238273004715e-09  -1.4234706071254705e-09  -1.4800827644065332e-09  -1.5389464174328817e-09 
 -1.6001511094718744e-09  -1.6637899449828589e-09  -1.7299597312483596e-09  -1.7987611256380899e-09 
 -1.8702987887297536e-09  -1.9446815435196351e-09  -2.0220225409651115e-09  -2.1024394321109812e-09 
 -2.1860545470613806e-09  -2.2729950810696239e-09  -2.3633932880289907e-09  -2.4573866816588557e-09 
 -2.5551182446921706e-09  -2.6567366463825653e-09  -2.7623964686619213e-09  -2.8722584412924712e-09 
 -2.9864896863711427e-09  -3.1052639725581129e-09  -3.2287619794162984e-09  -3.3571715722639347e-09 
 -3.4906880879583363e-09  -3.6295146320456147e-09  -3.7738623877283748e-09  -3.9239509371214383e-09 
 -4.0800085952842659e-09  -4.2422727575382732e-09  -4.4109902605973747e-09  -4.5864177580611551e-09 
 -4.7688221108418355e-09  -4.9584807931191046e-09  -5.1556823144402032e-09  -5.3607266586075882e-09 
 -5.5739257400216751e-09  -5.7956038781729946e-09  -6.0260982910055461e-09  -6.2657596079019422e-09 
 -6.5149524030706488e-09  -6.7740557501468365e-09  -7.0434637988505783e-09  -7.3235863745795028e-09 
 -7.6148496018482663e-09  -7.9176965525230930e-09  -8.2325879198376681e-09  -8.5600027192156780e-09 
 -8.9004390169662019e-09  -9.2544146879605578e-09  -9.6224682034431149e-09  -1.0005159450174702e-08 
 -1.0403070582154877e-08  -1.0816806906218393e-08  -1.1246997802853666e-08  -1.1694297683643638e-08 
 -1.2159386986785944e-08  -1.2642973212206593e-08  -1.3145791997842250e-08  -1.3668608238728101e-08 
 -1.4212217250594194e-08  -1.4777445979740251e-08  -1.5365154261029652e-08  -1.5976236125916407e-08 
 -1.6611621162495289e-08  -1.7272275929643944e-08  -1.7959205427408820e-08  -1.8673454625871599e-08 
 -1.9416110054822393e-08  -2.0188301456658181e-08  -2.0991203505021300e-08  -2.1826037591792762e-08 
 -2.2694073685159215e-08  -2.3596632261580782e-08  -2.4535086314598802e-08  -2.5510863443540546e-08 
 -2.6525448025298153e-08  -2.7580383472487031e-08  -2.8677274581418785e-08  -2.9817789973462122e-08 
 -3.1003664633505692e-08  -3.2236702549385719e-08  -3.3518779456294508e-08  -3.4851845690345279e-08 
 -3.6237929155635856e-08  -3.7679138409325039e-08  -3.9177665869416188e-08  -4.0735791150128733e-08 
 -4.2355884529932077e-08  -4.4040410557518470e-08  -4.5791931801201515e-08  -4.7613112747444280e-08 
 -4.9506723854448366e-08  -5.1475645766970969e-08  -5.3522873698782301e-08  -5.5651521989418415e-08 
 -5.7864828842081398e-08  -6.0166161250024657e-08  -6.2559020118934058e-08  -6.5047045593056541e-08 
 -6.7634022593174958e-08  -7.0323886574857874e-08  -7.3120729515745054e-08  -7.6028806140979869e-08 
 -7.9052540396262857e-08  -8.2196532178374962e-08  -8.5465564333413092e-08  -8.8864609933388571e-08 
 -9.2398839842259629e-08  -9.6073630582913329e-08  -9.9894572517068329e-08  -1.0386747835054644e-07 
 -1.0799839197685655e-07  -1.1229359767254930e-07  -1.1675962965833698e-07  -1.2140328204052837e-07 
 -1.2623161914790933e-07  -1.3125198627980052e-07  -1.3647202088164880e-07  -1.4189966416516345e-07 
 -1.4754317319067975e-07  -1.5341113343014078e-07  -1.5951247182981829e-07  -1.6585647039265359e-07 
 -1.7245278030089129e-07  -1.7931143660050338e-07  -1.8644287346975114e-07  -1.9385794009513009e-07 
 -2.0156791717885856e-07  -2.0958453410303956e-07  -2.1791998677662374e-07  -2.2658695619233761e-07 
 -2.3559862772182820e-07  -2.4496871117839333e-07  -2.5471146167784297e-07  -2.6484170132924357e-07 
 -2.7537484178857226e-07  -2.8632690770961059e-07  -2.9771456112778404e-07  -3.0955512681406852e-07 
 -3.2186661863756590e-07  -3.3466776697688338e-07  -3.4797804722205591e-07  -3.6181770941040636e-07 
 -3.7620780904146507e-07  -3.9117023911787622e-07  -4.0672776346107130e-07  -4.2290405135244817e-07 
 -4.3972371355280307e-07  -4.5721233975486472e-07  -4.7539653752597339e-07  -4.9430397280019995e-07 
 -5.1396341198158298e-07  -5.3440476572260280e-07  -5.5565913444456516e-07  -5.7775885566923632e-07 
 -6.0073755323381242e-07  -6.2463018846419507e-07  -6.4947311338451714e-07  -6.7530412604397758e-07 
 -7.0216252804526581e-07  -7.3008918436221770e-07  -7.5912658553782881e-07  -7.8931891235739316e-07 
 -8.2071210309529703e-07  -8.5335392343793551e-07  -8.8729403918928639e-07  -9.2258409186994239e-07 
 -9.5927777732479355e-07  -9.9743092745915055e-07  -1.0371015952278929e-06  -1.0783501430071524e-06 
 -1.1212393344832312e-06  -1.1658344301988212e-06  -1.2122032869021564e-06  -1.2604164608505520e-06 
 -1.3105473152258133e-06  -1.3626721318252783e-06  -1.4168702271987760e-06  -1.4732240734085929e-06 
 -1.5318194235965748e-06  -1.5927454425498573e-06  -1.6560948424643240e-06  -1.7219640241128785e-06 
 -1.7904532236338135e-06  -1.8616666651632110e-06  -1.9357127195441713e-06  -2.0127040693550331e-06 
 -2.0927578805083322e-06  -2.1759959806823484e-06  -2.2625450448574835e-06  -2.3525367882406424e-06 
 -2.4461081668720305e-06  -2.5434015862205582e-06  -2.6445651180862639e-06  -2.7497527261408732e-06 
 -2.8591245004508187e-06  -2.9728469013408345e-06  -3.0910930129704829e-06  -3.2140428070108488e-06 
 -3.3418834168241844e-06  -3.4748094225652334e-06  -3.6130231476398336e-06  -3.7567349669736787e-06 
 -3.9061636275623133e-06  -4.0615365817921753e-06  -4.2230903340421866e-06  -4.3910708010955864e-06 
 -4.5657336869130767e-06  -4.7473448723402290e-06  -4.9361808203450682e-06  -5.1325289974056191e-06 
 -5.3366883116919138e-06  -5.5489695687127963e-06  -5.7696959451246570e-06  -5.9992034814271531e-06 
 -6.2378415942999807e-06  -6.4859736093648693e-06  -6.7439773151885556e-06  -7.0122455393748981e-06 
 -7.2911867476285815e-06  -7.5812256667078308e-06  -7.8828039322206974e-06  -8.1963807622574534e-06 
 -8.5224336578914763e-06  -8.8614591316225801e-06  -9.2139734648794198e-06  -9.5805134957428728e-06 
 -9.9616374380984448e-06  -1.0357925733474575e-05  -1.0769981936873912e-05  -1.1198433637957255e-05 
 -1.1643933418994396e-05  -1.2107159851052819e-05  -1.2588818529954557e-05  -1.3089643153592549e-05 
 -1.3610396642262349e-05  -1.4151872303731176e-05  -1.4714895044835709e-05  -1.5300322631472166e-05 
 -1.5909046998917023e-05  -1.6541995614494917e-05  -1.7200132894691343e-05  -1.7884461678892274e-05 
 -1.8596024762020860e-05  -1.9335906488432640e-05  -2.0105234409526015e-05  -2.0905181007624095e-05 
 -2.1736965488786227e-05  -2.2601855647316474e-05  -2.3501169804845807e-05  -2.4436278826983337e-05 
 -2.5408608220650888e-05  -2.6419640315342539e-05  -2.7470916531681143e-05  -2.8564039740780206e-05 
 -2.9700676718062169e-05  -3.0882560695331148e-05  -3.2111494015052530e-05  -3.3389350890951923e-05 
 -3.4718080279212811e-05  -3.6099708864725424e-05  -3.7536344167020852e-05  -3.9030177770711696e-05 
 -4.0583488685457146e-05  -4.2198646840674480e-05  -4.3878116720430070e-05  -4.5624461144166095e-05 
 -4.7440345199148007e-05  -4.9328540330757967e-05  -5.1291928597009427e-05  -5.3333507093918260e-05 
 -5.5456392558635764e-05  -5.7663826157532414e-05  -5.9959178466713589e-05  -6.2345954652756017e-05 
 -6.4827799861770643e-05  -6.7408504825232048e-05  -7.0092011691357998e-05  -7.2882420091185076e-05 
 -7.5783993448860464e-05  -7.8801165546062420e-05  -8.1938547350867295e-05  -8.5200934121809307e-05 
 -8.8593312798317030e-05  -9.2120869689177085e-05  -9.5788998471150566e-05  -9.9603308510373865e-05 
 -1.0356963351969266e-04  -1.0769404056562682e-04  -1.1198283943922629e-04  -1.1644259240567309e-04 
 -1.2108012434809959e-04  -1.2590253332173438e-04  -1.3091720153515999e-04  -1.3613180677616145e-04 
 -1.4155433430037889e-04  -1.4719308920172942e-04  -1.5305670928436217e-04  -1.5915417845673493e-04 
 -1.6549484066926036e-04  -1.7208841441787186e-04  -1.7894500783679495e-04  -1.8607513440479148e-04 
 -1.9348972929015881e-04  -2.0120016636084037e-04  -2.0921827588710632e-04  -2.1755636296543125e-04 
 -2.2622722669339877e-04  -2.3524418012673648e-04  -2.4462107105089177e-04  -2.5437230360095167e-04 
 -2.6451286076512910e-04  -2.7505832780855873e-04  -2.8602491665570052e-04  -2.9742949127129040e-04 
 -3.0928959408148819e-04  -3.2162347347866149e-04  -3.3445011245510623e-04  -3.4778925841295731e-04 
 -3.6166145419957725e-04  -3.7608807041984965e-04  -3.9109133907900835e-04  -4.0669438861198686e-04 
 -4.2292128035767684e-04  -4.3979704653904342e-04  -4.5734772981269540e-04  -4.7560042445429090e-04 
 -4.9458331924905410e-04  -5.1432574215973508e-04  -5.3485820684750997e-04  -5.5621246112464611e-04 
 -5.7842153742124788e-04  -6.0151980535202423e-04  -6.2554302647284052e-04  -6.5052841132080450e-04 
 -6.7651467883580714e-04  -7.0354211826581655e-04  -7.3165265366279865e-04  -7.6088991108092755e-04 
 -7.9129928859377635e-04  -8.2292802925243685e-04  -8.5582529711201788e-04  -8.9004225645976744e-04 
 -9.2563215438407748e-04  -9.6265040683002074e-04  -1.0011546882936655e-03  -1.0412050253144254e-03 
 -1.0828638939319780e-03  -1.1261963212819768e-03  -1.1712699915127933e-03  -1.2181553562139809e-03 
 -1.2669257495559853e-03  -1.3176575083499126e-03  -1.3704300972459209e-03  -1.4253262392990066e-03 
 -1.4824320521417227e-03  -1.5418371900146142e-03  -1.6036349919170034e-03  -1.6679226361532098e-03 
 -1.7348013015623335e-03  -1.8043763357334529e-03  -1.8767574305225399e-03  -1.9520588052025088e-03 
 -2.0303993975938155e-03  -2.1119030635396861e-03  -2.1966987851077665e-03  -2.2849208879184347e-03 
 -2.3767092680195565e-03  -2.4722096287479131e-03  -2.5715737280391578e-03  -2.6749596366708261e-03 
 -2.7825320079468063e-03  -2.8944623593568503e-03  -3.0109293667712018e-03  -3.1321191717582557e-03 
 -3.2582257026425535e-03  -3.3894510099514554e-03  -3.5260056169311980e-03  -3.6681088858476732e-03 
 -3.8159894008232302e-03  -3.9698853679991227e-03  -4.1300450338533582e-03  -4.2967271225461054e-03 
 -4.4702012932096675e-03  -4.6507486181470749e-03  -4.8386620829531509e-03  -5.0342471096244731e-03 
 -5.2378221037799894e-03  -5.4497190271725112e-03  -5.6702839967331178e-03  -5.8998779114555937e-03 
 -6.1388771084967082e-03  -6.3876740499411357e-03  -6.6466780417560566e-03  -6.9163159865419689e-03 
 -7.1970331717715174e-03  -7.4892940952988865e-03  -7.7935833300175712e-03  -8.1104064296457119e-03 
 -8.4402908777246339e-03  -8.7837870820293047e-03  -9.1414694167087397e-03  -9.5139373146003198e-03 
 -9.9018164122958684e-03  -1.0305759750677990e-02  -1.0726449033794607e-02  -1.1164595949097592e-02 
 -1.1620943552238435e-02  -1.2096267719790174e-02  -1.2591378673452544e-02  -1.3107122579494503e-02 
 -1.3644383227397984e-02  -1.4204083791888568e-02  -1.4787188682772692e-02  -1.5394705487250268e-02 
 -1.6027687009633518e-02  -1.6687233413681821e-02  -1.7374494473056661e-02  -1.8090671935712722e-02 
 -1.8837022008371621e-02  -1.9614857967574204e-02  -2.0425552904178190e-02  -2.1270542608559234e-02 
 -2.2151328604189509e-02  -2.3069481337707084e-02  -2.4026643534055168e-02  -2.5024533725763062e-02 
 -2.6064949965962956e-02  -2.7149773735289245e-02  -2.8280974053392378e-02  -2.9460611806418395e-02 
 -3.0690844302462487e-02  -3.1973930067697491e-02  -3.3312233896615175e-02  -3.4708232170594620e-02 
 -3.6164518459836252e-02  -3.7683809424571384e-02  -3.9268951032377701e-02  -4.0922925109408377e-02 
 -4.2648856244371730e-02  -4.4450019065190784e-02  -4.6329845909424176e-02  -4.8291934910749637e-02 
 -5.0340058525099179e-02  -5.2478172521396443e-02  -5.4710425463283675e-02  -5.7041168709745370e-02 
 -5.9474966964136150e-02  -6.2016609402812339e-02  -6.4671121416350244e-02  -6.7443776998213828e-02 
 -7.0340111817715892e-02  -7.3365937016205585e-02  -7.6527353767610148e-02  -7.9830768646773367e-02 
 -8.3282909851462181e-02  -8.6890844326469499e-02  -9.0661995840923534e-02  -9.4604164072728314e-02 
 -9.8725544757012548e-02  -1.0303475095855455e-01  -1.0754083553138774e-01  -1.1225331483216888e-01 
 -1.1718219375742843e-01  -1.2233799217849842e-01  -1.2773177285175266e-01  -1.3337517088578021e-01 
 -1.3928042485125303e-01  -1.4546040962354037e-01  -1.5192867105256058e-01  -1.5869946255894130e-01 
 -1.6578778376027647e-01  -1.7320942123611224e-01  -1.8098099154525329e-01  -1.8911998661404231e-01 
 -1.9764482161941266e-01  -2.0657488549572189e-01  -2.1593059419962296e-01  -2.2573344687248717e-01 
 -2.3600608504512394e-01  -2.4677235503470790e-01  -2.5805737368887444e-01  -2.6988759763683001e-01 
 -2.8229089621197540e-01  -2.9529662821489011e-01  -3.0893572268949793e-01  -3.2324076388871659e-01 
 -3.3824608060881406e-01  -3.5398784007389150e-01  -3.7050414655329983e-01  -3.8783514489518139e-01 
 -4.0602312915857575e-01  -4.2511265652442842e-01  -4.4515066666220066e-01  -4.6618660672336210e-01 
 -4.8827256212559061e-01  -5.1146339328173307e-01  -5.3581687841518943e-01  -5.6139386258800406e-01 
 -5.8825841304923376e-01  -6.1647798098868400e-01  -6.4612356975442586e-01  -6.7726990956112132e-01 
 -7.0999563867959659e-01  -7.4438349105570412e-01  -7.8052049025771986e-01  -8.1849814959568734e-01 
 -8.5841267819246148e-01  -9.0036519271411974e-01  -9.4446193438593695e-01  -9.9081449082858708e-01 
 -1.0395400221466486e+00  -1.0907614905870351e+00  -1.1446078929576444e+00  -1.2012144948554155e+00 
 -1.2607230655971402e+00  -1.3232821125747265e+00  -1.3890471135683984e+00  -1.4581807453454012e+00 
 -1.5308531066474711e+00  -1.6072419334266999e+00  -1.6875328039259325e+00  -1.7719193309157737e+00 
 -1.8606033380954174e+00  -1.9537950173386276e+00  -2.0517130631193989e+00  -2.1545847800846665e+00 
 -2.2626461593545204e+00  -2.3761419187252981e+00  -2.4953255015291949e+00  -2.6204590284682476e+00 
 -2.7518131962937704e+00  -2.8896671167483476e+00  -3.0343080887313785e+00  -3.1860312961960879e+00 
 -3.3451394238435022e+00  -3.5119421822542791e+00  -3.6867557337023014e+00  -3.8699020095349876e+00 
 -4.0617079096962252e+00  -4.2625043747223401e+00  -4.4726253203744895e+00  -4.6924064249983948e+00 
 -4.9221837597429889e+00  -5.1622922519414054e+00  -5.4130639722822655e+00  -5.6748262368964832e+00 
 -5.9478995161774346e+00  -6.2325951430614897e+00  -6.5292128146434312e+00  -6.8380378824070966e+00 
 -7.1593384280344905e+00  -7.4933621237312442e+00  -7.8403328782852588e+00  -8.2004472726641122e+00 
 -8.5738707918557022e+00  -8.9607338628583868e+00  -9.3611277122143530e+00  -9.7751000602276843e+00 
 -1.0202650672978820e+01  -1.0643726797392446e+01  -1.1098218508877704e+01  -1.1565954005369438e+01 
 -1.2046694885882424e+01  -1.2540131455866979e+01  -1.3045878105645654e+01  -1.3563468811942919e+01 
 -1.4092352815934028e+01  -1.4631890534292630e+01  -1.5181349762395850e+01  -1.5739902231165882e+01 
 -1.6306620581039244e+01  -1.6880475818342163e+01  -1.7460335321023916e+01  -1.8044961462385942e+01 
 -1.8633010923266568e+01  -1.9223034765198328e+01  -1.9813479339389247e+01  -2.0402688108945839e+01 
 -2.0988904464387129e+01  -2.1570275614869907e+01  -2.2144857639143098e+01  -2.2710621780347807e+01 
 -2.3265462066427943e+01  -2.3807204331954882e+01  -2.4333616706277095e+01  -2.4842421615716933e+01 
 -2.5331309322825909e+01  -2.5797952992670687e+01  -2.6240025234686179e+01  -2.6655216019811380e+01 
 -2.7041251818708872e+01  -2.7395915751415590e+01  -2.7717068486230087e+01  -2.8002669580659841e+01 
 -2.8250798923772809e+01  -2.8459677919704152e+01  -2.8627690046671809e+01  -2.8753400432901248e+01 
 -2.8835574107075292e+01  -2.8873192602388450e+01  -2.8865468616350661e+01  -2.8811858450531833e+01 
 -2.8712071974325177e+01  -2.8566079875129017e+01  -2.8374117976547101e+01  -2.8136688430656069e+01 
 -2.7854557626185517e+01  -2.7528750708786916e+01  -2.7160542689064044e+01  -2.6751446222172621e+01 
 -2.6303196276656163e+01  -2.5817732057941036e+01  -2.5297176692767618e+01  -2.4743815288747832e+01 
 -2.4160072034236574e+01  -2.3548486984216300e+01  -2.2911693090483599e+01  -2.2252393897886890e+01 
 -2.1573342182982145e+01  -2.0877319742526407e+01  -2.0167118095230567e+01  -1.9445519557480768e+01 
 -1.8715280824137071e+01  -1.7979116216118694e+01  -1.7239682031031702e+01  -1.6499561805408042e+01 
 -1.5761252516198168e+01  -1.5027151814260712e+01  -1.4299546394544778e+01  -1.3580601604461473e+01 
 -1.2872352376477101e+01  -1.2176695547203133e+01  -1.1495383597277065e+01  -1.0830019817637860e+01 
 -1.0182054881052727e+01  -9.5527847746744889e+00  -8.9433500308943916e+00  -8.3547361800403959e+00 
 -7.7877753393111542e+00  -7.2431488471867755e+00  -6.7213908506999900e+00  -6.2228927536160281e+00 
 -5.7479084359864299e+00  -5.2965601590247413e+00  -4.8688450732000677e+00  -4.4646422513827142e+00 
 -4.0837201724521650e+00  -3.7257445837646914e+00  -3.3902866731636969e+00  -3.0768314827947094e+00 
 -2.7847864979374259e+00  -2.5134903445376384e+00  -2.2622215293075660e+00  -2.0302071563865951e+00 
 -1.8166315548459551e+00  -1.6206447520010949e+00  -1.4413707287601085e+00  -1.2779153952437998e+00 
 -1.1293742273424612e+00  -9.9483951142992277e-01  -8.7340714200776060e-01  -7.6418293258742598e-01 
 -6.6628839890816771e-01  -5.7886598389690758e-01  -5.0108370094898469e-01  -4.3213918018766517e-01 
 -3.7126311062616979e-01  -3.1772207941140806e-01  -2.7082081738022967e-01  -2.2990386782293548e-01 
 -1.9435670245729006e-01  -1.6360631502272477e-01  -1.3712132848696293e-01  -1.1441165652168724e-01 
 -9.5027763585225619e-02  -7.8559570612753982e-02  -6.4635054951402635e-02  -5.2918593809840424e-02 
 -4.3109100164500279e-02  -3.4937998846368085e-02  -2.8167088509549458e-02  -2.2586332458477573e-02 
 -1.8011617998140193e-02  -1.4282520192477381e-02  -1.1260101794902742e-02  -8.8247767760954079e-03 
 -6.8742604384318673e-03  -5.3216246869817827e-03  -4.0934727271931268e-03  -3.1282433702786226e-03 
 -2.3746513257151035e-03  -1.7902664075832484e-03  -1.3402315232394913e-03  -9.9611667848854618e-04 
 -7.3490403701863705e-04  -5.3809731293827780e-04  -3.9094744052486116e-04  -2.8178553024538888e-04 
 -2.0145355127014879e-04  -1.4282293781498406e-04  -1.0039135475741808e-04  -6.9948129950959446e-05 
 -4.8299318827471097e-05  -3.3043965190509651e-05  -2.2393817301293701e-05  -1.5029511488059277e-05 
 -9.9870124572398679e-06  -6.5688716806202844e-06  -4.2756097330956586e-06  -2.7532278609674984e-06 
 -1.7534961820027894e-06  -1.1042432718555186e-06  -6.8738101782738860e-07  -4.2283945104794594e-07 
 -2.5696129976919411e-07  -1.5421970777178395e-07  -9.1380636151409858e-08  -5.3440347159983324e-08 
 -3.0834729636125417e-08  -1.7547612310894078e-08  -9.8457839108005451e-09  -5.4447802098774691e-09 
 -2.9665216937777451e-09  -1.5917943275323397e-09  -8.4087126851492096e-10  -4.3712095494533556e-10 
 -2.2352455640905631e-10  -1.1238731078794763e-10  -5.5538058818743280e-11  -2.6962048063133710e-11 
 -1.2853060521755004e-11  -6.0137889226516869e-12  -2.7603698284380682e-12  -1.2424004864730911e-12 
 -5.4802692663795108e-13  -2.3678640863561831e-13  -1.0016025420684027e-13  -4.1454784669598168e-14 
 -1.6788622932474272e-14  -6.6323553581084011e-15  -2.5632177184103627e-15  -9.7050630598945989e-16 
 -3.6045973635782520e-16  -1.2480751251110902e-16  -4.3415117046274555e-17  -1.5686303736794859e-17 
 -7.0753546410372118e-18  0.0000000000000000e+00  0.0000000000000000e+00  0.0000000000000000e+00 
 0.0000000000000000e+00  0.0000000000000000e+00  0.0000000000000000e+00  0.0000000000000000e+00 
 0.0000000000000000e+00  0.0000000000000000e+00  0.0000000000000000e+00  0.0000000000000000e+00 
 0.0000000000000000e+00  0.0000000000000000e+00  0.0000000000000000e+00  0.0000000000000000e+00 
 0.0000000000000000e+00  0.0000000000000000e+00  0.0000000000000000e+00  0.0000000000000000e+00 
 0.0000000000000000e+00  0.0000000000000000e+00  0.0000000000000000e+00  0.0000000000000000e+00 
 0.0000000000000000e+00  0.0000000000000000e+00  0.0000000000000000e+00  0.0000000000000000e+00 
 0.0000000000000000e+00  0.0000000000000000e+00  0.0000000000000000e+00  0.0000000000000000e+00 
 0.0000000000000000e+00  0.0000000000000000e+00  0.0000000000000000e+00  0.0000000000000000e+00 
 0.0000000000000000e+00  0.0000000000000000e+00  0.0000000000000000e+00  0.0000000000000000e+00 
 0.0000000000000000e+00  0.0000000000000000e+00  0.0000000000000000e+00  0.0000000000000000e+00 
 0.0000000000000000e+00  0.0000000000000000e+00  0.0000000000000000e+00  0.0000000000000000e+00 
 0.0000000000000000e+00  0.0000000000000000e+00  0.0000000000000000e+00  0.0000000000000000e+00 
 0.0000000000000000e+00  0.0000000000000000e+00  0.0000000000000000e+00  0.0000000000000000e+00 
 0.0000000000000000e+00  0.0000000000000000e+00  0.0000000000000000e+00  0.0000000000000000e+00 
 0.0000000000000000e+00  0.0000000000000000e+00  0.0000000000000000e+00  0.0000000000000000e+00 
 0.0000000000000000e+00  0.0000000000000000e+00  0.0000000000000000e+00  0.0000000000000000e+00 
 0.0000000000000000e+00  0.0000000000000000e+00  0.0000000000000000e+00  0.0000000000000000e+00 
 0.0000000000000000e+00  0.0000000000000000e+00  0.0000000000000000e+00  0.0000000000000000e+00 
 0.0000000000000000e+00  0.0000000000000000e+00  0.0000000000000000e+00  0.0000000000000000e+00 
 0.0000000000000000e+00  0.0000000000000000e+00  0.0000000000000000e+00  0.0000000000000000e+00 
 0.0000000000000000e+00  0.0000000000000000e+00  0.0000000000000000e+00  0.0000000000000000e+00 
 0.0000000000000000e+00  0.0000000000000000e+00  0.0000000000000000e+00  0.0000000000000000e+00 
 0.0000000000000000e+00  0.0000000000000000e+00  0.0000000000000000e+00  0.0000000000000000e+00 
 0.0000000000000000e+00  0.0000000000000000e+00  0.0000000000000000e+00  0.0000000000000000e+00 
 0.0000000000000000e+00  0.0000000000000000e+00  0.0000000000000000e+00  0.0000000000000000e+00 
 0.0000000000000000e+00  0.0000000000000000e+00  0.0000000000000000e+00  0.0000000000000000e+00 
 0.0000000000000000e+00  0.0000000000000000e+00  0.0000000000000000e+00  0.0000000000000000e+00 
 0.0000000000000000e+00  0.0000000000000000e+00  0.0000000000000000e+00  0.0000000000000000e+00 
 0.0000000000000000e+00  0.0000000000000000e+00  0.0000000000000000e+00  0.0000000000000000e+00 
 0.0000000000000000e+00  0.0000000000000000e+00  0.0000000000000000e+00  0.0000000000000000e+00 
 0.0000000000000000e+00  0.0000000000000000e+00  0.0000000000000000e+00  0.0000000000000000e+00 
 0.0000000000000000e+00  0.0000000000000000e+00  0.0000000000000000e+00  0.0000000000000000e+00 
 0.0000000000000000e+00  0.0000000000000000e+00  0.0000000000000000e+00  0.0000000000000000e+00 
 0.0000000000000000e+00  0.0000000000000000e+00  0.0000000000000000e+00  0.0000000000000000e+00 
 0.0000000000000000e+00  0.0000000000000000e+00  0.0000000000000000e+00  0.0000000000000000e+00 
 0.0000000000000000e+00  0.0000000000000000e+00  0.0000000000000000e+00  0.0000000000000000e+00 
 0.0000000000000000e+00  0.0000000000000000e+00  0.0000000000000000e+00  0.0000000000000000e+00 
 0.0000000000000000e+00  0.0000000000000000e+00  0.0000000000000000e+00  0.0000000000000000e+00 
 0.0000000000000000e+00  0.0000000000000000e+00  0.0000000000000000e+00  0.0000000000000000e+00 
 0.0000000000000000e+00  0.0000000000000000e+00  0.0000000000000000e+00  0.0000000000000000e+00 
 0.0000000000000000e+00  0.0000000000000000e+00  0.0000000000000000e+00  0.0000000000000000e+00 
 0.0000000000000000e+00  0.0000000000000000e+00  0.0000000000000000e+00  0.0000000000000000e+00 
 0.0000000000000000e+00  0.0000000000000000e+00  0.0000000000000000e+00  0.0000000000000000e+00 
 0.0000000000000000e+00  0.0000000000000000e+00  0.0000000000000000e+00  0.0000000000000000e+00 
 0.0000000000000000e+00  0.0000000000000000e+00  0.0000000000000000e+00  0.0000000000000000e+00 
 0.0000000000000000e+00  0.0000000000000000e+00  0.0000000000000000e+00  0.0000000000000000e+00 
 0.0000000000000000e+00  0.0000000000000000e+00  0.0000000000000000e+00  0.0000000000000000e+00 
 0.0000000000000000e+00  0.0000000000000000e+00  0.0000000000000000e+00  0.0000000000000000e+00 
 0.0000000000000000e+00  0.0000000000000000e+00  0.0000000000000000e+00  0.0000000000000000e+00 
 0.0000000000000000e+00  0.0000000000000000e+00  0.0000000000000000e+00  0.0000000000000000e+00 
 0.0000000000000000e+00  0.0000000000000000e+00  0.0000000000000000e+00  0.0000000000000000e+00 
 0.0000000000000000e+00  0.0000000000000000e+00  0.0000000000000000e+00  0.0000000000000000e+00 
 0.0000000000000000e+00  0.0000000000000000e+00  0.0000000000000000e+00  0.0000000000000000e+00 
 0.0000000000000000e+00  0.0000000000000000e+00  0.0000000000000000e+00  0.0000000000000000e+00 
 0.0000000000000000e+00  0.0000000000000000e+00  0.0000000000000000e+00  0.0000000000000000e+00 
 0.0000000000000000e+00  0.0000000000000000e+00  0.0000000000000000e+00  0.0000000000000000e+00 
 0.0000000000000000e+00  0.0000000000000000e+00  0.0000000000000000e+00  0.0000000000000000e+00 
 0.0000000000000000e+00  0.0000000000000000e+00  0.0000000000000000e+00  0.0000000000000000e+00 
 0.0000000000000000e+00  0.0000000000000000e+00  0.0000000000000000e+00  0.0000000000000000e+00 
 0.0000000000000000e+00  0.0000000000000000e+00  0.0000000000000000e+00  0.0000000000000000e+00 
 0.0000000000000000e+00 
  </PP_BETA>
  <PP_DIJ>
 2   Number of nonzero Dij
 1 1 6.7567480973630225e+00 
 2 2 -8.4714520954940808e-02 
  </PP_DIJ>
</PP_NONLOCAL>
<PP_PSWFC>
S    0   1.50          Wavefunction
 1.1046540767603258e-08  1.1191083292965625e-08  1.1337517138284492e-08  1.1485867051237954e-08 
 1.1636158103324485e-08  1.1788415694100088e-08  1.1942665555470903e-08  1.2098933756041986e-08 
 1.2257246705522962e-08  1.2417631159191368e-08  1.2580114222414354e-08  1.2744723355229604e-08 
 1.2911486376986132e-08  1.3080431471045867e-08  1.3251587189546726e-08  1.3424982458228005e-08 
 1.3600646581318927e-08  1.3778609246491150e-08  1.3958900529876090e-08  1.4141550901147866e-08 
 1.4326591228672792e-08  1.4514052784726226e-08  1.4703967250777680e-08  1.4896366722845118e-08 
 1.5091283716919270e-08  1.5288751174458955e-08  1.5488802467958294e-08  1.5691471406586796e-08 
 1.5896792241903186e-08  1.6104799673644088e-08  1.6315528855588374e-08  1.6529015401498279e-08 
 1.6745295391138269e-08  1.6964405376372640e-08  1.7186382387342928e-08  1.7411263938726134e-08 
 1.7639088036074854e-08  1.7869893182240333e-08  1.8103718383879640e-08  1.8340603158047908e-08 
 1.8580587538876872e-08  1.8823712084340822e-08  1.9070017883111039e-08  1.9319546561499948e-08 
 1.9572340290496137e-08  1.9828441792891437e-08  2.0087894350501235e-08  2.0350741811479290e-08 
 2.0617028597728269e-08  2.0886799712407217e-08  2.1160100747537298e-08  2.1436977891707058e-08 
 2.1717477937878483e-08  2.2001648291295244e-08  2.2289536977494369e-08  2.2581192650422807e-08 
 2.2876664600660162e-08  2.3176002763749044e-08  2.3479257728634395e-08  2.3786480746213298e-08 
 2.4097723737996606e-08  2.4413039304883932e-08  2.4732480736053519e-08  2.5056102017968314e-08 
 2.5383957843500016e-08  2.5716103621172429e-08  2.6052595484525833e-08  2.6393490301603820e-08 
 2.6738845684564331e-08  2.7088719999416426e-08  2.7443172375884491e-08  2.7802262717401467e-08 
 2.8166051711232921e-08  2.8534600838733522e-08  2.8907972385737789e-08  2.9286229453086773e-08 
 2.9669435967292497e-08  3.0057656691341892e-08  3.0450957235642292e-08  3.0849404069109865e-08 
 3.1253064530403418e-08  3.1662006839305014e-08  3.2076300108249671e-08  3.2496014354005747e-08 
 3.2921220509508382e-08  3.3351990435847589e-08  3.3788396934413328e-08  3.4230513759199566e-08 
 3.4678415629269185e-08  3.5132178241382119e-08  3.5591878282788692e-08  3.6057593444190414e-08 
 3.6529402432870343e-08  3.7007384985995278e-08  3.7491621884091999e-08  3.7982194964699897e-08 
 3.8479187136202276e-08  3.8982682391838577e-08  3.9492765823900037e-08  4.0009523638111075e-08 
 4.0533043168198932e-08  4.1063412890653874e-08  4.1600722439682607e-08  4.2145062622357449e-08 
 4.2696525433963565e-08  4.3255204073547234e-08  4.3821192959667379e-08  4.4394587746353538e-08 
 4.4975485339272274e-08  4.5563983912105520e-08  4.6160182923142957e-08  4.6764183132091741e-08 
 4.7376086617106106e-08  4.7995996792039810e-08  4.8624018423924504e-08  4.9260257650676593e-08 
 4.9904821999036102e-08  5.0557820402740030e-08  5.1219363220933791e-08  5.1889562256823377e-08 
 5.2568530776571805e-08  5.3256383528442743e-08  5.3953236762194739e-08  5.4659208248729200e-08 
 5.5374417299995585e-08  5.6098984789157059e-08  5.6833033171020013e-08  5.7576686502731080e-08 
 5.8330070464744905e-08  5.9093312382066392e-08  5.9866541245770982e-08  6.0649887734806406e-08 
 6.1443484238080075e-08  6.2247464876835316e-08  6.3061965527320472e-08  6.3887123843754868e-08 
 6.4723079281595202e-08  6.5569973121106420e-08  6.6427948491241232e-08  6.7297150393832136e-08 
 6.8177725728099991e-08  6.9069823315483419e-08  6.9973593924793200e-08  7.0889190297695918e-08 
 7.1816767174531154e-08  7.2756481320466502e-08  7.3708491551995088e-08  7.4672958763779855e-08 
 7.5650045955849096e-08  7.6639918261148169e-08  7.7642742973451747e-08  7.8658689575641288e-08 
 7.9687929768352996e-08  8.0730637499000374e-08  8.1786988991177017e-08  8.2857162774444107e-08 
 8.3941339714507823e-08  8.5039703043791941e-08  8.6152438392410502e-08  8.7279733819545916e-08 
 8.8421779845237993e-08  8.9578769482588902e-08  9.0750898270390033e-08  9.1938364306175579e-08 
 9.3141368279709256e-08  9.4360113506909083e-08  9.5594805964216578e-08  9.6845654323415690e-08 
 9.8112869986907668e-08  9.9396667123447915e-08  1.0069726270435036e-07  1.0201487654016628e-07 
 1.0334973131784312e-07  1.0470205263836985e-07  1.0607206905491512e-07  1.0746001211146521e-07 
 1.0886611638196738e-07  1.1029061950998611e-07  1.1173376224887851e-07  1.1319578850249573e-07 
 1.1467694536641751e-07  1.1617748316972661e-07  1.1769765551733030e-07  1.1923771933283610e-07 
 1.2079793490198899e-07  1.2237856591667758e-07  1.2397987951951640e-07  1.2560214634901250e-07 
 1.2724564058532292e-07  1.2891063999661227e-07  1.3059742598601686e-07  1.3230628363922439e-07 
 1.3403750177267657e-07  1.3579137298240342e-07  1.3756819369349705e-07  1.3936826421023354e-07 
 1.4119188876685180e-07  1.4303937557899681e-07  1.4491103689583794e-07  1.4680718905286912e-07 
 1.4872815252540149e-07  1.5067425198275629e-07  1.5264581634316846e-07  1.5464317882940910e-07 
 1.5666667702513721e-07  1.5871665293198965e-07  1.6079345302741912e-07  1.6289742832329064e-07 
 1.6502893442524539e-07  1.6718833159284284e-07  1.6937598480049131e-07  1.7159226379917685e-07 
 1.7383754317900160e-07  1.7611220243254164e-07  1.7841662601903558e-07  1.8075120342941460e-07 
 1.8311632925218523e-07  1.8551240324017572e-07  1.8793983037815759e-07  1.9039902095135395e-07 
 1.9289039061484638e-07  1.9541436046389129e-07  1.9797135710515958e-07  2.0056181272890960e-07 
 2.0318616518210702e-07  2.0584485804250437e-07  2.0853834069369134e-07  2.1126706840113065e-07 
 2.1403150238919027e-07  2.1683210991918725e-07  2.1966936436845523e-07  2.2254374531044881e-07 
 2.2545573859590013e-07  2.2840583643503911e-07  2.3139453748089383e-07  2.3442234691368329e-07 
 2.3748977652631832e-07  2.4059734481102375e-07  2.4374557704709889e-07  2.4693500538982860e-07 
 2.5016616896056209e-07  2.5343961393797405e-07  2.5675589365052338e-07  2.6011556867012646e-07 
 2.6351920690705894e-07  2.6696738370610450e-07  2.7046068194396521e-07  2.7399969212795109e-07 
 2.7758501249596511e-07  2.8121724911780132e-07  2.8489701599777240e-07  2.8862493517868590e-07 
 2.9240163684718478e-07  2.9622775944047261e-07  3.0010394975443951e-07  3.0403086305320930e-07 
 3.0800916318012595e-07  3.1203952267019877e-07  3.1612262286402552e-07  3.2025915402321419e-07 
 3.2444981544732227e-07  3.2869531559233673e-07  3.3299637219071227e-07  3.3735371237299223e-07 
 3.4176807279103276e-07  3.4624019974285201e-07  3.5077084929912849e-07  3.5536078743137019e-07 
 3.6001079014177925e-07  3.6472164359483495e-07  3.6949414425062128e-07  3.7432909899992118e-07 
 3.7922732530110616e-07  3.8418965131884253e-07  3.8921691606464462e-07  3.9430996953929718e-07 
 3.9946967287717514e-07  4.0469689849248665e-07  4.0999253022746540e-07  4.1535746350253823e-07 
 4.2079260546849416e-07  4.2629887516068119e-07  4.3187720365525351e-07  4.3752853422749807e-07 
 4.4325382251226038e-07  4.4905403666649724e-07  4.5493015753397666e-07  4.6088317881215003e-07 
 4.6691410722121987e-07  4.7302396267542355e-07  4.7921377845655977e-07  4.8548460138967464e-07 
 4.9183749202023853e-07  4.9827352479404262e-07  5.0479378823993705e-07  5.1139938515503337e-07 
 5.1809143279236608e-07  5.2487106305105100e-07  5.3173942266897126e-07  5.3869767341802701e-07 
 5.4574699230198495e-07  5.5288857175696314e-07  5.6012361985458622e-07  5.6745336050785033e-07 
 5.7487903367973236e-07  5.8240189559458305e-07  5.9002321895234467e-07  5.9774429314562726e-07 
 6.0556642447968719e-07  6.1349093639534869e-07  6.2151916969490612e-07  6.2965248277105068e-07 
 6.3789225183886587e-07  6.4623987117092929e-07  6.5469675333556918e-07  6.6326432943831780e-07 
 6.7194404936660697e-07  6.8073738203775138e-07  6.8964581565026666e-07  6.9867085793856823e-07 
 7.0781403643109913e-07  7.1707689871193800e-07  7.2646101268593138e-07  7.3596796684740657e-07 
 7.4559937055251054e-07  7.5535685429523204e-07  7.6524206998715541e-07  7.7525669124100283e-07 
 7.8540241365801712e-07  7.9568095511924182e-07  8.0609405608075616e-07  8.1664347987291913e-07 
 8.2733101300368465e-07  8.3815846546604237e-07  8.4912767104965143e-07  8.6024048765672037e-07 
 8.7149879762220247e-07  8.8290450803836656e-07  8.9445955108380808e-07  9.0616588435696861e-07 
 9.1802549121422699e-07  9.3004038111263404e-07  9.4221258995735728e-07  9.5454418045390727e-07 
 9.6703724246522036e-07  9.7969389337366508e-07  9.9251627844805332e-07  1.0055065712157238e-06 
 1.0186669738397896e-06  1.0319997175016103e-06  1.0455070627885832e-06  1.0591913000873297e-06 
 1.0730547499823600e-06  1.0870997636603052e-06  1.1013287233197944e-06  1.1157440425870784e-06 
 1.1303481669374768e-06  1.1451435741227520e-06  1.1601327746044912e-06  1.1753183119936053e-06 
 1.1907027634960331e-06  1.2062887403647517e-06  1.2220788883581965e-06  1.2380758882051953e-06 
 1.2542824560765183e-06  1.2707013440631522e-06  1.2873353406614161e-06  1.3041872712650199e-06 
 1.3212599986641891e-06  1.3385564235519688e-06  1.3560794850378287e-06  1.3738321611686914e-06 
 1.3918174694575070e-06  1.4100384674195044e-06  1.4284982531162490e-06  1.4471999657076413e-06 
 1.4661467860119890e-06  1.4853419370742985e-06  1.5047886847429250e-06  1.5244903382547253e-06 
 1.5444502508288681e-06  1.5646718202694523e-06  1.5851584895770869e-06  1.6059137475695964e-06 
 1.6269411295120179e-06  1.6482442177560520e-06  1.6698266423891426e-06  1.6916920818933608e-06 
 1.7138442638142792e-06  1.7362869654400106e-06  1.7590240144906120e-06  1.7820592898180397e-06 
 1.8053967221168578e-06  1.8290402946459107e-06  1.8529940439611560e-06  1.8772620606598821e-06 
 1.9018484901365310e-06  1.9267575333503446e-06  1.9519934476050807e-06  1.9775605473410176e-06 
 2.0034632049395094e-06  2.0297058515403341e-06  2.0562929778720949e-06  2.0832291350959376e-06 
 2.1105189356628568e-06  2.1381670541848732e-06  2.1661782283203626e-06  2.1945572596738420e-06 
 2.2233090147105059e-06  2.2524384256858288e-06  2.2819504915905543e-06  2.3118502791114069e-06 
 2.3421429236078545e-06  2.3728336301052783e-06  2.4039276743049075e-06  2.4354304036108868e-06 
 2.4673472381748671e-06  2.4996836719584899e-06  2.5324452738141951e-06  2.5656376885847462e-06 
 2.5992666382219164e-06  2.6333379229247660e-06  2.6678574222979665e-06  2.7028310965306521e-06 
 2.7382649875962564e-06  2.7741652204738629e-06  2.8105380043915556e-06  2.8473896340923121e-06 
 2.8847264911229783e-06  2.9225550451468989e-06  2.9608818552807679e-06  2.9997135714563081e-06 
 3.0390569358073943e-06  3.0789187840832627e-06  3.1193060470884581e-06  3.1602257521502010e-06 
 3.2016850246138851e-06  3.2436910893674066e-06  3.2862512723951100e-06  3.3293730023620879e-06 
 3.3730638122296560e-06  3.4173313409028211e-06  3.4621833349105981e-06  3.5076276501200528e-06 
 3.5536722534849924e-06  3.6003252248302317e-06  3.6475947586724174e-06  3.6954891660784313e-06 
 3.7440168765623810e-06  3.7931864400222917e-06  3.8430065287175939e-06  3.8934859392885570e-06 
 3.9446335948188937e-06  3.9964585469427205e-06  4.0489699779972038e-06  4.1021772032221741e-06 
 4.1560896730081180e-06  4.2107169751939270e-06  4.2660688374158949e-06  4.3221551295094878e-06 
 4.3789858659654496e-06  4.4365712084418807e-06  4.4949214683339879e-06  4.5540471094032415e-06 
 4.6139587504677603e-06  4.6746671681558310e-06  4.7361832997244598e-06  4.7985182459450193e-06 
 4.8616832740580722e-06  4.9256898207995407e-06  4.9905494955004605e-06  5.0562740832626856e-06 
 5.1228755482129300e-06  5.1903660368376719e-06  5.2587578814015279e-06  5.3280636034517939e-06 
 5.3982959174119316e-06  5.4694677342669542e-06  5.5415921653436767e-06  5.6146825261889986e-06 
 5.6887523405494296e-06  5.7638153444552713e-06  5.8398854904129034e-06  5.9169769517088584e-06 
 5.9951041268293955e-06  6.0742816439995387e-06  6.1545243658456187e-06  6.2358473941855183e-06 
 6.3182660749510491e-06  6.4017960032469612e-06  6.4864530285513489e-06  6.5722532600623196e-06 
 6.6592130721960946e-06  6.7473491102417494e-06  6.8366782961781617e-06  6.9272178346588701e-06 
 7.0189852191707821e-06  7.1119982383728974e-06  7.2062749826214884e-06  7.3018338506883954e-06 
 7.3986935566793568e-06  7.4968731371596348e-06  7.5963919584943526e-06  7.6972697244114198e-06 
 7.7995264837950819e-06  7.9031826387185634e-06  8.0082589527245454e-06  8.1147765593626080e-06 
 8.2227569709930968e-06  8.3322220878672828e-06  8.4431942074941232e-06  8.5556960343041931e-06 
 8.6697506896219904e-06  8.7853817219581279e-06  8.9026131176334563e-06  9.0214693117475965e-06 
 9.1419751995049649e-06  9.2641561479118136e-06  9.3880380078583900e-06  9.5136471266009901e-06 
 9.6410103606590856e-06  9.7701550891435671e-06  9.9011092275326368e-06  1.0033901241912644e-05 
 1.0168560163701877e-05  1.0305115604876026e-05  1.0443597773714886e-05  1.0584037491090594e-05 
 1.0726466207318685e-05  1.0870916019593946e-05  1.1017419690034182e-05  1.1166010664355835e-05 
 1.1316723091206483e-05  1.1469591842180282e-05  1.1624652532543517e-05  1.1781941542698629e-05 
 1.1941496040416206e-05  1.2103354003865829e-05  1.2267554245477809e-05  1.2434136436669435e-05 
 1.2603141133470583e-05  1.2774609803085293e-05  1.2948584851427227e-05  1.3125109651668866e-05 
 1.3304228573845776e-05  1.3485987015559227e-05  1.3670431433822422e-05  1.3857609378097297e-05 
 1.4047569524571261e-05  1.4240361711725201e-05  1.4436036977246425e-05  1.4634647596342637e-05 
 1.4836247121515476e-05  1.5040890423854810e-05  1.5248633735917671e-05  1.5459534696258758e-05 
 1.5673652395682131e-05  1.5891047425287243e-05  1.6111781926385506e-05  1.6335919642367191e-05 
 1.6563525972602102e-05  1.6794668028461177e-05  1.7029414691550372e-05  1.7267836674252198e-05 
 1.7510006582674865e-05  1.7755998982113522e-05  1.8005890465132984e-05  1.8259759722386434e-05 
 1.8517687616290095e-05  1.8779757257679269e-05  1.9046054085577285e-05  1.9316665950215084e-05 
 1.9591683199445584e-05  1.9871198768704194e-05  2.0155308274673613e-05  2.0444110112819148e-05 
 2.0737705558968511e-05  2.1036198875118556e-05  2.1339697419660427e-05  2.1648311762223696e-05 
 2.1962155803350189e-05  2.2281346899218310e-05  2.2606005991649895e-05  2.2936257743642701e-05 
 2.3272230680684251e-05  2.3614057338115146e-05  2.3961874414823714e-05  2.4315822933567770e-05 
 2.4676048408234587e-05  2.5042701018365720e-05  2.5415935791290072e-05  2.5795912792226376e-05 
 2.6182797322734482e-05  2.6576760127914843e-05  2.6977977612776037e-05  2.7386632068212285e-05 
 2.7802911907055790e-05  2.8227011910693432e-05  2.8659133486762999e-05  2.9099484938471514e-05 
 2.9548281746107258e-05  3.0005746861347369e-05  3.0472111014995457e-05  3.0947613038817864e-05 
 3.1432500202183364e-05  3.1927028564249532e-05  3.2431463342479593e-05  3.2946079298316610e-05 
 3.3471161140887436e-05  3.4007003949657429e-05  3.4553913617007730e-05  3.5112207311761452e-05 
 3.5682213964743142e-05  3.6264274777516066e-05  3.6858743755507762e-05  3.7465988266802338e-05 
 3.8086389627951675e-05  3.8720343718234737e-05  3.9368261623877049e-05  4.0030570313829875e-05 
 4.0707713348801499e-05  4.1400151625331868e-05  4.2108364156807787e-05  4.2832848893426194e-05 
 4.3574123583233511e-05  4.4332726676494547e-05  4.5109218275779766e-05  4.5904181134302415e-05 
 4.6718221705190396e-05  4.7551971244539573e-05  4.8406086971268759e-05  4.9281253286981176e-05 
 5.0178183059233204e-05  5.1097618971821513e-05  5.2040334945922814e-05  5.3007137636158515e-05 
 5.3998868005911411e-05  5.5016402986492161e-05  5.6060657225043487e-05  5.7132584926378256e-05 
 5.8233181794278995e-05  5.9363487078137129e-05  6.0524585731188438e-05  6.1717610687002505e-05 
 6.2943745261314816e-05  6.4204225686749288e-05  6.5500343788471289e-05  6.6833449809336563e-05 
 6.8204955393664504e-05  6.9616336739365984e-05  7.1069137928800427e-05  7.2564974449426713e-05 
 7.4105536916050909e-05  7.5692595007265524e-05  7.7328001629521891e-05  7.9013697323186482e-05 
 8.0751714925904162e-05  8.2544184509635992e-05  8.4393338608858471e-05  8.6301517758609328e-05 
 8.8271176362354580e-05  9.0304888911031691e-05  9.2405356576106458e-05  9.4575414201072375e-05 
 9.6818037717530251e-05  9.9136352013819224e-05  1.0153363928614321e-04  1.0401334790425104e-04 
 1.0657910182600593e-04  1.0923471059762271e-04  1.1198417997898072e-04  1.1483172323624433e-04 
 1.1778177314706208e-04  1.2083899476688319e-04  1.2400829900844425e-04  1.2729485709026149e-04 
 1.3070411591403441e-04  1.3424181443524305e-04  1.3791400109594015e-04  1.4172705239381047e-04 
 1.4568769266703826e-04  1.4980301518040500e-04  1.5408050460438179e-04  1.5852806098580436e-04 
 1.6315402531607645e-04  1.6796720681076961e-04  1.7297691202302742e-04  1.7819297592238146e-04 
 1.8362579508050543e-04  1.8928636311611816e-04  1.9518630856276892e-04  2.0133793533565385e-04 
 2.0775426598700062e-04  2.1444908795398480e-04  2.2143700301870437e-04  2.2873348021650082e-04 
 2.3635491244700324e-04  2.4431867706175745e-04  2.5264320072331637e-04  2.6134802885331455e-04 
 2.7045390001146746e-04  2.7998282557374594e-04  2.8995817510633903e-04  3.0040476786257511e-04 
 3.1134897086290084e-04  3.2281880405349007e-04  3.3484405307726149e-04  3.4745639023223471e-04 
 3.6068950423645459e-04  3.7457923946640622e-04  3.8916374538716252e-04  4.0448363694771774e-04 
 4.2058216677435151e-04  4.3750541005869661e-04  4.5530246310581296e-04  4.7402565658127084e-04 
 4.9373078457540557e-04  5.1447735068785045e-04  5.3632883242660245e-04  5.5935296531356622e-04 
 5.8362204819323630e-04  6.0921327135327898e-04  6.3620906918574859e-04  6.6469749924597053e-04 
 6.9477264970318196e-04  7.2653507732337497e-04  7.6009227828086805e-04  7.9555919426147154e-04 
 8.3305875649718078e-04  8.7272247056061970e-04  9.1469104494747199e-04  9.5911506668727362e-04 
 1.0061557274477480e-03  1.0559856038356394e-03  1.1087894958481945e-03  1.1647653276943503e-03 
 1.2241251154835198e-03  1.2870960065728737e-03  1.3539213956711659e-03  1.4248621231184534e-03 
 1.5001977610962362e-03  1.5802279938712204e-03  1.6652740985373575e-03  1.7556805330941503e-03 
 1.8518166390830368e-03  1.9540784663962104e-03  2.0628907282711300e-03  2.1787088948860755e-03 
 2.3020214343735545e-03  2.4333522104638115e-03  2.5732630463539551e-03  2.7223564647607785e-03 
 2.8812786144470806e-03  3.0507223937992047e-03  3.2314307822616335e-03  3.4242003905831046e-03 
 3.6298852408738636e-03  3.8494007873864189e-03  4.0837281886779778e-03  4.3339188413512794e-03 
 4.6010991848550046e-03  4.8864757858026360e-03  5.1913407088813408e-03  5.5170771796075957e-03 
 5.8651655418797350e-03  6.2371895104158959e-03  6.6348427146915726e-03  7.0599355268568288e-03 
 7.5144021612906326e-03  8.0003080279333304e-03  8.5198573153568505e-03  9.0754007727541722e-03 
 9.6694436527717045e-03  1.0304653769540293e-02  1.0983869618609520e-02  1.1710108498037749e-02 
 1.2486574562968806e-02  1.3316666740000387e-02  1.4203986422892140e-02  1.5152344868011900e-02 
 1.6165770206621546e-02  1.7248513991736061e-02  1.8405057199670394e-02  1.9640115610004460e-02 
 2.0958644491655500e-02  2.2365842525812172e-02  2.3867154897223696e-02  2.5468275482399955e-02 
 2.7175148055786021e-02  2.8993966422933365e-02  3.0931173374278417e-02  3.2993458336736940e-02 
 3.5187753586158874e-02  3.7521228875154175e-02  4.0001284330570396e-02  4.2635541484108405e-02 
 4.5431832317231233e-02  4.8398186224375049e-02  5.1542814821031506e-02  5.4874094538179007e-02 
 5.8400546943031921e-02  6.2130816698796623e-02  6.6073647014590994e-02  7.0237852335838666e-02 
 7.4632287887436366e-02  7.9265815520605742e-02  8.4147265158588322e-02  8.9285391030378761e-02 
 9.4688821878341309e-02  1.0036600447225108e-01  1.0632514008213870e-01  1.1257411403735017e-01 
 1.1912041906515103e-01  1.2597107366025245e-01  1.3313253718062640e-01  1.4061062361299159e-01 
 1.4841041604478666e-01  1.5653618427687971e-01  1.6499130545001245e-01  1.7377818411411550e-01 
 1.8289818986431183e-01  1.9235159188955228e-01  2.0213750100954933e-01  2.1225381766684040e-01 
 2.2269718550329751e-01  2.3346295048575055e-01  2.4454512564027070e-01  2.5593636156139621e-01 
 2.6762792295912780e-01  2.7960967157869132e-01  2.9187005586916498e-01  3.0439610778627590e-01 
 3.1717344709506790e-01  3.3018629349489170e-01  3.4341748682812562e-01  3.5684851556078645e-01 
 3.7045955364261834e-01  3.8422950577026893e-01  3.9813606099278986e-01  4.1215575451607489e-01 
 4.2626403748349523e-01  4.4043535443480775e-01  4.5464322807495683e-01  4.6886035091888484e-01 
 4.8305868331794477e-01  4.9720955731786054e-01  5.1128378574724542e-01  5.2525177588925764e-01 
 5.3908364704691547e-01  5.5274935127478242e-01  5.6621879651619855e-01  5.7946197135607314e-01 
 5.9244907057473262e-01  6.0515062066881697e-01  6.1753760449111073e-01  6.2958158415257548e-01 
 6.4125482133364287e-01  6.5253039415436531e-01  6.6338230976082235e-01  6.7378561182387808e-01 
 6.8371648217754599e-01  6.9315233586032565e-01  7.0207190888400628e-01  7.1045533811894812e-01 
 7.1828423276032716e-01  7.2554173692499924e-01  7.3221258302233450e-01  7.3828313564323977e-01 
 7.4374142581791536e-01  7.4857717560275339e-01  7.5278181306795433e-01  7.5634847786747283e-01 
 7.5927201767938002e-01  7.6154897590516168e-01  7.6317757110847639e-01  7.6415766875521807e-01 
 7.6449074588553567e-01  7.6417984940309303e-01  7.6322954870622051e-01  7.6164588340901296e-01 
 7.5943630690770214e-01  7.5660962653908714e-01  7.5317594105428609e-01  7.4914657609383928e-01 
 7.4453401830090882e-01  7.3935184864999581e-01  7.3361467550146930e-01  7.2733806781962262e-01 
 7.2053848891643357e-01  7.1323323100705749e-01  7.0544035078863110e-01  6.9717860618328664e-01 
 6.8846739432123050e-01  6.7932669078179464e-01  6.6977699006085423e-01  6.5983924719269527e-01 
 6.4953482042394550e-01  6.3888541481675143e-01  6.2791302664797555e-01  6.1663988847044893e-01 
 6.0508841471068886e-01  5.9328114769420059e-01  5.8124070401333516e-01  5.6898972054849184e-01 
 5.5655080329698881e-01  5.4394647269408714e-01  5.3119911180835000e-01  5.1833091436174905e-01 
 5.0536383334536661e-01  4.9231953041141563e-01  4.7921932625549785e-01  4.6608415223076072e-01 
 4.5293450345660047e-01  4.3979039369774964e-01  4.2667131229441979e-01  4.1359618342033255e-01 
 4.0058332793305323e-01  3.8765042806049610e-01  3.7481449513955939e-01  3.6209184058867383e-01 
 3.4949805025687919e-01  3.3704796224935485e-01  3.2475564828473963e-01  3.1263439859502595e-01 
 3.0069671033186945e-01  2.8895427940343077e-01  2.7741799563313119e-01  2.6609794108917728e-01 
 2.5500339140616229e-01  2.4414281990358844e-01  2.3352390428540934e-01  2.2315353569503427e-01 
 2.1303782989612216e-01  2.0318214035107904e-01  1.9359107297613981e-01  1.8426850236368647e-01 
 1.7521758927833139e-01  1.6644079925248709e-01  1.5793992212876781e-01  1.4971609241970166e-01 
 1.4176981037891223e-01  1.3410096370120195e-01  1.2670884979091404e-01  1.1959219855772729e-01 
 1.1274919571589938e-01  1.0617750657633414e-01  9.9874300330274432e-02  9.3836274828675015e-02 
 8.8059681862359768e-02  8.2540352945066633e-02  7.7273725594779449e-02  7.2254870098847526e-02 
 6.7478516735931443e-02  6.2939083413509817e-02  5.8630703664313985e-02  5.4547254929389340e-02 
 5.0682387040263469e-02  4.7029550798600120e-02  4.3582026539309190e-02  4.0332952552843318e-02 
 3.7275353234665708e-02  3.4402166824857937e-02  3.1706272598636127e-02  2.9180517369152729e-02 
 2.6817741167265301e-02  2.4610801968777577e-02  2.2552599347729393e-02  2.0636096944355937e-02 
 1.8854343648015581e-02  1.7200493408364596e-02  1.5667823601994812e-02  1.4249751896316002e-02 
 1.2939851567344493e-02  1.1731865242963465e-02  1.0619717057887269e-02  9.5975232207608091e-03 
 8.6596010073577909e-03  7.8004762065418190e-03  7.0148890573884359e-03  6.2977987265295408e-03 
 5.6443863842991779e-03  5.0500569465818821e-03  4.5104395563662003e-03  4.0213868848823038e-03 
 3.5789733368688467e-03  3.1794922480009647e-03  2.8194521648641493e-03  2.4955722991342826e-03 
 2.2047772478893438e-03  1.9441910713083471e-03  1.7111308174758615e-03  1.5030995817332182e-03 
 1.3177791850121573e-03  1.1530225520170090e-03  1.0068458660324596e-03  8.7742057262513943e-04 
 7.6306529966286868e-04  6.6223775597701871e-04  5.7352666571917356e-04  4.9564379008666377e-04 
 4.2741608268112542e-04  3.6777801938300294e-04  3.1576413833020206e-04  2.7050182043194274e-04 
 2.3120433587439369e-04  1.9716417732156539e-04  1.6774669601581318e-04  1.4238405276364898e-04 
 1.2056949187504767e-04  1.0185194252201821e-04  8.5830948708014244e-05  7.2151926092239497e-05 
 6.0501741298341053e-05  5.0604607047655801e-05  4.2218284486282155e-05  3.5130582411623673e-05 
 2.9156141733788124e-05  2.4133492414132721e-05  1.9922369288765928e-05  1.6401272591087382e-05 
 1.3465258611018611e-05  1.1023945751284612e-05  8.9997212398612217e-06  7.3261339117298281e-06 
 5.9464587614694099e-06  4.8124193707436929e-06  3.8830548118536091e-06  3.1237182026920026e-06 
 2.5051947212775261e-06  2.0029275651712737e-06  1.5963410473920725e-06  1.2682507433075447e-06 
 1.0043513309796994e-06  7.9277349064951104e-07  6.2370193895135818e-07  4.8904736292632938e-07 
 3.8216568212788228e-07  2.9761869947829196e-07  2.3097079955826628e-07  1.7861691423638717e-07 
 1.3763749842703879e-07  1.0567674257054781e-07  8.0840693122894290e-08  6.1612358485104303e-08 
 4.6781246449083858e-08  3.5385111841111917e-08  2.6661991371329180e-08  2.0010868742490401e-08 
 1.4959548987055088e-08  1.1138529038387952e-08  8.2598339758119477e-09  6.0999475099294436e-09 
 4.4861033068658450e-09  3.2853228486296658e-09  2.3956879498656686e-09  1.7394243085488059e-09 
 1.2574381092539336e-09  9.0503014087860832e-10  6.4854270729586085e-10  4.6274986911602917e-10 
 3.2883631398809858e-10  2.3284012250352381e-10  1.6445968643840622e-10  0.0000000000000000e+00 
 0.0000000000000000e+00  0.0000000000000000e+00  0.0000000000000000e+00  0.0000000000000000e+00 
 0.0000000000000000e+00  0.0000000000000000e+00  0.0000000000000000e+00  0.0000000000000000e+00 
 0.0000000000000000e+00  0.0000000000000000e+00  0.0000000000000000e+00  0.0000000000000000e+00 
 0.0000000000000000e+00  0.0000000000000000e+00  0.0000000000000000e+00  0.0000000000000000e+00 
 0.0000000000000000e+00  0.0000000000000000e+00  0.0000000000000000e+00  0.0000000000000000e+00 
 0.0000000000000000e+00  0.0000000000000000e+00  0.0000000000000000e+00  0.0000000000000000e+00 
 0.0000000000000000e+00  0.0000000000000000e+00  0.0000000000000000e+00  0.0000000000000000e+00 
 0.0000000000000000e+00  0.0000000000000000e+00  0.0000000000000000e+00  0.0000000000000000e+00 
 0.0000000000000000e+00  0.0000000000000000e+00  0.0000000000000000e+00  0.0000000000000000e+00 
 0.0000000000000000e+00  0.0000000000000000e+00  0.0000000000000000e+00  0.0000000000000000e+00 
 0.0000000000000000e+00  0.0000000000000000e+00  0.0000000000000000e+00  0.0000000000000000e+00 
 0.0000000000000000e+00  0.0000000000000000e+00  0.0000000000000000e+00  0.0000000000000000e+00 
 0.0000000000000000e+00  0.0000000000000000e+00  0.0000000000000000e+00  0.0000000000000000e+00 
 0.0000000000000000e+00  0.0000000000000000e+00  0.0000000000000000e+00  0.0000000000000000e+00 
 0.0000000000000000e+00  0.0000000000000000e+00  0.0000000000000000e+00  0.0000000000000000e+00 
 0.0000000000000000e+00  0.0000000000000000e+00  0.0000000000000000e+00  0.0000000000000000e+00 
 0.0000000000000000e+00  0.0000000000000000e+00  0.0000000000000000e+00  0.0000000000000000e+00 
 0.0000000000000000e+00  0.0000000000000000e+00  0.0000000000000000e+00  0.0000000000000000e+00 
 0.0000000000000000e+00  0.0000000000000000e+00  0.0000000000000000e+00  0.0000000000000000e+00 
 0.0000000000000000e+00  0.0000000000000000e+00  0.0000000000000000e+00  0.0000000000000000e+00 
 0.0000000000000000e+00  0.0000000000000000e+00  0.0000000000000000e+00  0.0000000000000000e+00 
 0.0000000000000000e+00  0.0000000000000000e+00  0.0000000000000000e+00  0.0000000000000000e+00 
 0.0000000000000000e+00  0.0000000000000000e+00  0.0000000000000000e+00  0.0000000000000000e+00 
 0.0000000000000000e+00  0.0000000000000000e+00  0.0000000000000000e+00  0.0000000000000000e+00 
 0.0000000000000000e+00  0.0000000000000000e+00  0.0000000000000000e+00  0.0000000000000000e+00 
 0.0000000000000000e+00  0.0000000000000000e+00  0.0000000000000000e+00  0.0000000000000000e+00 
 0.0000000000000000e+00  0.0000000000000000e+00  0.0000000000000000e+00  0.0000000000000000e+00 
 0.0000000000000000e+00  0.0000000000000000e+00  0.0000000000000000e+00  0.0000000000000000e+00 
 0.0000000000000000e+00  0.0000000000000000e+00  0.0000000000000000e+00  0.0000000000000000e+00 
 0.0000000000000000e+00  0.0000000000000000e+00  0.0000000000000000e+00  0.0000000000000000e+00 
 0.0000000000000000e+00  0.0000000000000000e+00  0.0000000000000000e+00  0.0000000000000000e+00 
 0.0000000000000000e+00 
P    1   0.50          Wavefunction
 1.0668370043360495e-12  1.0949385030818148e-12  1.1237802219681946e-12  1.1533816590963033e-12 
 1.1837628261657588e-12  1.2149442620033575e-12  1.2469470464481060e-12  1.2797928146019965e-12 
 1.3135037714561635e-12  1.3481027069023050e-12  1.3836130111395201e-12  1.4200586904869788e-12 
 1.4574643836131090e-12  1.4958553781922800e-12  1.5352576280002367e-12  1.5756977704598415e-12 
 1.6172031446489947e-12  1.6598018097828933e-12  1.7035225641831349e-12  1.7483949647464844e-12 
 1.7944493469264647e-12  1.8417168452412870e-12  1.8902294143219721e-12  1.9400198505149082e-12 
 1.9911218140534322e-12  2.0435698518134374e-12  2.0973994206683839e-12  2.1526469114595000e-12 
 2.2093496735973891e-12  2.2675460403116549e-12  2.3272753545656382e-12  2.3885779956537636e-12 
 2.4514954064994913e-12  2.5160701216723193e-12  2.5823457961427839e-12  2.6503672347948922e-12 
 2.7201804227159403e-12  2.7918325562841966e-12  2.8653720750754640e-12  2.9408486946100875e-12 
 3.0183134399625569e-12  3.0978186802564112e-12  3.1794181640677782e-12  3.2631670557614750e-12 
 3.3491219727842333e-12  3.4373410239402715e-12  3.5278838486750747e-12  3.6208116573939530e-12 
 3.7161872728426247e-12  3.8140751725778103e-12  3.9145415325565361e-12  4.0176542718736272e-12 
 4.1234830986776293e-12  4.2320995572961949e-12  4.3435770766028069e-12  4.4579910196575169e-12 
 4.5754187346552822e-12  4.6959396072163197e-12  4.8196351140538433e-12  4.9465888780554638e-12 
 5.0768867248154857e-12  5.2106167406563144e-12  5.3478693321782111e-12  5.4887372873776398e-12 
 5.6333158383755368e-12  5.7817027257978979e-12  5.9339982648522268e-12  6.0903054131444786e-12 
 6.2507298402823854e-12  6.4153799993122018e-12  6.5843672000371566e-12  6.7578056842671873e-12 
 6.9358127030508251e-12  7.1185085959414486e-12  7.3060168723514830e-12  7.4984642950495522e-12 
 7.6959809658570263e-12  7.8987004136018972e-12  8.1067596843894623e-12  8.3202994342508060e-12 
 8.5394640242317434e-12  8.7644016179864966e-12  8.9952642819421038e-12  9.2322080881012282e-12 
 9.4753932195529203e-12  9.7249840787626252e-12  9.9811493987146520e-12  1.0244062356982270e-11 
 1.0513900692802502e-11  1.0790846827234797e-11  1.1075087986484787e-11  1.1366816328476540e-11 
 1.1666229072758829e-11  1.1973528633833285e-11  1.2288922757994525e-11  1.2612624663774803e-11 
 1.2944853186088114e-11  1.3285832924171185e-11  1.3635794393421402e-11  1.3994974181234292e-11 
 1.4363615106945910e-11  1.4741966385988313e-11  1.5130283798368987e-11  1.5528829861588282e-11 
 1.5937874008111578e-11  1.6357692767516331e-11  1.6788569953436991e-11  1.7230796855434309e-11 
 1.7684672435918615e-11  1.8150503532260302e-11  1.8628605064224100e-11  1.9119300246867369e-11 
 1.9622920809046385e-11  2.0139807217678255e-11  2.0670308907910207e-11  2.1214784519351703e-11 
 2.1773602138529202e-11  2.2347139547727406e-11  2.2935784480385302e-11  2.3539934883219502e-11 
 2.4159999185252339e-11  2.4796396573926296e-11  2.5449557278491688e-11  2.6119922860859048e-11 
 2.6807946514112870e-11  2.7514093368888540e-11  2.8238840807819539e-11  2.8982678788267572e-11 
 2.9746110173553735e-11  3.0529651072914655e-11  3.1333831190413492e-11  3.2159194183041604e-11 
 3.3006298028253006e-11  3.3875715401180140e-11  3.4768034061785845e-11  3.5683857252213440e-11 
 3.6623804104603384e-11  3.7588510059652307e-11  3.8578627296197389e-11  3.9594825172116403e-11 
 4.0637790676841659e-11  4.1708228895793637e-11  4.2806863487048317e-11  4.3934437170560545e-11 
 4.5091712230274044e-11  4.6279471029457607e-11  4.7498516539615868e-11  4.8749672883332235e-11 
 5.0033785891410865e-11  5.1351723674694457e-11  5.2704377210944501e-11  5.4092660947180494e-11 
 5.5517513417885679e-11  5.6979897879496883e-11  5.8480802961607840e-11  6.0021243335325737e-11 
 6.1602260399233306e-11  6.3224922983419973e-11  6.4890328072057994e-11  6.6599601545012210e-11 
 6.8353898938984790e-11  7.0154406228709412e-11  7.2002340628723211e-11  7.3898951416258358e-11 
 7.5845520775809737e-11  7.7843364665949543e-11  7.9893833708975098e-11  8.1998314103991050e-11 
 8.4158228564043404e-11  8.6375037277939033e-11  8.8650238897400654e-11  9.0985371550225005e-11 
 9.3382013880128971e-11  9.5841786113986638e-11  9.8366351157178920e-11  1.0095741571779635e-10 
 1.0361673146045489e-10  1.0634609619050494e-10  1.0914735506943421e-10  1.1202240186228600e-10 
 1.1497318021793648e-10  1.1800168498309635e-10  1.2110996355092513e-10  1.2430011724517024e-10 
 1.2757430274076665e-10  1.3093473352185674e-10  1.3438368137821725e-10  1.3792347794110456e-10 
 1.4155651625955602e-10  1.4528525241821435e-10  1.4911220719776772e-10  1.5303996777912903e-10 
 1.5707118949250568e-10  1.6120859761254329e-10  1.6545498920075626e-10  1.6981323499649138e-10 
 1.7428628135770321e-10  1.7887715225285158e-10  1.8358895130527119e-10  1.8842486389139235e-10 
 1.9338815929423313e-10  1.9848219291361863e-10  2.0371040853462194e-10  2.0907634065575965e-10 
 2.1458361687851714e-10  2.2023596035981845e-10  2.2603719232909927e-10  2.3199123467168502e-10 
 2.3810211258022022e-10  2.4437395727594201e-10  2.5081100880163815e-10  2.5741761888817782e-10 
 2.6419825389655255e-10  2.7115749783741751e-10  2.7830005547017437e-10  2.8563075548369105e-10 
 2.9315455376080935e-10  3.0087653672884731e-10  3.0880192479836170e-10  3.1693607589249638e-10 
 3.2528448906930237e-10  3.3385280823947882e-10  3.4264682598204911e-10  3.5167248746055176e-10 
 3.6093589444239394e-10  3.7044330942408623e-10  3.8020115986514675e-10  3.9021604253353816e-10 
 4.0049472796557623e-10  4.1104416504332462e-10  4.2187148569257176e-10  4.3298400970456636e-10 
 4.4438924968477188e-10  4.5609491613198560e-10  4.6810892265125831e-10  4.8043939130413763e-10 
 4.9309465809985454e-10  5.0608327863116312e-10  5.1941403385864952e-10  5.3309593604741645e-10 
 5.4713823486015998e-10  5.6155042361075783e-10  5.7634224568259913e-10  5.9152370111599412e-10 
 6.0710505336911828e-10  6.2309683625706484e-10  6.3950986107369273e-10  6.5635522390109327e-10 
 6.7364431311161062e-10  6.9138881706749381e-10  7.0960073202338537e-10  7.2829237023698971e-10 
 7.4747636829340795e-10  7.6716569564876489e-10  7.8737366339891131e-10  8.0811393327912380e-10 
 8.2940052690089642e-10  8.5124783523206718e-10  8.7367062832668854e-10  8.9668406531123029e-10 
 9.2030370463386058e-10  9.4454551458374781e-10  9.6942588408748930e-10  9.9496163378997972e-10 
 1.0211700274272094e-09  1.0480687834986955e-09  1.0756760872474356e-09  1.1040106029554998e-09 
 1.1330914865635752e-09  1.1629383986230121e-09  1.1935715175891349e-09  1.2250115534648157e-09 
 1.2572797618035525e-09  1.2903979580815269e-09  1.3243885324483769e-09  1.3592744648666686e-09 
 1.3950793406503204e-09  1.4318273664124936e-09  1.4695433864337531e-09  1.5082528994615709e-09 
 1.5479820759525470e-09  1.5887577757690101e-09  1.6306075663419703e-09  1.6735597413127125e-09 
 1.7176433396656247e-09  1.7628881653652032e-09  1.8093248075104978e-09  1.8569846610206112e-09 
 1.9058999478652307e-09  1.9561037388545215e-09  2.0076299760030922e-09  2.0605134954826995e-09 
 2.1147900511762098e-09  2.1704963388536875e-09  2.2276700209874412e-09  2.2863497522211495e-09 
 2.3465752055101372e-09  2.4083870989505201e-09  2.4718272233153570e-09  2.5369384703164641e-09 
 2.6037648616110222e-09  2.6723515785726132e-09  2.7427449928468344e-09  2.8149926977121984e-09 
 2.8891435402675233e-09  2.9652476544676355e-09  3.0433564950297367e-09  3.1235228722334044e-09 
 3.2058009876377818e-09  3.2902464707401563e-09  3.3769164166007564e-09  3.4658694244592153e-09 
 3.5571656373689217e-09  3.6508667828760350e-09  3.7470362147707611e-09  3.8457389559391639e-09 
 3.9470417423445292e-09  4.0510130681680992e-09  4.1577232321397406e-09  4.2672443850899541e-09 
 4.3796505787554248e-09  4.4950178158712267e-09  4.6134241015835811e-09  4.7349494962180371e-09 
 4.8596761694388448e-09  4.9876884558362081e-09  5.1190729119791265e-09  5.2539183749724750e-09 
 5.3923160225580394e-09  5.5343594348002458e-09  5.6801446573984308e-09  5.8297702666685483e-09 
 5.9833374362384217e-09  6.1409500055017461e-09  6.3027145498772897e-09  6.4687404529209442e-09 
 6.6391399803395521e-09  6.8140283559567251e-09  6.9935238396821784e-09  7.1777478075375432e-09 
 7.3668248337928984e-09  7.5608827752698306e-09  7.7600528578682007e-09  7.9644697653753927e-09 
 8.1742717306183318e-09  8.3896006290201439e-09  8.6106020746250294e-09  8.8374255186565227e-09 
 9.0702243506761497e-09  9.3091560024111464e-09  9.5543820543217880e-09  9.8060683449807968e-09 
 1.0064385083339099e-08  1.0329506963954287e-08  1.0601613285260089e-08  1.0880888070957292e-08 
 1.1167520194608613e-08  1.1461703507522334e-08  1.1763636970011616e-08  1.2073524786118819e-08 
 1.2391576541896534e-08  1.2718007347339365e-08  1.3053037982063154e-08  1.3396895044830769e-08 
 1.3749811107026282e-08  1.4112024870182065e-08  1.4483781327666150e-08  1.4865331930639939e-08 
 1.5256934758399407e-08  1.5658854693215918e-08  1.6071363599795794e-08  1.6494740509481066e-08 
 1.6929271809317021e-08  1.7375251436115545e-08  1.7832981075646612e-08  1.8302770367094042e-08 
 1.8784937112914914e-08  1.9279807494246073e-08  1.9787716292004848e-08  2.0309007113835020e-08 
 2.0844032627053169e-08  2.1393154797754633e-08  2.1956745136242620e-08  2.2535184948948304e-08 
 2.3128865597014383e-08  2.3738188761718943e-08  2.4363566716921490e-08  2.5005422608717680e-08 
 2.5664190742494439e-08  2.6340316877582082e-08  2.7034258529705585e-08  2.7746485281442382e-08 
 2.8477479100899684e-08  2.9227734668830251e-08  2.9997759714410942e-08  3.0788075359914958e-08 
 3.1599216474514521e-08  3.2431732037457328e-08  3.3286185510866502e-08  3.4163155222420680e-08 
 3.5063234758177619e-08  3.5987033365811915e-08  3.6935176368544806e-08  3.7908305590051290e-08 
 3.8907079790637832e-08  3.9932175114991601e-08  4.0984285551810446e-08  4.2064123405631302e-08 
 4.3172419781183013e-08  4.4309925080598782e-08  4.5477409513832274e-08  4.6675663622631092e-08 
 4.7905498818430297e-08  4.9167747934539500e-08  5.0463265793006216e-08  5.1792929786549388e-08 
 5.3157640475967410e-08  5.4558322203435795e-08  5.5995923722121560e-08  5.7471418842552527e-08 
 5.8985807096192136e-08  6.0540114416682521e-08  6.2135393839231208e-08  6.3772726218630252e-08 
 6.5453220966409497e-08  6.7178016807640290e-08  6.8948282557918931e-08  7.0765217921075252e-08 
 7.2630054308165628e-08  7.4544055678325739e-08  7.6508519402074300e-08  7.8524777147674856e-08 
 8.0594195791180739e-08  8.2718178350804105e-08  8.4898164946269378e-08  8.7135633783828433e-08 
 8.9432102167635221e-08  9.1789127538194848e-08  9.4208308538625404e-08  9.6691286109487962e-08 
 9.9239744612963788e-08  1.0185541298717906e-07  1.0454006593149938e-07  1.0729552512364044e-07 
 1.1012366046946437e-07  1.1302639138635637e-07  1.1600568812110107e-07  1.1906357310320539e-07 
 1.2220212233463934e-07  1.2542346681699654e-07  1.2872979401710287e-07  1.3212334937213164e-07 
 1.3560643783531488e-07  1.3918142546336978e-07  1.4285074104679357e-07  1.4661687778421134e-07 
 1.5048239500199827e-07  1.5444991992042894e-07  1.5852214946764719e-07  1.6270185214278494e-07 
 1.6699186992959734e-07  1.7139512026202254e-07  1.7591459804311434e-07  1.8055337771884016e-07 
 1.8531461540827776e-07  1.9020155109179414e-07  1.9521751085883070e-07  2.0036590921697217e-07 
 2.0565025146402429e-07  2.1107413612487621e-07  2.1664125745497802e-07  2.2235540801231761e-07 
 2.2822048129983798e-07  2.3424047448029440e-07  2.4041949116561245e-07  2.4676174428286744e-07 
 2.5327155901907389e-07  2.5995337584703746e-07  2.6681175363459216e-07  2.7385137283961625e-07 
 2.8107703879329445e-07  2.8849368507416942e-07  2.9610637697560414e-07  3.0392031506936037e-07 
 3.1194083886807901e-07  3.2017343058953889e-07  3.2862371902565846e-07  3.3729748351929828e-07 
 3.4620065805202156e-07  3.5533933544606611e-07  3.6471977168388743e-07  3.7434839034873823e-07 
 3.8423178718986446e-07  3.9437673481600658e-07  4.0479018752102035e-07  4.1547928624555206e-07 
 4.2645136367883235e-07  4.3771394950478325e-07  4.4927477579677526e-07  4.6114178256550928e-07 
 4.7332312346464951e-07  4.8582717165898767e-07  4.9866252586007386e-07  5.1183801653442047e-07 
 5.2536271228955306e-07  5.3924592644336479e-07  5.5349722378240927e-07  5.6812642751496792e-07 
 5.8314362642491825e-07  5.9855918223264472e-07  6.1438373716944648e-07  6.3062822177211546e-07 
 6.4730386290460171e-07  6.6442219201391461e-07  6.8199505362766533e-07  7.0003461410091938e-07 
 7.1855337062029370e-07  7.3756416047352450e-07  7.5708017059301685e-07  7.7711494738220853e-07 
 7.9768240683388067e-07  8.1879684494989778e-07  8.4047294847219647e-07  8.6272580593520476e-07 
 8.8557091905025235e-07  9.0902421443291765e-07  9.3310205568467553e-07  9.5782125584061951e-07 
 9.8319909019549843e-07  1.0092533095207418e-06  1.0360021536856571e-06  1.0634643656964659e-06 
 1.0916592061673838e-06  1.1206064682384856e-06  1.1503264929556818e-06  1.1808401851287153e-06 
 1.2121690296837227e-06  1.2443351085275492e-06  1.2773611179416867e-06  1.3112703865244169e-06 
 1.3460868937004796e-06  1.3818352888183729e-06  1.4185409108561858e-06  1.4562298087577286e-06 
 1.4949287624216035e-06  1.5346653043667867e-06  1.5754677420992723e-06  1.6173651812053269e-06 
 1.6603875491979819e-06  1.7045656201444995e-06  1.7499310401037045e-06  1.7965163534033037e-06 
 1.8443550297885893e-06  1.8934814924752536e-06  1.9439311471404513e-06  1.9957404118877206e-06 
 2.0489467482228909e-06  2.1035886930797448e-06  2.1597058919358784e-06  2.2173391330609812e-06 
 2.2765303829416220e-06  2.3373228229285739e-06  2.3997608871547609e-06  2.4638903017740620e-06 
 2.5297581255734633e-06  2.5974127920134078e-06  2.6669041527537023e-06  2.7382835227249156e-06 
 2.8116037268079895e-06  2.8869191481876282e-06  2.9642857784480809e-06  3.0437612694831073e-06 
 3.1254049872952526e-06  3.2092780677631060e-06  3.2954434744588566e-06  3.3839660586024141e-06 
 3.4749126212423991e-06  3.5683519777586376e-06  3.6643550247853197e-06  3.7629948096587222e-06 
 3.8643466024984533e-06  3.9684879710364003e-06  4.0754988583131880e-06  4.1854616633677262e-06 
 4.2984613250516739e-06  4.4145854091070827e-06  4.5339241986523524e-06  4.6565707882288488e-06 
 4.7826211815681154e-06  4.9121743932476537e-06  5.0453325544116647e-06  5.1822010227420964e-06 
 5.3228884968747175e-06  5.4675071354648431e-06  5.6161726811178562e-06  5.7690045894106549e-06 
 5.9261261632418542e-06  6.0876646927608639e-06  6.2537516011389687e-06  6.4245225964592370e-06 
 6.6001178300166681e-06  6.7806820613351720e-06  6.9663648302242999e-06  7.1573206362156740e-06 
 7.3537091257371782e-06  7.5556952874020873e-06  7.7634496558105549e-06  7.9771485242822471e-06 
 8.1969741669615426e-06  8.4231150707607005e-06  8.6557661776316670e-06  8.8951291376840688e-06 
 9.1414125736953624e-06  9.3948323575890680e-06  9.6556118994890180e-06  9.9239824499911382e-06 
 1.0200183416330163e-05  1.0484462693156431e-05  1.0777077008678204e-05  1.1078292286967390e-05 
 1.1388384027271815e-05  1.1707637701224874e-05  1.2036349168894522e-05  1.2374825114666989e-05 
 1.2723383504018201e-05  1.3082354062286342e-05  1.3452078776623575e-05  1.3832912422373246e-05 
 1.4225223115191736e-05  1.4629392890311173e-05  1.5045818310421426e-05  1.5474911103736884e-05 
 1.5917098833906296e-05  1.6372825603522449e-05  1.6842552793093370e-05  1.7326759837448118e-05 
 1.7825945041668899e-05  1.8340626438767603e-05  1.8871342691458943e-05  1.9418654040525670e-05 
 1.9983143302423745e-05  2.0565416918937095e-05  2.1166106061865112e-05  2.1785867795909654e-05 
 2.2425386303125027e-05  2.3085374172503284e-05  2.3766573758490811e-05  2.4469758612469547e-05 
 2.5195734991490557e-05  2.5945343448818301e-05  2.6719460511132906e-05  2.7519000447546661e-05 
 2.8344917135919959e-05  2.9198206032314196e-05  3.0079906249794576e-05  3.0991102753197595e-05 
 3.1932928676906892e-05  3.2906567773139701e-05  3.3913256998737103e-05  3.4954289248974467e-05 
 3.6031016247470513e-05  3.7144851601872573e-05  3.8297274035638090e-05  3.9489830806918989e-05 
 4.0724141326291922e-05  4.2001900985863824e-05  4.3324885213126813e-05  4.4694953763838912e-05 
 4.6114055269175703e-05  4.7584232053434902e-05  4.9107625239687826e-05  5.0686480161963232e-05 
 5.2323152103827221e-05  5.4020112384593339e-05  5.5779954815867060e-05  5.7605402552705716e-05 
 5.9499315365368362e-05  6.1464697359444706e-05  6.3504705174103877e-05  6.5622656690295664e-05 
 6.7822040282985405e-05  7.0106524653917597e-05  7.2479969283996187e-05  7.4946435547155563e-05 
 7.7510198530589668e-05  8.0175759609422628e-05  8.2947859827362728e-05  8.5831494138596264e-05 
 8.8831926570174987e-05  9.1954706368444335e-05  9.5205685197680652e-05  9.8591035464072005e-05 
 1.0211726984352055e-04  1.0579126209749052e-04  1.0962026926730962e-04  1.1361195534397943e-04 
 1.1777441651770818e-04  1.2211620811907611e-04  1.2664637337202756e-04  1.3137447408779630e-04 
 1.3631062343846188e-04  1.4146552095915414e-04  1.4685048993902839e-04  1.5247751737308300e-04 
 1.5835929665974796e-04  1.6450927324300938e-04  1.7094169341271700e-04  1.7767165649273858e-04 
 1.8471517066384960e-04  1.9208921268677916e-04  1.9981179181076213e-04  2.0790201817438099e-04 
 2.1638017602852879e-04  2.2526780213609634e-04  2.3458776972962351e-04  2.4436437843676929e-04 
 2.5462345061420875e-04  2.6539243456359131e-04  2.7670051513867049e-04  2.8857873229078959e-04 
 3.0106010814078438e-04  3.1417978320920988e-04  3.2797516248382960e-04  3.4248607205373052e-04 
 3.5775492709346195e-04  3.7382691203848896e-04  3.9075017385523315e-04  4.0857602937531827e-04 
 4.2735918773460205e-04  4.4715798903344976e-04  4.6803466041579056e-04  4.9005559085106489e-04 
 5.1329162599559805e-04  5.3781838460847562e-04  5.6371659810204307e-04  5.9107247491901101e-04 
 6.1997809154717845e-04  6.5053181210933029e-04  6.8283873860026391e-04  7.1701119398548158e-04 
 7.5316924052716962e-04  7.9144123586293892e-04  8.3196442953167339e-04  8.7488560281887701e-04 
 9.2036175498121911e-04  9.6856083910646761e-04  1.0196625510704813e-03  1.0738591752668968e-03 
 1.1313564910069005e-03  1.1923747437147295e-03  1.2571496852777924e-03  1.3259336881460361e-03 
 1.3989969380103734e-03  1.4766287101204102e-03  1.5591387345219518e-03  1.6468586556979807e-03 
 1.7401435922742524e-03  1.8393738025918149e-03  1.9449564620405873e-03  2.0573275580754845e-03 
 2.1769539087814838e-03  2.3043353106963990e-03  2.4400068213175693e-03  2.5845411812873294e-03 
 2.7385513806475513e-03  2.9026933727520367e-03  3.0776689384059276e-03  3.2642287015469955e-03 
 3.4631752962858207e-03  3.6753666833811982e-03  3.9017196122581692e-03  4.1432132225089268e-03 
 4.4008927765004690e-03  4.6758735123163505e-03  4.9693446038733165e-03  5.2825732127869413e-03 
 5.6169086145400398e-03  5.9737863798694476e-03  6.3547325911643337e-03  6.7613680731765840e-03 
 7.1954126175494898e-03  7.6586891815680260e-03  8.1531280430029163e-03  8.6807708946996832e-03 
 9.2437748642328933e-03  9.8444164449443157e-03  1.0485095324378664e-02  1.1168338093936829e-02 
 1.1896801819115321e-02  1.2673277443011409e-02  1.3500692987373429e-02  1.4382116506401850e-02 
 1.5320758740150759e-02  1.6319975408188778e-02  1.7383269081283747e-02  1.8514290569743866e-02 
 1.9716839771254963e-02  2.0994865927204644e-02  2.2352467242265247e-02  2.3793889824315670e-02 
 2.5323525896915604e-02  2.6945911220532758e-02  2.8665721627923666e-02  3.0487768531244332e-02 
 3.2416993194398162e-02  3.4458459489541668e-02  3.6617344783826923e-02  3.8898928550245980e-02 
 4.1308578287708834e-02  4.3851732391130688e-02  4.6533879743142478e-02  4.9360535998498455e-02 
 5.2337216773795610e-02  5.5469408197002620e-02  5.8762535467914233e-02  6.2221930196074943e-02 
 6.5852797334502972e-02  6.9660182717746821e-02  7.3648941092252992e-02  7.7823702995656885e-02 
 8.2188848522451841e-02  8.6748478753497352e-02  9.1506389530134499e-02  9.6466046863895830e-02 
 1.0163056378604318e-01  1.0700267858396434e-01  1.1258473440541548e-01  1.1837866024938959e-01 
 1.2438595339442973e-01  1.3060766333531340e-01  1.3704437730436697e-01  1.4369620744408582e-01 
 1.5056277967498544e-01  1.5764322426954760e-01  1.6493616810310349e-01  1.7243972850892006e-01 
 1.8015150862085658e-01  1.8806859404561596e-01  1.9618755067036692e-01  2.0450442338246227e-01 
 2.1301473545788685e-01  2.2171348836525989e-01  2.3059516173366204e-01  2.3965371324580495e-01 
 2.4888257824325125e-01  2.5827466886724765e-01  2.6782237260654052e-01  2.7751755018116286e-01 
 2.8735153275708009e-01  2.9731511855882276e-01  3.0739856902356899e-01  3.1759160471802189e-01 
 3.2788340131612598e-01  3.3826258600830972e-01  3.4871723477857453e-01  3.5923487104124424e-01 
 3.6980246617543805e-01  3.8040644252190736e-01  3.9103267941482095e-01  4.0166652282336540e-01 
 4.1229279915158407e-01  4.2289583369584355e-01  4.3345947419981962e-01  4.4396711986545218e-01 
 4.5440175608122396e-01  4.6474599501839647e-01  4.7498212212436369e-01  4.8509214841346993e-01 
 4.9505786832331100e-01  5.0486092277273853e-01  5.1448286693068490e-01  5.2390524208651612e-01 
 5.3310965090680973e-01  5.4207783527368547e-01  5.5079175582901840e-01  5.5923367229931820e-01 
 5.6738622364935942e-01  5.7523250710949192e-01  5.8275615514192747e-01  5.8994140945423534e-01 
 5.9677319123214800e-01  6.0323716684615547e-01  6.0931980838429678e-01  6.1500844847356229e-01 
 6.2029132897063688e-01  6.2515764322539369e-01  6.2959757174364539e-01  6.3360231119534871e-01 
 6.3716409682725583e-01  6.4027621844177474e-01  6.4293303019397863e-01  6.4512995453428168e-01 
 6.4686348068396449e-01  6.4813115807375310e-01  6.4893158520211935e-01  6.4926439438042138e-01 
 6.4913023282775217e-01  6.4853074056108484e-01  6.4746852549822709e-01  6.4594713615465826e-01 
 6.4397103227320651e-01  6.4154555368047650e-01  6.3867688761842090e-01  6.3537203475882309e-01 
 6.3163877406609825e-01  6.2748562664186314e-01  6.2292181866622587e-01  6.1795724352891190e-01 
 6.1260242323694281e-01  6.0686846918701587e-01  6.0076704239842271e-01  5.9431031331610618e-01 
 5.8751092131145233e-01  5.8038193402857274e-01  5.7293680674417435e-01  5.6518934192760351e-01 
 5.5715364920244903e-01  5.4884410592067934e-01  5.4027531856343602e-01  5.3146208517860372e-01 
 5.2241935905374615e-01  5.1316221380406879e-01  5.0370581002938486e-01  4.9406536366306875e-01 
 4.8425611556349457e-01  4.7429330504184647e-01  4.6419214205135750e-01  4.5396778326327930e-01 
 4.4363530931252970e-01  4.3320970361964972e-01  4.2270583262816824e-01  4.1213842726631056e-01 
 4.0152206541706259e-01  3.9087115516255416e-01  3.8019991855848084e-01  3.6952237569234475e-01 
 3.5885232878594303e-01  3.4820334611775705e-01  3.3758874556441287e-01  3.2702157759161826e-01 
 3.1651460756304750e-01  3.0608029727938524e-01  2.9573078570774120e-01  2.8547786891227911e-01 
 2.7533297924839961e-01  2.6530716393333964e-01  2.5541106315378026e-01  2.4565488791426668e-01 
 2.3604839786742313e-01  2.2660087939682932e-01  2.1732112424506533e-01  2.0821740899227412e-01 
 1.9929747569441689e-01  1.9056851398538152e-01  1.8203714493375767e-01  1.7370940692418640e-01 
 1.6559074380576899e-01  1.5768599551724180e-01  1.4999939136176199e-01  1.4253454606452445e-01 
 1.3529445870525900e-01  1.2828151457616960e-01  1.2149748997510923e-01  1.1494355990466300e-01 
 1.0862030861109448e-01  1.0252774286342875e-01  9.6665307842682957e-02  9.1031905484765238e-02 
 8.5625915097978261e-02  8.0445216057435223e-02  7.5487212363976694e-02  7.0748858844232085e-02 
 6.6226688761115621e-02  6.1916842600039310e-02  5.7815097795206161e-02  5.3916899162225619e-02 
 5.0217389807675483e-02  4.6711442292830467e-02  4.3393689837291069e-02  4.0258557358403634e-02 
 3.7300292153895118e-02  3.4512994047803072e-02  3.1890644833331594e-02  2.9427136860486564e-02 
 2.7116300631044706e-02  2.4951931278402277e-02  2.2927813824969820e-02  2.1037747124874460e-02 
 1.9275566414670195e-02  1.7635164409421845e-02  1.6110510895707045e-02  1.4695670787044823e-02 
 1.3384820620278690e-02  1.2172263484088059e-02  1.1052442382643806e-02  1.0019952048512632e-02 
 9.0695492292017059e-03  8.1961614811829429e-03  7.3948945138198833e-03  6.6610381333227541e-03 
 5.9900708436701564e-03  5.3776631673570600e-03  4.8196797538660957e-03  4.3121803479240018e-03 
 3.8514196929184280e-03  3.4338464473370766e-03  3.0561011937829600e-03  2.7150136210528646e-03 
 2.4075989599829746e-03  2.1310537532918828e-03  1.8827510386010885e-03  1.6602350221216124e-03 
 1.4612153183317408e-03  1.2835608283233476e-03  1.1252933264375036e-03  9.8458082139909597e-04 
 8.5973075445089375e-04  7.4918309303607673e-04  6.5150337442508794e-04  5.6537574942865120e-04 
 4.8959607194932076e-04  4.2306507573218569e-04  3.6478167527734793e-04  3.1383642352839823e-04 
 2.6940515468999829e-04  2.3074283638884843e-04  1.9717765139712180e-04  1.6810532534631479e-04 
 1.4298371323654584e-04  1.2132765416984678e-04  1.0270410058694260e-04  8.6727525386488192e-05 
 7.3055607660640364e-05  6.1385195395023738e-05  5.1448541355305452e-05  4.3009806514379378e-05 
 3.5861823758406737e-05  2.9823113239001125e-05  2.4735139602784556e-05  2.0459800416592040e-05 
 1.6877134403390799e-05  1.3883237595863801e-05  1.1388375185987996e-05  9.3152766835567791e-06 
 7.5976019778257807e-06  6.1785660075653391e-06  5.0097099691882562e-06  4.0498073140452822e-06 
 3.2638931887379466e-06  2.6224064419836217e-06  2.1004338421578958e-06  1.6770467115344260e-06 
 1.3347207709606523e-06  1.0588305928918704e-06  8.3721074452252914e-07  6.5977666092667856e-07 
 5.1819594245428819e-07  4.0560821444126258e-07  3.1638484265271747e-07  2.4592407990353994e-07 
 1.9047716012482382e-07  1.4700123131490771e-07  1.1303546699911352e-07  8.6597111016711533e-08 
 6.6094592496627024e-08  5.0255197136775534e-08  3.8065098166135906e-08  2.8719836802720411e-08 
 2.1583599066614150e-08  1.6155865120880223e-08  1.2044210700318304e-08  8.9422195487122299e-09 
 6.6116230638444885e-09  4.8679204931662520e-09  3.5688519457127104e-09  2.6051990402585092e-09 
 1.8934759644725591e-09  1.3701487429368188e-09  9.8708415912424816e-10  7.0798348450622258e-10 
 5.0560125179893221e-10  3.5958696303466593e-10  2.5481892419275043e-10  1.8012531507900828e-10 
 0.0000000000000000e+00  0.0000000000000000e+00  0.0000000000000000e+00  0.0000000000000000e+00 
 0.0000000000000000e+00  0.0000000000000000e+00  0.0000000000000000e+00  0.0000000000000000e+00 
 0.0000000000000000e+00  0.0000000000000000e+00  0.0000000000000000e+00  0.0000000000000000e+00 
 0.0000000000000000e+00  0.0000000000000000e+00  0.0000000000000000e+00  0.0000000000000000e+00 
 0.0000000000000000e+00  0.0000000000000000e+00  0.0000000000000000e+00  0.0000000000000000e+00 
 0.0000000000000000e+00  0.0000000000000000e+00  0.0000000000000000e+00  0.0000000000000000e+00 
 0.0000000000000000e+00  0.0000000000000000e+00  0.0000000000000000e+00  0.0000000000000000e+00 
 0.0000000000000000e+00  0.0000000000000000e+00  0.0000000000000000e+00  0.0000000000000000e+00 
 0.0000000000000000e+00  0.0000000000000000e+00  0.0000000000000000e+00  0.0000000000000000e+00 
 0.0000000000000000e+00  0.0000000000000000e+00  0.0000000000000000e+00  0.0000000000000000e+00 
 0.0000000000000000e+00  0.0000000000000000e+00  0.0000000000000000e+00  0.0000000000000000e+00 
 0.0000000000000000e+00  0.0000000000000000e+00  0.0000000000000000e+00  0.0000000000000000e+00 
 0.0000000000000000e+00  0.0000000000000000e+00  0.0000000000000000e+00  0.0000000000000000e+00 
 0.0000000000000000e+00  0.0000000000000000e+00  0.0000000000000000e+00  0.0000000000000000e+00 
 0.0000000000000000e+00  0.0000000000000000e+00  0.0000000000000000e+00  0.0000000000000000e+00 
 0.0000000000000000e+00  0.0000000000000000e+00  0.0000000000000000e+00  0.0000000000000000e+00 
 0.0000000000000000e+00  0.0000000000000000e+00  0.0000000000000000e+00  0.0000000000000000e+00 
 0.0000000000000000e+00  0.0000000000000000e+00  0.0000000000000000e+00  0.0000000000000000e+00 
 0.0000000000000000e+00  0.0000000000000000e+00  0.0000000000000000e+00  0.0000000000000000e+00 
 0.0000000000000000e+00  0.0000000000000000e+00  0.0000000000000000e+00  0.0000000000000000e+00 
 0.0000000000000000e+00  0.0000000000000000e+00  0.0000000000000000e+00  0.0000000000000000e+00 
 0.0000000000000000e+00  0.0000000000000000e+00  0.0000000000000000e+00  0.0000000000000000e+00 
 0.0000000000000000e+00  0.0000000000000000e+00  0.0000000000000000e+00  0.0000000000000000e+00 
 0.0000000000000000e+00  0.0000000000000000e+00  0.0000000000000000e+00  0.0000000000000000e+00 
 0.0000000000000000e+00  0.0000000000000000e+00  0.0000000000000000e+00  0.0000000000000000e+00 
 0.0000000000000000e+00  0.0000000000000000e+00  0.0000000000000000e+00  0.0000000000000000e+00 
 0.0000000000000000e+00 
D    2   9.50          Wavefunction
 9.0801889779178394e-15  9.4413124862036092e-15  9.8167980511851121e-15  1.0207216858808515e-14 
 1.0613162811361678e-14  1.1035253430914065e-14  1.1474130798686921e-14  1.1930462531782622e-14 
 1.2404942798759061e-14  1.2898293375593898e-14  1.3411264743645019e-14  1.3944637231277442e-14 
 1.4499222200893227e-14  1.5075863283170218e-14  1.5675437660386987e-14  1.6298857400786268e-14 
 1.6947070846006665e-14  1.7621064053693211e-14  1.8321862297481237e-14  1.9050531626635293e-14 
 1.9808180487715740e-14  2.0595961410739739e-14  2.1415072762401746e-14  2.2266760569020365e-14 
 2.3152320411984775e-14  2.4073099398583880e-14  2.5030498211216384e-14  2.6025973238098886e-14 
 2.7061038788713315e-14  2.8137269397363737e-14  2.9256302218346800e-14  3.0419839516379200e-14 
 3.1629651256070775e-14  3.2887577794382016e-14  3.4195532680162131e-14  3.5555505565025994e-14 
 3.6969565229998041e-14  3.8439862732527393e-14  3.9968634678661213e-14  4.1558206625354005e-14 
 4.3210996618088464e-14  4.4929518869189143e-14  4.6716387582424535e-14  4.8574320929715384e-14 
 5.0506145185998669e-14  5.2514799028537109e-14  5.4603338007214355e-14  5.6774939192615891e-14 
 5.9032906008966555e-14  6.1380673259276225e-14  6.3821812350337951e-14  6.6360036725527012e-14 
 6.8999207513664879e-14  7.1743339402541297e-14  7.4596606746029265e-14  7.7563349914082814e-14 
 8.0648081895277611e-14  8.3855495161937485e-14  8.7190468808290508e-14  9.0658075972513329e-14 
 9.4263591553953297e-14  9.8012500237268795e-14  1.0191050483569333e-13  1.0596353496611525e-13 
 1.1017775606916988e-13  1.1455957878806496e-13  1.1911566872040671e-13  1.2385295655786057e-13 
 1.2877864862907146e-13  1.3390023786188124e-13  1.3922551518151860e-13  1.4476258136210080e-13 
 1.5051985934947553e-13  1.5650610707414809e-13  1.6273043077378504e-13  1.6920229884556055e-13 
 1.7593155624941710e-13  1.8292843948415107e-13  1.9020359215910506e-13  1.9776808118515319e-13 
 2.0563341360961102e-13  2.1381155412067702e-13  2.2231494324803535e-13  2.3115651628730480e-13 
 2.4034972297712312e-13  2.4990854795879831e-13  2.5984753204965009e-13  2.7018179436240379e-13 
 2.8092705530428241e-13  2.9209966049078465e-13  3.0371660561052527e-13  3.1579556227896329e-13 
 3.2835490492034469e-13  3.4141373871875495e-13  3.5499192868079690e-13  3.6911012985410788e-13 
 3.8378981874768064e-13  3.9905332600178701e-13  4.1492387035720080e-13  4.3142559397539358e-13 
 4.4858359916343172e-13  4.6642398655944235e-13  4.8497389483673310e-13  5.0426154198696560e-13 
 5.2431626824518072e-13  5.4516858072197491e-13  5.6685019981071889e-13  5.8939410744041723e-13 
 6.1283459724760544e-13  6.3720732674361215e-13  6.6254937155653736e-13  6.8889928183046209e-13 
 7.1629714086768446e-13  7.4478462610318482e-13  7.7440507250407996e-13  8.0520353849050200e-13 
 8.3722687447818744e-13  8.7052379414703748e-13  9.0514494854406806e-13  9.4114300313346929e-13 
 9.7857271791098834e-13  1.0174910307044990e-12  1.0579571437874815e-12  1.1000326139371617e-12 
 1.1437814460743117e-12  1.1892701906271526e-12  1.2365680447674672e-12  1.2857469576729331e-12 
 1.3368817399757841e-12  1.3900501775643088e-12  1.4453331499102914e-12  1.5028147531023971e-12 
 1.5625824277726587e-12  1.6247270921106698e-12  1.6893432801678174e-12  1.7565292856619511e-12 
 1.8263873115012387e-12  1.8990236252546644e-12  1.9745487208056692e-12  2.0530774864348464e-12 
 2.1347293795873738e-12  2.2196286085910380e-12  2.3079043216012849e-12  2.3996908030607160e-12 
 2.4951276779718818e-12  2.5943601242941160e-12  2.6975390937875102e-12  2.8048215416399677e-12 
 2.9163706652266547e-12  3.0323561523650390e-12  3.1529544394431773e-12  3.2783489798138990e-12 
 3.4087305228631756e-12  3.5442974041771929e-12  3.6852558472495336e-12  3.8318202771874172e-12 
 3.9842136468942104e-12  4.1426677762244091e-12  4.3074237046269898e-12  4.4787320578136024e-12 
 4.6568534290093463e-12  4.8420587753661274e-12  5.0346298301415857e-12  5.2348595312706130e-12 
 5.4430524669814256e-12  5.6595253391340266e-12  5.8846074449859111e-12  6.1186411781178826e-12 
 6.3619825492819783e-12  6.6150017279638259e-12  6.8780836054832342e-12  7.1516283804896728e-12 
 7.4360521677432063e-12  7.7317876311070542e-12  8.0392846417146128e-12  8.3590109623121990e-12 
 8.6914529588185254e-12  9.0371163401833077e-12  9.3965269276705255e-12  9.7702314547365558e-12 
 1.0158798398719938e-11  1.0562818845607990e-11  1.0982907389195721e-11  1.1419703066004852e-11 
 1.1873870327385204e-11  1.2346100050277133e-11  1.2837110588172684e-11  1.3347648863874130e-11 
 1.3878491505712230e-11  1.4430446028952649e-11  1.5004352064187711e-11  1.5601082634582090e-11 
 1.6221545483915409e-11  1.6866684457442056e-11  1.7537480937668682e-11  1.8234955337233566e-11 
 1.8960168651158900e-11  1.9714224070837093e-11  2.0498268662206634e-11  2.1313495110670039e-11 
 2.2161143535408567e-11  2.3042503375853431e-11  2.3958915353183459e-11  2.4911773509832903e-11 
 2.5902527330111999e-11  2.6932683945166197e-11  2.8003810425628294e-11  2.9117536165451158e-11 
 3.0275555360547224e-11  3.1479629586005477e-11  3.2731590475806392e-11  3.4033342509111231e-11 
 3.5386865907364386e-11  3.6794219646615753e-11  3.8257544589645692e-11  3.9779066742657198e-11 
 4.1361100641489462e-11  4.3006052872504001e-11  4.4716425733499454e-11  4.6494821040224194e-11 
 4.8343944084277264e-11  5.0266607748418437e-11  5.2265736785548094e-11  5.4344372267865879e-11 
 5.6505676212976388e-11  5.8752936393979708e-11  6.1089571340863459e-11  6.3519135540805181e-11 
 6.6045324845295593e-11  6.8671982092308704e-11  7.1403102952070850e-11  7.4242842005322073e-11 
 7.7195519063316030e-11  8.0265625739172627e-11  8.3457832280580430e-11  8.6776994674242575e-11 
 9.0228162032874168e-11  9.3816584275988279e-11  9.7547720116155446e-11  1.0142724536288509e-10 
 1.0546106155676178e-10  1.0965530494697057e-10  1.1401635582586866e-10  1.1855084823480369e-10 
 1.2326568005594351e-10  1.2816802350546987e-10  1.3326533604409849e-10  1.3856537172152363e-10 
 1.4407619297204481e-10  1.4980618287931965e-10  1.5576405792890090e-10  1.6195888126795776e-10 
 1.6840007649235274e-10  1.7509744198204778e-10  1.8206116580664819e-10  1.8930184122375864e-10 
 1.9683048279373011e-10  2.0465854313531141e-10  2.1279793034769571e-10  2.2126102612546684e-10 
 2.3006070459400220e-10  2.3921035189398826e-10  2.4872388654484146e-10  2.5861578061801430e-10 
 2.6890108175239859e-10  2.7959543604531851e-10  2.9071511185393870e-10  3.0227702454329817e-10 
 3.1429876221862124e-10  3.2679861248105428e-10  3.3979559024753479e-10  3.5330946667711850e-10 
 3.6736079924777318e-10  3.8197096302940027e-10  3.9716218320066381e-10  4.1295756885910056e-10 
 4.2938114817595149e-10  4.4645790494920051e-10  4.6421381661043776e-10  4.8267589374336939e-10 
 5.0187222117410224e-10  5.2183200069571872e-10  5.4258559549214207e-10  5.6416457632888184e-10 
 5.8660176958092905e-10  6.0993130717086997e-10  6.3418867849318957e-10  6.5941078440375465e-10 
 6.8563599335661109e-10  7.1290419977349001e-10  7.4125688473481392e-10  7.7073717908436536e-10 
 8.0138992904248763e-10  8.3326176442943064e-10  8.6640116960284750e-10  9.0085855721676319e-10 
 9.3668634491417748e-10  9.7393903506999726e-10  1.0126732977056179e-09  1.0529480567013094e-09 
 1.0948245794375868e-09  1.1383665700019489e-09  1.1836402661027992e-09  1.2307145398380158e-09 
 1.2796610024714848e-09  1.3305541133770217e-09  1.3834712933154517e-09  1.4384930422171978e-09 
 1.4957030616495974e-09  1.5551883821552920e-09  1.6170394956554510e-09  1.6813504931192790e-09 
 1.7482192077093168e-09  1.8177473636203200e-09  1.8900407308382123e-09  1.9652092860545979e-09 
 2.0433673799816925e-09  2.1246339113222695e-09  2.2091325076593531e-09  2.2969917135409165e-09 
 2.3883451860457969e-09  2.4833318981284300e-09  2.5820963500518358e-09  2.6847887892306132e-09 
 2.7915654388184880e-09  2.9025887353882826e-09  3.0180275760660057e-09  3.1380575754951593e-09 
 3.2628613330223182e-09  3.3926287105105970e-09  3.5275571212038201e-09  3.6678518300809772e-09 
 3.8137262661581187e-09  3.9654023472129583e-09  4.1231108174264204e-09  4.2870915984549929e-09 
 4.4575941544682260e-09  4.6348778717069586e-09  4.8192124531399783e-09  5.0108783288198025e-09 
 5.2101670825621603e-09  5.4173818955986430e-09  5.6328380078777889e-09  5.8568631977168088e-09 
 6.0897982805340261e-09  6.3319976274212153e-09  6.5838297043452384e-09  6.8456776327997324e-09 
 7.1179397727603802e-09  7.4010303288311488e-09  7.6953799805042636e-09  8.0014365374934388e-09 
 8.3196656211379805e-09  8.6505513729152250e-09  8.9945971911399141e-09  9.3523264969722111e-09 
 9.7242835309005355e-09  1.0111034180912026e-08  1.0513166843611490e-08  1.0931293319600069e-08 
 1.1366049744477007e-08  1.1818097556882119e-08  1.2288124505053088e-08  1.2776845693430374e-08 
 1.3285004670903528e-08  1.3813374562356135e-08  1.4362759245232786e-08  1.4933994572919779e-08 
 1.5527949646802900e-08  1.6145528138939677e-08  1.6787669667360654e-08  1.7455351226094576e-08 
 1.8149588672095624e-08  1.8871438271337798e-08  1.9621998306431518e-08  2.0402410748211656e-08 
 2.1213862993843328e-08  2.2057589674093611e-08  2.2934874532522639e-08  2.3847052379457167e-08 
 2.4795511123723981e-08  2.5781693885238908e-08  2.6807101191670644e-08  2.7873293262526855e-08 
 2.8981892384143520e-08  3.0134585379196873e-08  3.1333126174501890e-08  3.2579338471011059e-08 
 3.3875118520083241e-08  3.5222438010254508e-08  3.6623347068911766e-08  3.8079977383445115e-08 
 3.9594545446637438e-08  4.1169355931239656e-08  4.2806805198876733e-08  4.4509384948635372e-08 
 4.6279686010897278e-08  4.8120402292203794e-08  5.0034334877168650e-08  5.2024396293695159e-08 
 5.4093614948004122e-08  5.6245139736237888e-08  5.8482244839676313e-08  6.0808334710880400e-08 
 6.3226949258371996e-08  6.5741769237761093e-08  6.8356621857547865e-08  7.1075486608155504e-08 
 7.3902501323090580e-08  7.6841968481483488e-08  7.9898361761630233e-08  8.3076332855541892e-08 
 8.6380718554906339e-08  8.9816548119283168e-08  9.3389050937784771e-08  9.7103664495945592e-08 
 1.0096604265994965e-07  1.0498206429087151e-07  1.0915784220209305e-07  1.1349973247358248e-07 
 1.1801434413727087e-07  1.2270854924832883e-07  1.2758949335773860e-07  1.3266460640217201e-07 
 1.3794161402782491e-07  1.4342854936552461e-07  1.4913376527511938e-07  1.5506594707787890e-07 
 1.6123412579638528e-07  1.6764769192217206e-07  1.7431640973218019e-07  1.8125043217594295e-07 
 1.8846031635628955e-07  1.9595703962726829e-07  2.0375201633394138e-07  2.1185711521968833e-07 
 2.2028467752768446e-07  2.2904753582428697e-07  2.3815903357317533e-07  2.4763304549024645e-07 
 2.5748399871046826e-07  2.6772689479914894e-07  2.7837733264137784e-07  2.8945153224474952e-07 
 3.0096635949189263e-07  3.1293935188078845e-07  3.2538874529239083e-07  3.3833350182664633e-07 
 3.5179333874966099e-07  3.6578875859648186e-07  3.8034108047574408e-07  3.9547247262429722e-07 
 4.1120598626185694e-07  4.2756559079774024e-07  4.4457621044383975e-07  4.6226376229016786e-07 
 4.8065519590157499e-07  4.9977853449659723e-07  5.1966291777185404e-07  5.4033864643796351e-07 
 5.6183722853560774e-07  5.8419142760314387e-07  6.0743531277004007e-07  6.3160431085340706e-07 
 6.5673526053802167e-07  6.8286646872348279e-07  7.1003776912551184e-07  7.3829058322193918e-07 
 7.6766798363756814e-07  7.9821476006591982e-07  8.2997748782983136e-07  8.6300459918700242e-07 
 8.9734645749088633e-07  9.3305543432178985e-07  9.7018598970770888e-07  1.0087947555592663e-06 
 1.0489406224481706e-06  1.0906848298638657e-06  1.1340910600885116e-06  1.1792255358361313e-06 
 1.2261571218076881e-06  1.2749574303200349e-06  1.3257009311730994e-06  1.3784650659263739e-06 
 1.4333303667627372e-06  1.4903805801249088e-06  1.5497027953173882e-06  1.6113875782746038e-06 
 1.6755291107042173e-06  1.7422253348230374e-06  1.8115781039119280e-06  1.8836933389253389e-06 
 1.9586811914007639e-06  2.0366562129234632e-06  2.1177375314122843e-06  2.2020490345033265e-06 
 2.2897195603195644e-06  2.3808830959263916e-06  2.4756789837854074e-06  2.5742521365316229e-06 
 2.6767532604126704e-06  2.7833390877425986e-06  2.8941726187373466e-06  3.0094233731142380e-06 
 3.1292676518535885e-06  3.2538888095370759e-06  3.3834775376946467e-06  3.5182321596097370e-06 
 3.6583589370511769e-06  3.8040723894197165e-06  3.9555956258173821e-06  4.1131606905690496e-06 
 4.2770089227477351e-06  4.4473913302781390e-06  4.6245689792169954e-06  4.8088133988338693e-06 
 5.0004070031421454e-06  5.1996435295573002e-06  5.4068284953879150e-06  5.6222796728946899e-06 
 5.8463275836835768e-06  6.0793160132315948e-06  6.3216025463775551e-06  6.5735591246451964e-06 
 6.8355726263029285e-06  7.1080454701028225e-06  7.3913962436815127e-06  7.6860603576474644e-06 
 7.9924907264228665e-06  8.3111584769538301e-06  8.6425536864503649e-06  8.9871861503672803e-06 
 9.3455861818891302e-06  9.7183054442366208e-06  1.0105917817168643e-05  1.0509020299113273e-05 
 1.0928233946423112e-05  1.1364204851315054e-05  1.1817605160122086e-05  1.2289134133555654e-05 
 1.2779519250750848e-05  1.3289517358944159e-05  1.3819915870714163e-05  1.4371534010800257e-05 
 1.4945224114602786e-05  1.5541872980560432e-05  1.6162403278697670e-05  1.6807775017735935e-05 
 1.7478987073268476e-05  1.8177078779609493e-05  1.8903131588044218e-05  1.9658270794328147e-05 
 2.0443667338410722e-05  2.1260539679491891e-05  2.2110155749659487e-05  2.2993834989501476e-05 
 2.3912950469239789e-05  2.4868931099093151e-05  2.5863263932743929e-05  2.6897496567960142e-05 
 2.7973239648608176e-05  2.9092169472485076e-05  3.0256030709601955e-05  3.1466639235762596e-05 
 3.2725885086504307e-05  3.4035735536701433e-05  3.5398238311377748e-05  3.6815524933530508e-05 
 3.8289814215039479e-05  3.9823415897017002e-05  4.1418734446252908e-05  4.3078273014719905e-05 
 4.4804637569432694e-05  4.6600541200298926e-05  4.8468808613960096e-05  5.0412380822001528e-05 
 5.2434320032308596e-05  5.4537814752765461e-05  5.6726185116933228e-05  5.9002888441806860e-05 
 6.1371525028237228e-05  6.3835844215115743e-05  6.6399750698957369e-05  6.9067311131082914e-05 
 7.1842761005197546e-05  7.4730511848787243e-05  7.7735158732414881e-05  8.0861488111689817e-05 
 8.4114486017415035e-05  8.7499346610183762e-05  9.1021481116505937e-05  9.4686527164396901e-05 
 9.8500358537256452e-05  1.0246909536581225e-04  1.0659911477889524e-04  1.1089706203486460e-04 
 1.1536986215660330e-04  1.2002473209417061e-04  1.2486919344042511e-04  1.2991108572622492e-04 
 1.3515858032317880e-04  1.4062019498335676e-04  1.4630480904688953e-04  1.5222167934998582e-04 
 1.5838045686758452e-04  1.6479120412664168e-04  1.7146441342793137e-04  1.7841102591622520e-04 
 1.8564245154080791e-04  1.9317058995050012e-04  2.0100785236969098e-04  2.0916718450434983e-04 
 2.1766209052958988e-04  2.2650665821310315e-04  2.3571558523169294e-04  2.4530420674119465e-04 
 2.5528852426331852e-04  2.6568523595636961e-04  2.7651176834042043e-04  2.8778630955133248e-04 
 2.9952784420206595e-04  3.1175618993398342e-04  3.2449203574537385e-04  3.3775698218918668e-04 
 3.5157358353701698e-04  3.6596539201171085e-04  3.8095700419660304e-04  3.9657410973535417e-04 
 4.1284354244266563e-04  4.2979333395280859e-04  4.4745277003995805e-04  4.6585244975177065e-04 
 4.8502434750553013e-04  5.0500187830451802e-04  5.2581996624108049e-04  5.4751511646218217e-04 
 5.7012549078309742e-04  5.9369098714530670e-04  6.1825332312569073e-04  6.4385612371576284e-04 
 6.7054501360201202e-04  6.9836771419143654e-04  7.2737414564013616e-04  7.5761653415737829e-04 
 7.8914952487294302e-04  8.2203030057180666e-04  8.5631870661742073e-04  8.9207738240297920e-04 
 9.2937189968926451e-04  9.6827090820791374e-04  1.0088462889303387e-03  1.0511733154251368e-03 
 1.0953308237506519e-03  1.1414013913545404e-03  1.1894715254787275e-03  1.2396318615961585e-03 
 1.2919773724352857e-03  1.3466075881793528e-03  1.4036268284603809e-03  1.4631444468022677e-03 
 1.5252750882038548e-03  1.5901389605910859e-03  1.6578621209076834e-03  1.7285767766561317e-03 
 1.8024216037452918e-03  1.8795420815477034e-03  1.9600908461187543e-03  2.0442280625813320e-03 
 2.1321218177335777e-03  2.2239485339938434e-03  2.3198934058561017e-03  2.4201508600909059e-03 
 2.5249250409915334e-03  2.6344303220323705e-03  2.7488918453767719e-03  2.8685460907447247e-03 
 2.9936414752266475e-03  3.1244389857084214e-03  3.2612128456545450e-03  3.4042512180807475e-03 
 3.5538569466346983e-03  3.7103483367933164e-03  3.8740599792776134e-03  4.0453436178806996e-03 
 4.2245690640014596e-03  4.4121251602750487e-03  4.6084207957915639e-03  4.8138859754955580e-03 
 5.0289729464610185e-03  5.2541573838385111e-03  5.4899396393727328e-03  5.7368460554890503e-03 
 5.9954303480457523e-03  6.2662750609438767e-03  6.5499930958775173e-03  6.8472293205929001e-03 
 7.1586622591033608e-03  7.4850058673775052e-03  7.8270113980780012e-03  8.1854693579760784e-03 
 8.5612115617003347e-03  8.9551132854946806e-03  9.3680955246569653e-03  9.8011273583037285e-03 
 1.0255228425054169e-02  1.0731471513144417e-02  1.1230985268367069e-02  1.1754957023076662e-02 
 1.2304635749304203e-02  1.2881335138777931e-02  1.3486436812347385e-02  1.4121393660947619e-02 
 1.4787733319813451e-02  1.5487061777152341e-02  1.6221067117902652e-02  1.6991523402532082e-02 
 1.7800294680062043e-02  1.8649339133627457e-02  1.9540713355890381e-02  2.0476576750508371e-02 
 2.1459196054606965e-02  2.2490949975808357e-02  2.3574333935816139e-02  2.4711964910838911e-02 
 2.5906586357243019e-02  2.7161073208748474e-02  2.8478436929212200e-02  2.9861830602572453e-02 
 3.1314554038849668e-02  3.2840058872207548e-02  3.4441953623971122e-02  3.6124008700172135e-02 
 3.7890161289652252e-02  3.9744520125001903e-02  4.1691370064658298e-02  4.3735176450343131e-02 
 4.5880589189704883e-02  4.8132446509567946e-02  5.0495778320609135e-02  5.2975809129616525e-02 
 5.5577960430780907e-02  5.8307852502772491e-02  6.1171305533724692e-02  6.4174339991742171e-02 
 6.7323176154244019e-02  7.0624232705414985e-02  7.4084124307345775e-02  7.7709658047172114e-02 
 8.1507828659746345e-02  8.5485812423152438e-02  8.9650959622766424e-02  9.4010785478589820e-02 
 9.8572959430253765e-02  1.0334529267437237e-01  1.0833572384973919e-01  1.1355230276708539e-01 
 1.1900317208156923e-01  1.2469654680759810e-01  1.3064069157670105e-01  1.3684389553961637e-01 
 1.4331444481316266e-01  1.5006059237044242e-01  1.5709052526915718e-01  1.6441232910706621e-01 
 1.7203394958586543e-01  1.7996315105522492e-01  1.8820747189802628e-01  1.9677417660704788e-01 
 2.0567020439412964e-01  2.1490211416746555e-01  2.2447602571407793e-01  2.3439755693628767e-01 
 2.4467175701722194e-01  2.5530303543556526e-01  2.6629508681841485e-01  2.7765081171751654e-01 
 2.8937223352184482e-01  3.0146041188057748e-01  3.1391535320505909e-01  3.2673591904345684e-01 
 3.3991973337073939e-01  3.5346309009791332e-01  3.6736086236136500e-01  3.8160641538372925e-01 
 3.9619152487599896e-01  4.1110630304947615e-01  4.2633913430198628e-01  4.4187662252111787e-01 
 4.5770355170908777e-01  4.7380286129947102e-01  4.9015563714502125e-01  5.0674111876110062e-01 
 5.2353672306604804e-01  5.4051808461168527e-01  5.5765911216355812e-01  5.7493206145981191e-01 
 5.9230762400784498e-01  6.0975503180424384e-01  6.2724217780969127e-01  6.4473575180099107e-01 
 6.6220139079342977e-01  6.7960384253828288e-01  6.9690713964987017e-01  7.1407478075792008e-01 
 7.3106991384499120e-01  7.4785551583723220e-01  7.6439456187478849e-01  7.8065017783598345e-01 
 7.9658577090782334e-01  8.1216513537945290e-01  8.2735253418259080e-01  8.4211276048107131e-01 
 8.5641118705093389e-01  8.7021381349803406e-01  8.8348732196514002e-01  8.9619915073281342e-01 
 9.0831759278263491e-01  9.1981192622328689e-01  9.3065256575103406e-01  9.4081120547837660e-01 
 9.5026104781794452e-01  9.5897698813049825e-01  9.6693580880041863e-01  9.7411636667458101e-01 
 9.8049976597701127e-01  9.8606951194156911e-01  9.9081164188664350e-01  9.9471483177543552e-01 
 9.9777047737804303e-01  9.9997274995700425e-01  1.0013186269598473e+00  1.0018078985674825e+00 
 1.0014431511699369e+00  1.0002297289710342e+00  9.9817567500182469e-01  9.9529165287816035e-01 
 9.9159085068946717e-01  9.8708886846328492e-01  9.8180359071675438e-01  9.7575504568050253e-01 
 9.6896525285834201e-01  9.6145806066216488e-01  9.5325897592951347e-01  9.4439498718575821e-01 
 9.3489438354854182e-01  9.2478657118507546e-01  9.1410188921997149e-01  9.0287142695072076e-01 
 8.9112684415905619e-01  8.7890019620967441e-01  8.6622376550469771e-01  8.5312990071520789e-01 
 8.3965086504346287e-01  8.2581869458483947e-01  8.1166506766132318e-01  7.9722118579242374e-01 
 7.8251766645692944e-01  7.6758444944741011e-01  7.5245071376895289e-01  7.3714480803852533e-01 
 7.2169419253950928e-01  7.0612539276371755e-01  6.9046396383659570e-01  6.7473446510495272e-01 
 6.5896044407445631e-01  6.4316442881602454e-01  6.2736792791578599e-01  6.1159143702162544e-01 
 5.9585445103912171e-01  5.8017548104908012e-01  5.6457207505559071e-01  5.4906084172502989e-01 
 5.3365747633993088e-01  5.1837678826437528e-01  5.0323272929661744e-01  4.8823842236731713e-01 
 4.7340619012548102e-01  4.5874758303665031e-01  4.4427340669700593e-01  4.2999374814119351e-01 
 4.1591800098946985e-01  4.0205488934024358e-01  3.8841249036662079e-01  3.7499825561986838e-01 
 3.6181903107879565e-01  3.4888107601220636e-01  3.3619008074229034e-01  3.2375118341077830e-01 
 3.1156898585767512e-01  2.9964756872529869e-01  2.8799050589908032e-01  2.7660087839205783e-01 
 2.6548128777306207e-01  2.5463386923007836e-01  2.4406030435087900e-01  2.3376183369337544e-01 
 2.2373926920876303e-01  2.1399300657179532e-01  2.0452303746474751e-01  1.9532896185495330e-01 
 1.8641000030031474e-01  1.7776500631286371e-01  1.6939247880712457e-01  1.6129057465832003e-01 
 1.5345712139264639e-01  1.4588963003074201e-01  1.3858530810583508e-01  1.3154107287522673e-01 
 1.2475356474237750e-01  1.1821916090468555e-01  1.1193398923878567e-01  1.0589394243105259e-01 
 1.0009469235589162e-01  9.4531704698357616e-02  8.9200253810798505e-02  8.4095437785748586e-02 
 7.9212193719448570e-02  7.4545313132429611e-02  7.0089457505867633e-02  6.5839173885203731e-02 
 6.1788910496116102e-02  5.7933032312571749e-02  5.4265836512595568e-02  5.0781567754777115e-02 
 4.7474433206817143e-02  4.4338617258032148e-02  4.1368295850269500e-02  3.8557650363262849e-02 
 3.5900880994912197e-02  3.3392219583183974e-02  3.1025941821781547e-02  2.8796378828594947e-02 
 2.6697928033136691e-02  2.4725063356571233e-02  2.2872344665373533e-02  2.1134426486929602e-02 
 1.9506065982357646e-02  1.7982130178347187e-02  1.6557602465770534e-02  1.5227588378127956e-02 
 1.3987320667483139e-02  1.2832163699390562e-02  1.1757617191401571e-02  1.0759319322073401e-02 
 9.8330492390317353e-03  8.9747289956096273e-03  8.1804249459772570e-03  7.4463486285755677e-03 
 6.7688571671692729e-03  6.1444532180401626e-03  5.5697844908504015e-03  5.0416428696107400e-03 
 4.5569631590743186e-03  4.1128214808135071e-03  3.7064333422807934e-03  3.3351514013429291e-03 
 2.9964629481329347e-03  2.6879871255926706e-03  2.4074719097713425e-03  2.1527908707831738e-03 
 1.9219397352808725e-03  1.7130327713364526e-03  1.5242990166989955e-03  1.3540783714817263e-03 
 1.2008175763814335e-03  1.0630660975192077e-03  9.3947193888352246e-04  8.2877740313341516e-04 
 7.2981482116428182e-04  6.4150227034196915e-04  5.6283930066870780e-04  4.9290268735890626e-04 
 4.3084222738076972e-04  3.7587659647213403e-04  3.2728928198022235e-04  2.8442460562212371e-04 
 2.4668384893431665e-04  2.1352149279513661e-04  1.8444158098367529e-04  1.5899421630186740e-04 
 1.3677219635243153e-04  1.1740779465163279e-04  1.0056969137885714e-04  8.5960056739307829e-05 
 7.3311788654513958e-05  6.2385905308538089e-05  5.2969091974596180e-05  4.4871400534066876e-05 
 3.7924099182487545e-05  3.1977668998207630e-05  2.6899943330073426e-05  2.2574385341418762e-05 
 1.8898498525843492e-05  1.5782364584282712e-05  1.3147302718046564e-05  1.0924644144277710e-05 
 9.0546154730945748e-06  7.4853244934715406e-06  6.1718418911494111e-06  5.0753724598022773e-06 
 4.1625094594077473e-06  3.4045659163618991e-06  2.7769768415324936e-06  2.2587665585280195e-06 
 1.8320755786252026e-06  1.4817417250320161e-06  1.1949304918504011e-06  9.6080991706151773e-07 
 7.7026554937002817e-07  6.1565139157098549e-07  4.9057300452194945e-07  3.8969925251367306e-07 
 3.0859946009800081e-07  2.4360302990658774e-07  1.9167883880407602e-07  1.5033198439223956e-07 
 1.1751569432462178e-07  9.1556436357322923e-08  7.1090477112003941e-08  5.5010332005841868e-08 
 4.2419727773527231e-08  3.2595862759189230e-08  2.4957899131763537e-08  1.9040755962530068e-08 
 1.4473393389976485e-08  1.0960886656223443e-08  8.2696854568222850e-09  6.2155396628702460e-09 
 4.6536479206881222e-09  3.4706517831950441e-09  2.5781557300712450e-09  1.9075035170086641e-09 
 1.4055845466333733e-09  1.0314811204551134e-09  7.5379920970136745e-10  5.4855241918442128e-10 
 3.9749170580804574e-10  2.8679269244198052e-10  2.0602857716914715e-10  1.4737011559814079e-10 
 1.0496534053844797e-10  7.4460924683820555e-11  5.2634692735284935e-11  3.7115017168053596e-11 
 0.0000000000000000e+00  0.0000000000000000e+00  0.0000000000000000e+00  0.0000000000000000e+00 
 0.0000000000000000e+00  0.0000000000000000e+00  0.0000000000000000e+00  0.0000000000000000e+00 
 0.0000000000000000e+00  0.0000000000000000e+00  0.0000000000000000e+00  0.0000000000000000e+00 
 0.0000000000000000e+00  0.0000000000000000e+00  0.0000000000000000e+00  0.0000000000000000e+00 
 0.0000000000000000e+00  0.0000000000000000e+00  0.0000000000000000e+00  0.0000000000000000e+00 
 0.0000000000000000e+00  0.0000000000000000e+00  0.0000000000000000e+00  0.0000000000000000e+00 
 0.0000000000000000e+00  0.0000000000000000e+00  0.0000000000000000e+00  0.0000000000000000e+00 
 0.0000000000000000e+00  0.0000000000000000e+00  0.0000000000000000e+00  0.0000000000000000e+00 
 0.0000000000000000e+00  0.0000000000000000e+00  0.0000000000000000e+00  0.0000000000000000e+00 
 0.0000000000000000e+00  0.0000000000000000e+00  0.0000000000000000e+00  0.0000000000000000e+00 
 0.0000000000000000e+00  0.0000000000000000e+00  0.0000000000000000e+00  0.0000000000000000e+00 
 0.0000000000000000e+00  0.0000000000000000e+00  0.0000000000000000e+00  0.0000000000000000e+00 
 0.0000000000000000e+00  0.0000000000000000e+00  0.0000000000000000e+00  0.0000000000000000e+00 
 0.0000000000000000e+00  0.0000000000000000e+00  0.0000000000000000e+00  0.0000000000000000e+00 
 0.0000000000000000e+00  0.0000000000000000e+00  0.0000000000000000e+00  0.0000000000000000e+00 
 0.0000000000000000e+00  0.0000000000000000e+00  0.0000000000000000e+00  0.0000000000000000e+00 
 0.0000000000000000e+00  0.0000000000000000e+00  0.0000000000000000e+00  0.0000000000000000e+00 
 0.0000000000000000e+00  0.0000000000000000e+00  0.0000000000000000e+00  0.0000000000000000e+00 
 0.0000000000000000e+00  0.0000000000000000e+00  0.0000000000000000e+00  0.0000000000000000e+00 
 0.0000000000000000e+00  0.0000000000000000e+00  0.0000000000000000e+00  0.0000000000000000e+00 
 0.0000000000000000e+00  0.0000000000000000e+00  0.0000000000000000e+00  0.0000000000000000e+00 
 0.0000000000000000e+00  0.0000000000000000e+00  0.0000000000000000e+00  0.0000000000000000e+00 
 0.0000000000000000e+00  0.0000000000000000e+00  0.0000000000000000e+00  0.0000000000000000e+00 
 0.0000000000000000e+00  0.0000000000000000e+00  0.0000000000000000e+00  0.0000000000000000e+00 
 0.0000000000000000e+00  0.0000000000000000e+00  0.0000000000000000e+00  0.0000000000000000e+00 
 0.0000000000000000e+00  0.0000000000000000e+00  0.0000000000000000e+00  0.0000000000000000e+00 
 0.0000000000000000e+00  0.0000000000000000e+00  0.0000000000000000e+00  0.0000000000000000e+00 
 0.0000000000000000e+00  0.0000000000000000e+00  0.0000000000000000e+00  0.0000000000000000e+00 
 0.0000000000000000e+00  0.0000000000000000e+00  0.0000000000000000e+00  0.0000000000000000e+00 
 0.0000000000000000e+00  0.0000000000000000e+00  0.0000000000000000e+00  0.0000000000000000e+00 
 0.0000000000000000e+00  0.0000000000000000e+00  0.0000000000000000e+00  0.0000000000000000e+00 
 0.0000000000000000e+00  0.0000000000000000e+00  0.0000000000000000e+00  0.0000000000000000e+00 
 0.0000000000000000e+00  0.0000000000000000e+00  0.0000000000000000e+00  0.0000000000000000e+00 
 0.0000000000000000e+00  0.0000000000000000e+00  0.0000000000000000e+00  0.0000000000000000e+00 
 0.0000000000000000e+00  0.0000000000000000e+00  0.0000000000000000e+00  0.0000000000000000e+00 
 0.0000000000000000e+00  0.0000000000000000e+00  0.0000000000000000e+00  0.0000000000000000e+00 
 0.0000000000000000e+00 
</PP_PSWFC>


<PP_RHOATOM>
 1.8303909496533504e-16  1.8786051850543354e-16  1.9280894292369836e-16  1.9788771354420487e-16 
 2.0310026381006341e-16  2.0845011760455956e-16  2.1394089163343589e-16  2.1957629786992539e-16 
 2.2536014606418825e-16  2.3129634631885143e-16  2.3738891173238898e-16  2.4364196111213309e-16 
 2.5005972175874603e-16  2.5664653232404154e-16  2.6340684574408067e-16  2.7034523224952987e-16 
 2.7746638245531479e-16  2.8477511053165794e-16  2.9227635745864609e-16  2.9997519436652425e-16 
 3.0787682596397798e-16  3.1598659405671899e-16  3.2430998115875413e-16  3.3285261419877976e-16 
 3.4162026832420441e-16  3.5061887080537435e-16  3.5985450504264059e-16  3.6933341467897572e-16 
 3.7906200782091983e-16  3.8904686137071382e-16  3.9929472547254199e-16  4.0981252807589438e-16 
 4.2060737961913384e-16  4.3168657783643098e-16  4.4305761269132040e-16  4.5472817144021066e-16 
 4.6670614382927347e-16  4.7899962742822111e-16  4.9161693310458729e-16  5.0456659064219821e-16 
 5.1785735450764605e-16  5.3149820976865558e-16  5.4549837816834523e-16  5.5986732435949124e-16 
 5.7461476230300991e-16  5.8975066183498153e-16  6.0528525540665581e-16  6.2122904500199780e-16 
 6.3759280923744826e-16  6.5438761064869808e-16  6.7162480316940614e-16  6.8931603980691333e-16 
 7.0747328052014287e-16  7.2610880030501317e-16  7.4523519749282830e-16  7.6486540226725811e-16 
 7.8501268540566405e-16  8.0569066725068087e-16  8.2691332691811899e-16  8.4869501174741415e-16 
 8.7105044700101051e-16  8.9399474581923628e-16  9.1754341943740540e-16  9.4171238767204074e-16 
 9.6651798968332435e-16  9.9197699502103709e-16  1.0181066149614625e-15  1.0449245141429180e-15 
 1.0724488225077759e-15  1.1006981475590536e-15  1.1296915869398556e-15  1.1594487413441704e-15 
 1.1899897277677535e-15  1.2213351931080545e-15  1.2535063281223805e-15  1.2865248817537336e-15 
 1.3204131758340089e-15  1.3551941201744859e-15  1.3908912280538352e-15  1.4275286321140758e-15 
 1.4651311006752716e-15  1.5037240544799602e-15  1.5433335838786639e-15  1.5839864664680709e-15 
 1.6257101851938473e-15  1.6685329469302769e-15  1.7124837015493267e-15  1.7575921614920159e-15 
 1.8038888218553058e-15  1.8514049810081137e-15  1.9001727617503709e-15  1.9502251330294470e-15 
 2.0015959322286022e-15  2.0543198880425488e-15  2.1084326439555838e-15  2.1639707823381638e-15 
 2.2209718491782226e-15  2.2794743794639342e-15  2.3395179232350915e-15  2.4011430723207208e-15 
 2.4643914877809957e-15  2.5293059280720023e-15  2.5959302779524089e-15  2.6643095781515819e-15 
 2.7344900558191823e-15  2.8065191557768657e-15  2.8804455725931752e-15  2.9563192835033672e-15 
 3.0341915821963420e-15  3.1141151134916205e-15  3.1961439089297224e-15  3.2803334233000730e-15 
 3.3667405721310965e-15  3.4554237701678508e-15  3.5464429708632398e-15  3.6398597069094544e-15 
 3.7357371318371055e-15  3.8341400627101076e-15  3.9351350239452523e-15  4.0387902922860174e-15 
 4.1451759429610888e-15  4.2543638970587590e-15  4.3664279701492428e-15  4.4814439221877872e-15 
 4.5994895087323149e-15  4.7206445335102331e-15  4.8449909023699114e-15  4.9726126786533770e-15 
 5.1035961400275962e-15  5.2380298368127941e-15  5.3760046518472714e-15  5.5176138619291122e-15 
 5.6629532008764525e-15  5.8121209242488286e-15  5.9652178757733960e-15  6.1223475555209955e-15 
 6.2836161898780611e-15  6.4491328033617341e-15  6.6190092923267448e-15  6.7933605006138903e-15 
 6.9723042971912167e-15  7.1559616558404604e-15  7.3444567369425779e-15  7.5379169714177027e-15 
 7.7364731468762697e-15  7.9402594960394981e-15  8.1494137874891474e-15  8.3640774188077784e-15 
 8.5843955121725549e-15  8.8105170124672153e-15  9.0425947879785802e-15  9.2807857337455682e-15 
 9.5252508776308028e-15  9.7761554891863072e-15  1.0033669191387076e-14  1.0297966075307959e-14 
 1.0569224817821458e-14  1.0847628802396033e-14  1.1133366243076511e-14  1.1426630311730530e-14 
 1.1727619268647052e-14  1.2036536596575123e-14  1.2353591138293775e-14  1.2678997237805768e-14 
 1.3012974885250947e-14  1.3355749865637018e-14  1.3707553911488405e-14  1.4068624859516357e-14 
 1.4439206811416298e-14  1.4819550298901157e-14  1.5209912453082175e-14  1.5610557178311964e-14 
 1.6021755330607087e-14  1.6443784900771071e-14  1.6876931202341469e-14  1.7321487064488381e-14 
 1.7777753029994484e-14  1.8246037558450862e-14  1.8726657234805747e-14  1.9219936983407391e-14 
 1.9726210287685798e-14  2.0245819415621842e-14  2.0779115651156281e-14  2.1326459531695244e-14 
 2.1888221091872685e-14  2.2464780113734896e-14  2.3056526383515990e-14  2.3663859955178453e-14 
 2.4287191420896415e-14  2.4926942188665377e-14  2.5583544767225413e-14  2.6257443058491114e-14 
 2.6949092657685808e-14  2.7658961161383201e-14  2.8387528483664763e-14  2.9135287180606744e-14 
 2.9902742783316471e-14  3.0690414139742747e-14  3.1498833765492555e-14  3.2328548203890153e-14 
 3.3180118395523399e-14  3.4054120057526300e-14  3.4951144072855181e-14  3.5871796889821382e-14 
 3.6816700932151060e-14  3.7786495019849516e-14  3.8781834801154694e-14  3.9803393195872566e-14 
 4.0851860850393814e-14  4.1927946604700312e-14  4.3032377971677106e-14  4.4165901629054532e-14 
 4.5329283924313198e-14  4.6523311392893806e-14  4.7748791290062358e-14  4.9006552136791100e-14 
 5.0297444280024389e-14  5.1622340467709061e-14  5.2982136438978279e-14  5.4377751529888932e-14 
 5.5810129295122274e-14  5.7280238146068860e-14  5.8789072005730397e-14  6.0337650980881102e-14 
 6.1927022051944383e-14  6.3558259781052483e-14  6.5232467038767510e-14  6.6950775749957467e-14 
 6.8714347659331382e-14  7.0524375117153253e-14  7.2382081885666496e-14  7.4288723966775294e-14 
 7.6245590451544439e-14  7.8254004392092426e-14  8.0315323696469688e-14  8.2430942047127904e-14 
 8.4602289843603471e-14  8.6830835170053548e-14  8.9118084788302273e-14  9.1465585157068498e-14 
 9.3874923478068059e-14  9.6347728769699215e-14  9.8885672969039644e-14  1.0149047206290376e-13 
 1.0416388724872579e-13  1.0690772612605869e-13  1.0972384391949627e-13  1.1261414473384923e-13 
 1.1558058284242707e-13  1.1862516400930155e-13  1.2174994684644847e-13  1.2495704420669184e-13 
 1.2824862461339472e-13  1.3162691372787086e-13  1.3509419585551255e-13  1.3865281549166090e-13 
 1.4230517890826928e-13  1.4605375578243989e-13  1.4990108086794181e-13  1.5384975571084970e-13 
 1.5790245041047067e-13  1.6206190542676166e-13  1.6633093343546696e-13  1.7071242123224459e-13 
 1.7520933168707926e-13  1.7982470575031718e-13  1.8456166451169467e-13  1.8942341131376683e-13 
 1.9441323392118415e-13  1.9953450674730083e-13  2.0479069313964211e-13  2.1018534772579507e-13 
 2.1572211882133600e-13  2.2140475090144346e-13  2.2723708713789910e-13  2.3322307200321753e-13 
 2.3936675394369819e-13  2.4567228812323915e-13  2.5214393923980264e-13  2.5878608441647279e-13 
 2.6560321616910010e-13  2.7259994545257912e-13  2.7978100478785979e-13  2.8715125147185557e-13 
 2.9471567087245948e-13  3.0247937981095053e-13  3.1044763003412215e-13  3.1862581177853860e-13 
 3.2701945742938501e-13  3.3563424527644088e-13  3.4447600336978642e-13  3.5355071347776202e-13 
 3.6286451514889209e-13  3.7242370988229412e-13  3.8223476540967440e-13  3.9230432009134508e-13 
 4.0263918742930087e-13  4.1324636070053800e-13  4.2413301771388212e-13  4.3530652569369005e-13 
 4.4677444629388903e-13  4.5854454074591476e-13  4.7062477514421104e-13  4.8302332587306904e-13 
 4.9574858517868429e-13  5.0880916689043352e-13  5.2221391229549221e-13  5.3597189617102393e-13 
 5.5009243297831717e-13  5.6458508322336972e-13  5.7945965998855046e-13  5.9472623564012294e-13 
 6.1039514871655722e-13  6.2647701100270259e-13  6.4298271479506017e-13  6.5992344036356170e-13 
 6.7731066361541847e-13  6.9515616396679928e-13  7.1347203242826572e-13  7.3227067991009823e-13 
 7.5156484575383731e-13  7.7136760649658354e-13  7.9169238487480308e-13  8.1255295907463014e-13 
 8.3396347223587834e-13  8.5593844221723351e-13  8.7849277163035276e-13  9.0164175815086457e-13 
 9.2540110511454831e-13  9.4978693240727029e-13  9.7481578765756405e-13  1.0005046577410580e-12 
 1.0268709806063075e-12  1.0539326574319367e-12  1.0817080651253775e-12  1.1102160691738802e-12 
 1.1394760368588929e-12  1.1695078508453365e-12  1.2003319231577701e-12  1.2319692095559142e-12 
 1.2644412243225178e-12  1.2977700554770973e-12  1.3319783804296237e-12  1.3670894820888634e-12 
 1.4031272654406961e-12  1.4401162746123924e-12  1.4780817104395746e-12  1.5170494485532972e-12 
 1.5570460580055397e-12  1.5980988204521624e-12  1.6402357499133569e-12  1.6834856131325282e-12 
 1.7278779505555622e-12  1.7734430979535232e-12  1.8202122087129305e-12  1.8682172768190472e-12 
 1.9174911605588183e-12  1.9680676069715654e-12  2.0199812770769293e-12  2.0732677719111986e-12 
 2.1279636594047748e-12  2.1841065021353200e-12  2.2417348859930793e-12  2.3008884497968466e-12 
 2.3616079159012605e-12  2.4239351218384199e-12  2.4879130530393368e-12  2.5535858766833399e-12 
 2.6209989767264702e-12  2.6901989901629188e-12  2.7612338445768465e-12  2.8341527970454437e-12 
 2.9090064744578242e-12  2.9858469153184258e-12  3.0647276131078920e-12  3.1457035612790704e-12 
 3.2288312999707502e-12  3.3141689645271430e-12  3.4017763359168534e-12  3.4917148931512764e-12 
 3.5840478678090328e-12  3.6788403007802081e-12  3.7761591013518109e-12  3.8760731087642179e-12 
 3.9786531563772410e-12  4.0839721385940066e-12  4.1921050807012204e-12  4.3031292117954437e-12 
 4.4171240409770185e-12  4.5341714370060955e-12  4.6543557116291629e-12  4.7777637067993763e-12 
 4.9044848860301082e-12  5.0346114301385701e-12  5.1682383376548981e-12  5.3054635301924695e-12 
 5.4463879630968437e-12  5.5911157417141848e-12  5.7397542436453914e-12  5.8924142473793064e-12 
 6.0492100677279473e-12  6.2102596985183613e-12  6.3756849630299544e-12  6.5456116727031563e-12 
 6.7201697946850818e-12  6.8994936288209898e-12  7.0837219947466829e-12  7.2729984297872546e-12 
 7.4674713984215717e-12  7.6672945141304452e-12  7.8726267745094297e-12  8.0836328105954255e-12 
 8.3004831514296322e-12  8.5233545049589714e-12  8.7524300564638213e-12  8.9878997857925077e-12 
 9.2299608047831041e-12  9.4788177163609864e-12  9.7346829969175878e-12  9.9977774037015661e-12 
 1.0268330409090015e-11  1.0546580663754353e-11  1.0832776490894505e-11  1.1127176413886821e-11 
 1.1430049719876440e-11  1.1741677062045737e-11  1.2062351103506520e-11  1.2392377205998249e-11 
 1.2732074166827023e-11  1.3081775007753775e-11  1.3441827819835086e-11  1.3812596668539463e-11 
 1.4194462563806729e-11  1.4587824500091060e-11  1.4993100571830953e-11  1.5410729170224890e-11 
 1.5841170267662302e-11  1.6284906796667570e-11  1.6742446130765408e-11  1.7214321675269427e-11 
 1.7701094576638671e-11  1.8203355559740952e-11  1.8721726903112502e-11  1.9256864563114778e-11 
 1.9809460458766387e-11  2.0380244929976092e-11  2.0969989382928049e-11  2.1579509137478312e-11 
 2.2209666492619457e-11  2.2861374027365452e-11  2.3535598155808757e-11  2.4233362956615165e-11 
 2.4955754298859006e-11  2.5703924287869386e-11  2.6479096056672577e-11  2.7282568930682421e-11 
 2.8115723995528083e-11  2.8980030100325034e-11  2.9877050331310419e-11  3.0808448993590007e-11 
 3.1775999141800499e-11  3.2781590703795485e-11  3.3827239245037345e-11  3.4915095425240641e-11 
 3.6047455202991446e-11  3.7226770848585300e-11  3.8455662830211240e-11  3.9736932643893883e-11 
 4.1073576663318243e-11  4.2468801091840147e-11  4.3926038105666712e-11  4.5448963284417263e-11 
 4.7041514433087969e-11  4.8707911907894908e-11  5.0452680567608894e-11  5.2280673481879191e-11 
 5.4197097538732053e-11  5.6207541104992175e-11  5.8318003905876911e-11  6.0534929303537278e-11 
 6.2865239168945601e-11  6.5316371557349430e-11  6.7896321414621163e-11  7.0613684560341035e-11 
 7.3477705213467064e-11  7.6498327348100211e-11  7.9686250190272251e-11  8.3052988192017784e-11 
 8.6610935846397856e-11  9.0373437736783595e-11  9.4354864245777803e-11  9.8570693383839083e-11 
 1.0303759923520218e-10  1.0777354755927982e-10  1.1279789912965280e-10  1.1813152144026525e-10 
 1.2379690945984381e-10  1.2981831617117071e-10  1.3622189369200720e-10  1.4303584583955968e-10 
 1.5029059307080979e-10  1.5801895080723981e-10  1.6625632223493047e-10  1.7504090676023558e-10 
 1.8441392539776750e-10  1.9441986447189745e-10  2.0510673912600684e-10  2.1652637825605758e-10 
 2.2873473261741442e-10  2.4179220799711426e-10  2.5576402549880593e-10  2.7072061115536385e-10 
 2.8673801726577264e-10  3.0389837804940919e-10  3.2229040242356842e-10  3.4200990694031460e-10 
 3.6316039216795425e-10  3.8585366607218330e-10  4.1021051824396123e-10  4.3636144913727314e-10 
 4.6444745882211460e-10  4.9462090012850082e-10  5.2704640145834294e-10  5.6190186497625560e-10 
 5.9937954636045909e-10  6.3968722280396972e-10  6.8304945650741237e-10  7.2970896150158580e-10 
 7.7992808228418248e-10  8.3399039345488011e-10  8.9220243029092950e-10  9.5489556102617313e-10 
 1.0224280124853859e-09  1.0951870616886935e-09  1.1735914070837364e-09  1.2580937341929200e-09 
 1.3491834916868437e-09  1.4473898952206996e-09  1.5532851778065949e-09  1.6674881070508191e-09 
 1.7906677912709230e-09  1.9235477983342784e-09  2.0669106130391657e-09  2.2216024610045452e-09 
 2.3885385293592535e-09  2.5687086170407684e-09  2.7631832502444010e-09  2.9731203015234506e-09 
 3.1997721542493822e-09  3.4444934576190752e-09  3.7087495211668921e-09  3.9941254018275111e-09 
 4.3023357410281796e-09  4.6352354140956510e-09  4.9948310594755658e-09  5.3832935609150761e-09 
 5.8029715618905310e-09  6.2564060982126218e-09  6.7463464419552790e-09  7.2757672576808827e-09 
 7.8478871804252363e-09  8.4661889341186444e-09  9.1344411191165237e-09  9.8567218083620855e-09 
 1.0637444103478237e-08  1.1481383814865950e-08  1.2393709443759906e-08  1.3380014659252704e-08 
 1.4446353479651328e-08  1.5599278385284595e-08  1.6845881609161822e-08  1.8193839872823180e-08 
 1.9651462857466547e-08  2.1227745725143336e-08  2.2932426031655944e-08  2.4776045401954321e-08 
 2.6770016370518650e-08  2.8926694823655036e-08  3.1259458518063306e-08  3.3782792190725316e-08 
 3.6512379819397771e-08  3.9465204641090083e-08  4.2659657588208874e-08  4.6115654858931169e-08 
 4.9854765400238321e-08  5.3900349149345271e-08  5.8277706952487742e-08  6.3014243159708875e-08 
 6.8139641981003643e-08  7.3686058783563949e-08  7.9688327612616024e-08  8.6184186330209970e-08 
 9.3214520888136833e-08  1.0082363038381855e-07  1.0905951469252400e-07  1.1797418662669954e-07 
 1.2762401074473822e-07  1.3807007111845095e-07  1.4937857057225441e-07  1.6162126412920502e-07 
 1.7487592964118921e-07  1.8922687884466346e-07  2.0476551237138390e-07  2.2159092255777945e-07 
 2.3981054823944897e-07  2.5954088609138230e-07  2.8090826348283450e-07  3.0404967826154548e-07 
 3.2911371136869738e-07  3.5626151871752610e-07  3.8566790934905547e-07  4.1752251751267306e-07 
 4.5203107701231797e-07  4.8941680691646393e-07  5.2992191855806320e-07  5.7380925465585043e-07 
 6.2136407237835977e-07  6.7289598325479141e-07  7.2874106402144465e-07  7.8926415378863933e-07 
 8.5486135433171097e-07  9.2596275186263475e-07  1.0030353803392826e-06  1.0865864482314923e-06 
 1.1771668527030341e-06  1.2753750074034739e-06  1.3818610125131653e-06  1.4973311983691517e-06 
 1.6225530769430676e-06  1.7583607386696012e-06  1.9056607356642199e-06  2.0654384962525349e-06 
 2.2387653199954028e-06  2.4268060070713724e-06  2.6308271810130444e-06  2.8522063694324710e-06 
 3.0924419135635375e-06  3.3531637842523445e-06  3.6361453895018628e-06  3.9433164668926603e-06 
 4.2767771632329151e-06  4.6388134137208731e-06  5.0319137438241296e-06  5.4587876290932398e-06 
 5.9223855613450252e-06  6.4259209841970559e-06  6.9728942769465777e-06  7.5671189834154382e-06 
 8.2127505017955641e-06  8.9143174729117439e-06  9.6767561278748241e-06  1.0505447882055889e-05 
 1.1406260490919822e-05  1.2385593114793920e-05  1.3450425674418586e-05  1.4608372917473345e-05 
 1.5867743658567610e-05  1.7237605701846875e-05  1.8727857006853055e-05  2.0349303715098591e-05 
 2.2113745717535634e-05  2.4034070512344255e-05  2.6124356178920179e-05  2.8399984378377104e-05 
 3.0877764384138223e-05  3.3576069249211527e-05  3.6514985330565474e-05  3.9716476516787099e-05 
 4.3204564644193335e-05  4.7005527740176051e-05  5.1148117902355616e-05  5.5663800809815852e-05 
 6.0587019070199461e-05  6.5955481835869436e-05  7.1810483376013768e-05  7.8197253572069074e-05 
 8.5165343614012978e-05  9.2769050518064388e-05  1.0106788446562811e-04  1.1012708338274632e-04 
 1.2001817964313120e-04  1.3081962429071204e-04  1.4261747474470681e-04  1.5550615257719751e-04 
 1.6958927864632600e-04  1.8498059363441540e-04  2.0180497288716393e-04  2.2019954538588695e-04 
 2.4031492771876728e-04  2.6231658505927930e-04  2.8638633242140466e-04  3.1272399085405738e-04 
 3.4154921477449991e-04  3.7310350833692275e-04  4.0765245060358585e-04  4.4548815134913403e-04 
 4.8693196160270276e-04  5.3233746553750343e-04  5.8209378307585969e-04  6.3662921561296964e-04 
 6.9641527060089730e-04  7.6197110440314614e-04  8.3386842685959387e-04  9.1273691542353736e-04 
 9.9927019158127604e-04  1.0942324175764536e-03  1.1984655772747372e-03  1.3128975113600341e-03 
 1.4385507839938588e-03  1.5765524656391671e-03  1.7281449249948264e-03  1.8946977319542083e-03 
 2.0777207832390512e-03  2.2788787729157494e-03  2.5000071414234938e-03  2.7431296490779268e-03 
 3.0104777333041853e-03  3.3045118231386792e-03  3.6279447998544679e-03  3.9837678089369418e-03 
 4.3752786460826247e-03  4.8061129584190607e-03  5.2802785217382119e-03  5.8021928751711008e-03 
 6.3767246163563491e-03  7.0092386826923992e-03  7.7056459676020511e-03  8.4724576447322113e-03 
 9.3168445974696791e-03  1.0246702375835057e-02  1.1270722127423125e-02  1.2398467973223847e-02 
 1.3640461322449162e-02  1.5008272642384144e-02  1.6514621219169360e-02  1.8173483462593364e-02 
 2.0000210321611946e-02  2.2011654386480471e-02  2.4226307257028897e-02  2.6664447753537830e-02 
 2.9348301535567792e-02  3.2302212673492023e-02  3.5552827685793716e-02  3.9129292510679765e-02 
 4.3063462821383215e-02  4.7390128018700552e-02  5.2147249139763686e-02  5.7376210806617145e-02 
 6.3122087199633733e-02  6.9433921876875804e-02  7.6365021068911715e-02  8.3973259857018145e-02 
 9.2321400388862704e-02  1.0147742099740080e-01  1.1151485476359359e-01  1.2251313569941258e-01 
 1.3455795032217174e-01  1.4774159194215103e-01  1.6216331449026603e-01  1.7792968216847138e-01 
 1.9515491060972170e-01  2.1396119458341670e-01  2.3447901657290482e-01  2.5684742978036490e-01 
 2.8121430827814753e-01  3.0773655612228556e-01  3.3658026627316057e-01  3.6792081913309893e-01 
 4.0194290941879796e-01  4.3884048895258215e-01  4.7881661180465740e-01  5.2208316708483482e-01 
 5.6886048361744390e-01  6.1937678980534483e-01  6.7386751128505140e-01  7.3257438860168822e-01 
 7.9574439721516721e-01  8.6362845282792300e-01  9.3647988644824665e-01  1.0145526759167469e+00 
 1.0980994239518567e+00  1.1873690771972478e+00  1.2826043862956424e+00  1.3840391135926080e+00 
 1.4918950024991700e+00  1.6063785305019782e+00  1.7276774758913001e+00  1.8559573360133308e+00 
 1.9913576418021217e+00  2.1339882191818504e+00  2.2839254525229307e+00  2.4412086087880214e+00 
 2.6058362836158380e+00  2.7777630327498217e+00  2.9568962542450743e+00  3.1430933888711903e+00 
 3.3361595078161113e+00  3.5358453575430113e+00  3.7418459304581426e+00  3.9537996256522607e+00 
 4.1712880550099447e+00  4.3938365351728335e+00  4.6209152843450934e+00  4.8519413147536143e+00 
 5.0862809781454201e+00  5.3232530863780561e+00  5.5621324974456368e+00  5.8021540363741995e+00 
 6.0425166177248446e+00  6.2823874571937255e+00  6.5209063043765774e+00  6.7571896909519475e+00 
 6.9903352558941014e+00  7.2194262661480533e+00  7.4435364831663184e+00  7.6617355243629675e+00 
 7.8730948417494551e+00  8.0766944424247207e+00  8.2716301618934907e+00  8.4570209316449017e+00 
 8.6320176856947359e+00  8.7958115573931881e+00  8.9476422178689354e+00  9.0868059840912192e+00 
 9.2126634556636198e+00  9.3246464931028399e+00  9.4222643810542017e+00  9.5051090526184616e+00 
 9.5728592829305210e+00  9.6252837897589192e+00  9.6622432055641365e+00  9.6836909091759136e+00 
 9.6896727263641242e+00  9.6803255275128439e+00  9.6558747677340957e+00  9.6166310303159559e+00 
 9.5629856484818987e+00  9.4954054930090628e+00  9.4144270241842669e+00  9.3206497156866845e+00 
 9.2147289650835837e+00  9.0973686105321043e+00  8.9693131758658673e+00  8.8313399664370120e+00 
 8.6842511358805794e+00  8.5288658394419397e+00  8.3660125828037994e+00  8.1965218666797970e+00 
 8.0212192170773751e+00  7.8409186793892029e+00  7.6564168417000538e+00  7.4684874392617182e+00 
 7.2778765783648494e+00  7.0852986041854749e+00  6.8914326239425101e+00  6.6969196841667529e+00 
 6.5023605848335659e+00  6.3083143305170593e+00  6.1152971397289360e+00  5.9237820200022888e+00 
 5.7341988397978971e+00  5.5469348520458759e+00  5.3623356166438061e+00  5.1807062677578086e+00 
 5.0023130716336315e+00  4.8273852216683464e+00  4.6561168195580356e+00  4.4886689942516993e+00 
 4.3251721140306731e+00  4.1657280511216133e+00  4.0104124626708915e+00  3.8592770565016146e+00 
 3.7123518146996526e+00  3.5696471526080482e+00  3.4311559951447226e+00  3.2968557564122092e+00 
 3.1667102122771436e+00  3.0406712589170359e+00  2.9186805532379037e+00  2.8006710335501337e+00 
 2.6865683209583437e+00  2.5762920035924708e+00  2.4697568071108549e+00  2.3668736558770824e+00 
 2.2675506298916122e+00  2.1716938229894454e+00  2.0792081080397598e+00  1.9899978149442712e+00 
 1.9039673271674240e+00  1.8210216023785342e+00  1.7410666225744640e+00  1.6640097788071584e+00 
 1.5897601953840961e+00  1.5182289981570942e+00  1.4493295312774492e+00  1.3829775265798703e+00 
 1.3190912295679342e+00  1.2575914858102595e+00  1.1984017914179179e+00  1.1414483111561449e+00 
 1.0866598676428032e+00  1.0339679049970347e+00  9.8330643021786313e-01  9.3461193441086543e-01 
 8.8782330243576246e-01  8.4288170298538923e-01  7.9973047308068690e-01  7.5831499419463000e-01 
 7.1858256375951290e-01  6.8048226453104654e-01  6.4396483409686556e-01  6.0898253661205981e-01 
 5.7548903862162715e-01  5.4343929059179186e-01  5.1278941552282242e-01  4.8349660575965558e-01 
 4.5551902885823364e-01  4.2881574311027748e-01  4.0334662308243019e-01  3.7907229529245301e-01 
 3.5595408392992550e-01  3.3395396633564023e-01  3.1303453778585327e-01  2.9315898498758425e-01 
 2.7429106731586572e-01  2.5639510629545842e-01  2.3943597988754634e-01  2.2337912331292517e-01 
 2.0819053421138162e-01  1.9383678154339634e-01  1.8028501740430944e-01  1.6750299097414592e-01 
 1.5545906389065975e-01  1.4412222640639449e-01  1.3346211376968797e-01  1.2344902235153968e-01 
 1.1405392512233918e-01  1.0524848616214605e-01  9.7005073963376473e-02  8.9296773353622516e-02 
 8.2097395927526587e-02  7.5381488929180632e-02  6.9124342569849243e-02  6.3301995799760757e-02 
 5.7891240577476716e-02  5.2869624696501236e-02  4.8215453237184236e-02  4.3907788713703155e-02 
 3.9926449982259284e-02  3.6252009968964952e-02  3.2865792265623389e-02  2.9749866630064591e-02 
 2.6887043416120440e-02  2.4260866947761285e-02  2.1855607843223171e-02  1.9656254288737830e-02 
 1.7648502258118079e-02  1.5818744674088808e-02  1.4154059509824306e-02  1.2642196834421499e-02 
 1.1271564813615660e-02  1.0031214686464930e-02  8.9108247494513598e-03  7.9006833909186502e-03 
 6.9916712304479494e-03  6.1752424291673623e-03  5.4434052476466585e-03  4.7887019375863734e-03 
 4.2041880616746040e-03  3.6834113425476198e-03  3.2203901466214802e-03  2.8095917116028341e-03 
 2.4459102277446976e-03  2.1246448824474699e-03  1.8414779757229406e-03  1.5924532104790586e-03 
 1.3739542567105508e-03  1.1826836826763648e-03  1.0156423391982708e-03  8.7010927551751905e-04 
 7.4362225688596084e-04  6.3395894542475216e-04  5.3911879692712726e-04  4.5730571736762751e-04 
 3.8691151405000431e-04  3.2650016770492337e-04  2.7479294354586811e-04  2.3065435139995731e-04 
 1.9307895762673519e-04  1.6117904468379045e-04  1.3417310793815716e-04  1.1137517369680982e-04 
 9.2184917445037825e-05  7.6078556960024283e-05  6.2600491297653741e-05  5.1355653623716931e-05 
 4.2002543455363978e-05  3.4246902066762044e-05  2.7835993560205264e-05  2.2553453371120403e-05 
 1.8214665719302864e-05  1.4662631693242559e-05  1.1764290211700093e-05  9.4072549980469512e-06 
 7.4969318796494128e-06  5.9539821389791924e-06  4.7120992490165124e-06  3.7160680789525151e-06 
 2.9200775160477184e-06  2.2862593777560145e-06  1.7834284505987066e-06  1.3860004577201258e-06 
 1.0730666990333169e-06  8.2760600313787440e-07  6.3581645961722180e-07  4.8655114836153172e-07 
 3.7084373716996754e-07  2.8151137126422577e-07  2.1282372265238649e-07  1.6022840038321321e-07 
 1.2012414371291104e-07  8.9674330315688470e-08  6.6654333700185995e-08  4.9327162167915654e-08 
 3.6342611234525346e-08  2.6655868484025147e-08  1.9462130926933361e-08  1.4144336995022784e-08 
 1.0231585332078832e-08  7.3662175258574793e-09  5.2778886589412205e-09  3.7632445543202392e-09 
 2.6700740064956137e-09  1.8850138516613930e-09  1.3240597153552910e-09  9.2528048204559584e-10 
 6.4325427905340415e-10  4.4484190774993625e-10  3.0599358725324716e-10  2.0934957275278744e-10 
 1.4244724906118690e-10  9.6388894485155618e-11  6.4857347541229351e-11  4.3392883982771924e-11 
 2.8865060634260103e-11  1.9089217114130962e-11  1.2549663280367927e-11  8.2010702927490758e-12 
 5.3268350559038250e-12  3.4386938737223076e-12  2.2060134999270520e-12  1.4062986503736522e-12 
 8.9076995590121879e-13  5.6057730224120445e-13  3.5046952435311346e-13  2.1765715954716646e-13 
 1.3426588911394188e-13  8.2260240430448468e-14  5.0050315241657175e-14  3.0239647744363401e-14 
 1.8140936464590982e-14  1.0804762325833473e-14  6.3885489703365362e-15  3.7495298182203306e-15 
 2.1842475786475926e-15  1.2627924196280859e-15  7.2447584919878154e-16  4.1241451298744687e-16 
 2.3292587433417361e-16  1.3050598890203707e-16  7.2531505696830955e-17  3.9981645228685579e-17 
 2.1856779769180189e-17  1.1848324963893983e-17  6.3683521052086998e-18  3.3935310196819286e-18 
 1.7926256140176441e-18  9.3865378888567238e-19  4.8716756859701199e-19  2.5062030716678634e-19 
 1.2781631291032362e-19  6.4651391992247097e-20  3.2466342063375345e-20  1.6222564566156002e-20 
 0.0000000000000000e+00  0.0000000000000000e+00  0.0000000000000000e+00  0.0000000000000000e+00 
 0.0000000000000000e+00  0.0000000000000000e+00  0.0000000000000000e+00  0.0000000000000000e+00 
 0.0000000000000000e+00  0.0000000000000000e+00  0.0000000000000000e+00  0.0000000000000000e+00 
 0.0000000000000000e+00  0.0000000000000000e+00  0.0000000000000000e+00  0.0000000000000000e+00 
 0.0000000000000000e+00  0.0000000000000000e+00  0.0000000000000000e+00  0.0000000000000000e+00 
 0.0000000000000000e+00  0.0000000000000000e+00  0.0000000000000000e+00  0.0000000000000000e+00 
 0.0000000000000000e+00  0.0000000000000000e+00  0.0000000000000000e+00  0.0000000000000000e+00 
 0.0000000000000000e+00  0.0000000000000000e+00  0.0000000000000000e+00  0.0000000000000000e+00 
 0.0000000000000000e+00  0.0000000000000000e+00  0.0000000000000000e+00  0.0000000000000000e+00 
 0.0000000000000000e+00  0.0000000000000000e+00  0.0000000000000000e+00  0.0000000000000000e+00 
 0.0000000000000000e+00  0.0000000000000000e+00  0.0000000000000000e+00  0.0000000000000000e+00 
 0.0000000000000000e+00  0.0000000000000000e+00  0.0000000000000000e+00  0.0000000000000000e+00 
 0.0000000000000000e+00  0.0000000000000000e+00  0.0000000000000000e+00  0.0000000000000000e+00 
 0.0000000000000000e+00  0.0000000000000000e+00  0.0000000000000000e+00  0.0000000000000000e+00 
 0.0000000000000000e+00  0.0000000000000000e+00  0.0000000000000000e+00  0.0000000000000000e+00 
 0.0000000000000000e+00  0.0000000000000000e+00  0.0000000000000000e+00  0.0000000000000000e+00 
 0.0000000000000000e+00  0.0000000000000000e+00  0.0000000000000000e+00  0.0000000000000000e+00 
 0.0000000000000000e+00  0.0000000000000000e+00  0.0000000000000000e+00  0.0000000000000000e+00 
 0.0000000000000000e+00  0.0000000000000000e+00  0.0000000000000000e+00  0.0000000000000000e+00 
 0.0000000000000000e+00  0.0000000000000000e+00  0.0000000000000000e+00  0.0000000000000000e+00 
 0.0000000000000000e+00  0.0000000000000000e+00  0.0000000000000000e+00  0.0000000000000000e+00 
 0.0000000000000000e+00  0.0000000000000000e+00  0.0000000000000000e+00  0.0000000000000000e+00 
 0.0000000000000000e+00  0.0000000000000000e+00  0.0000000000000000e+00  0.0000000000000000e+00 
 0.0000000000000000e+00  0.0000000000000000e+00  0.0000000000000000e+00  0.0000000000000000e+00 
 0.0000000000000000e+00  0.0000000000000000e+00  0.0000000000000000e+00  0.0000000000000000e+00 
 0.0000000000000000e+00  0.0000000000000000e+00  0.0000000000000000e+00  0.0000000000000000e+00 
 0.0000000000000000e+00 
</PP_RHOATOM>
