  <PP_INFO>

############################################################
#    Opium Parameter File                                  #
############################################################
#-----------------------------------------------------------
#Command line   : opium Tl Tl.log ae ps nl tc2 ke upf qmcpack rpt 
 
#Opium version  : 4.1 
#Compile Host   : py-garuda.cos.ncsu.edu 
#Compile OS     : Linux 5.15.0-113-generic x86_64 
#Compile Date   : Sat Jul 13 02:11:52 EDT 2024 
#-----------------------------------------------------------
#Execution Host : Gwaihir 
#Execution Date : Sun Apr 26 09:47:52 2026
 
#-----------------------------------------------------------
############################################################
[Atom]
Tl
15
100   2.00  -
200   2.00  -
210   6.00  -
300   2.00  -
310   6.00  -
320   10.00  -
400   2.00  -
410   6.00  -
420   10.00  -
430   14.00  -
500   2.00  -
510   6.00  -
520   9.50  -
600   1.50  -
610   0.50  -

[Pseudo]
3 -1 -1 -1
g

[Gaussinfo]
13 5 3
2 2 2 2 4   4 2 2
2 3.9402780 62.6534924  
2 1.6219532 38.0999013
2 2.7176799 55.8070418
2 1.0618053 17.0209069
2 7.0190220 69.6015582
2 2.0843420 -4.9507776
2 6.1957061 31.7261100
2 0.6235521 -0.3333534
1 3.0075250 13.0
3 2.9861954 39.09782500
2 2.2847162 -6.9653015
2 1.7923131 -14.9372952
2 0.91280187 -5.22178985
2 0.86093721 5.57358679
2 0.23597683 0.31867617
2 0.11413689 -0.10473685
2 0.66940558 -2.96170965
2 0.60569147 2.82269932
2 0.80335031 1.43227899
2 0.79120735 -1.33040274

[KBdesign]
s

[Relativity]
frl

[XC]
pbe

[Configs]
13

520  10.00 -
600  2.00 -
610  1.00 -

520  10.00 -
600  1.00 -
610  2.00 -

520  10.00 -
600  2.00 -
610  0.00 -

520  10.00 -
600  1.00 -
610  1.00 -

520  10.00 -
600  0.00 -
610  2.00 -

520  10.00 -
600  1.00 -
610  0.00 -

520  9.00 -
600  2.00 -
610  0.00 -

520  10.00 -
600  0.00 -
610  1.00 -

520  9.00 -
600  0.00 -
610  2.00 -

520  10.00 -
600  0.00 -
610  0.00 -

520  9.00 -
600  1.00 -
610  0.00 -

520  9.00 -
600  0.00 -
610  1.00 -

520  9.00 -
600  0.00 -
610  0.00 -
############################################################
  </PP_INFO>



<PP_HEADER>
   0         Version Number
   Tl        Element
   NC        Norm - Conserving pseudopotential
    F      Nonlinear Core Correction
SLA  PW   PBE  PBE     PBE  Exchange-Correlation functional
 13          Z valence
 0          Total energy
 0.000000   0.000000     Suggested cutoff for wfc and rho
 2           Max angular momentum component
 1189           Number of points in mesh
 5  4     Number of Wavefuncitons, Number of Projectors
 Wavefunctions         nl  l   occ
                      6S  0  1.500000
                      6P  1  0.166667
                      6P  1  0.333333
                      5D  2  3.800000
                      5D  2  5.700000
</PP_HEADER>
<PP_MESH>
  <PP_R>
 2.3112042478354488e-05  2.3414460488598028e-05  2.3720835598392826e-05  2.4031219585861634e-05 
 2.4345664906637075e-05  2.4664224702726803e-05  2.4986952811494510e-05  2.5313903774758726e-05 
 2.5645132848010410e-05  2.5980696009751310e-05  2.6320649970954424e-05  2.6665052184648326e-05 
 2.7013960855626835e-05  2.7367434950285787e-05  2.7725534206588507e-05  2.8088319144161564e-05 
 2.8455851074522903e-05  2.8828192111443519e-05  2.9205405181444849e-05  2.9587554034433531e-05 
 2.9974703254475282e-05  3.0366918270709726e-05  3.0764265368408128e-05  3.1166811700175742e-05 
 3.1574625297300686e-05  3.1987775081251538e-05  3.2406330875325119e-05  3.2830363416446834e-05 
 3.3259944367125367e-05  3.3695146327563830e-05  3.4136042847929360e-05  3.4582708440783273e-05 
 3.5035218593673902e-05  3.5493649781894043e-05  3.5958079481405639e-05  3.6428586181933306e-05 
 3.6905249400229282e-05  3.7388149693511949e-05  3.7877368673080241e-05  3.8372989018106078e-05 
 3.8875094489607405e-05  3.9383769944604003e-05  3.9899101350458379e-05  4.0421175799404708e-05 
 4.0950081523267445e-05  4.1485907908372764e-05  4.2028745510655072e-05  4.2578686070961162e-05 
 4.3135822530554639e-05  4.3700249046823256e-05  4.4272061009191553e-05  4.4851355055242200e-05 
 4.5438229087047747e-05  4.6032782287716386e-05  4.6635115138154121e-05  4.7245329434046292e-05 
 4.7863528303061270e-05  4.8489816222279296e-05  4.9124299035849338e-05  4.9767083972877066e-05 
 5.0418279665546639e-05  5.1077996167480074e-05  5.1746344972336391e-05  5.2423439032654337e-05 
 5.3109392778941651e-05  5.3804322139014108e-05  5.4508344557587534e-05  5.5221579016126399e-05 
 5.5944146052951625e-05  5.6676167783612271e-05  5.7417767921523126e-05  5.8169071798872564e-05 
 5.8930206387804010e-05  5.9701300321874597e-05  6.0482483917794462e-05  6.1273889197450583e-05 
 6.2075649910218867e-05  6.2887901555568016e-05  6.3710781405959413e-05  6.4544428530046176e-05 
 6.5388983816176506e-05  6.6244589996203882e-05  6.7111391669609141e-05  6.7989535327938176e-05 
 6.8879169379559304e-05  6.9780444174744714e-05  7.0693512031079803e-05  7.1618527259205552e-05 
 7.2555646188897136e-05  7.3505027195484087e-05  7.4466830726616147e-05  7.5441219329379269e-05 
 7.6428357677766468e-05  7.7428412600508086e-05  7.8441553109266304e-05  7.9467950427198467e-05 
 8.0507778017894311e-05  8.1561211614691401e-05  8.2628429250374959e-05  8.3709611287265497e-05 
 8.4804940447700533e-05  8.5914601844915204e-05  8.7038783014326720e-05  8.8177673945228461e-05 
 8.9331467112898263e-05  9.0500357511127694e-05  9.1684542685176092e-05  9.2884222765156379e-05 
 9.4099600499857394e-05  9.5330881291009066e-05  9.6578273227995617e-05  9.7841987123023323e-05 
 9.9122236546748258e-05  1.0041923786437006e-04  1.0173321027219856e-04  1.0306437583469782e-04 
 1.0441295952201636e-04  1.0577918924800707e-04  1.0716329590874537e-04  1.0856551342155127e-04 
 1.0998607876452184e-04  1.1142523201658124e-04  1.1288321639805412e-04  1.1436027831177130e-04 
 1.1585666738471167e-04  1.1737263651019015e-04  1.1890844189059705e-04  1.2046434308069708e-04 
 1.2204060303149453e-04  1.2363748813467275e-04  1.2525526826761492e-04  1.2689421683901396e-04 
 1.2855461083507942e-04  1.3023673086634831e-04  1.3194086121510960e-04  1.3366728988344829e-04 
 1.3541630864191838e-04  1.3718821307885285e-04  1.3898330265031886e-04  1.4080188073072660e-04 
 1.4264425466409980e-04  1.4451073581601840e-04  1.4640163962623939e-04  1.4831728566200731e-04 
 1.5025799767206158e-04  1.5222410364135099e-04  1.5421593584646391e-04  1.5623383091178369e-04 
 1.5827812986637924e-04  1.6034917820163946e-04  1.6244732592966241e-04  1.6457292764240772e-04 
 1.6672634257162408e-04  1.6890793464955988e-04  1.7111807257046865e-04  1.7335712985291958e-04 
 1.7562548490292223e-04  1.7792352107787908e-04  1.8025162675137333e-04  1.8261019537880487e-04 
 1.8499962556388537e-04  1.8742032112600311e-04  1.8987269116846971e-04  1.9235715014765911e-04 
 1.9487411794305213e-04  1.9742401992819676e-04  2.0000728704259749e-04  2.0262435586454515e-04 
 2.0527566868489946e-04  2.0796167358183768e-04  2.1068282449657991e-04  2.1343958131010758e-04 
 2.1623240992088352e-04  2.1906178232359032e-04  2.2192817668889787e-04  2.2483207744427639e-04 
 2.2777397535586496e-04  2.3075436761141286e-04  2.3377375790430496e-04  2.3683265651868685e-04 
 2.3993158041570511e-04  2.4307105332087395e-04  2.4625160581258679e-04  2.4947377541178448e-04 
 2.5273810667279843e-04  2.5604515127538132e-04  2.5939546811794192e-04  2.6278962341200088e-04 
 2.6622819077788110e-04  2.6971175134165161e-04  2.7324089383333889e-04  2.7681621468642395e-04 
 2.8043831813864020e-04  2.8410781633409231e-04  2.8782532942670886e-04  2.9159148568505067e-04 
 2.9540692159848937e-04  2.9927228198477511e-04  3.0318822009901326e-04  3.0715539774406548e-04 
 3.1117448538239611e-04  3.1524616224938156e-04  3.1937111646810360e-04  3.2355004516564285e-04 
 3.2778365459089554e-04  3.3207266023393099e-04  3.3641778694691094e-04  3.4081976906659173e-04 
 3.4527935053842889e-04  3.4979728504230535e-04  3.5437433611990531e-04  3.5901127730375462e-04 
 3.6370889224794986e-04  3.6846797486059739e-04  3.7328932943798591e-04  3.7817377080051401e-04 
 3.8312212443039764e-04  3.8813522661117764e-04  3.9321392456905446e-04  3.9835907661607052e-04 
 4.0357155229516780e-04  4.0885223252714237e-04  4.1420200975952182e-04  4.1962178811739162e-04 
 4.2511248355619368e-04  4.3067502401652547e-04  4.3631034958096425e-04  4.4201941263294326e-04 
 4.4780317801770608e-04  4.5366262320536873e-04  4.5959873845611399e-04  4.6561252698754785e-04 
 4.7170500514424560e-04  4.7787720256951610e-04  4.8413016237941486e-04  4.9046494133903236e-04 
 4.9688261004109027e-04  5.0338425308687367e-04  5.0997096926953193e-04  5.1664387175977700e-04 
 5.2340408829401196e-04  5.3025276136492113e-04  5.3719104841455363e-04  5.4422012202993476e-04 
 5.5134117014123563e-04  5.5855539622253587e-04  5.6586401949521329e-04  5.7326827513399657e-04 
 5.8076941447571153e-04  5.8836870523076010e-04  5.9606743169736745e-04  6.0386689497862961e-04 
 6.1176841320240464e-04  6.1977332174407897e-04  6.2788297345224878e-04  6.3609873887735403e-04 
 6.4442200650330600e-04  6.5285418298214378e-04  6.6139669337176167e-04  6.7005098137674771e-04 
 6.7881850959237229e-04  6.8770075975177177e-04  6.9669923297636363e-04  7.0581545002954037e-04 
 7.1505095157368092e-04  7.2440729843052773e-04  7.3388607184496878e-04  7.4348887375227154e-04 
 7.5321732704881417e-04  7.6307307586635776e-04  7.7305778584991071e-04  7.8317314443922433e-04 
 7.9342086115397655e-04  8.0380266788268183e-04  8.1432031917538729e-04  8.2497559254019468e-04 
 8.3577028874366299e-04  8.4670623211514353e-04  8.5778527085509379e-04  8.6900927734743063e-04 
 8.8038014847596530e-04  8.9189980594498277e-04  9.0357019660401217e-04  9.1539329277685248e-04 
 9.2737109259489635e-04  9.3950562033482169e-04  9.5179892676069847e-04  9.6425308947057080e-04 
 9.7687021324757923e-04  9.8965243041567222e-04  1.0026019011999746e-03  1.0157208140918685e-03 
 1.0290113862188579e-03  1.0424758637192649e-03  1.0561165221218338e-03  1.0699356667303013e-03 
 1.0839356330129963e-03  1.0981187869975419e-03  1.1124875256707193e-03  1.1270442773835632e-03 
 1.1417915022617589e-03  1.1567316926214112e-03  1.1718673733902500e-03  1.1872011025343490e-03 
 1.2027354714904306e-03  1.2184731056038203e-03  1.2344166645721409e-03  1.2505688428948052e-03 
 1.2669323703283937e-03  1.2835100123479892e-03  1.3003045706145508e-03  1.3173188834483956e-03 
 1.3345558263088897e-03  1.3520183122804018e-03  1.3697092925646238e-03  1.3876317569793298e-03 
 1.4057887344636631e-03  1.4241832935900339e-03  1.4428185430827157e-03  1.4616976323432271e-03 
 1.4808237519825852e-03  1.5002001343605322e-03  1.5198300541318073e-03  1.5397168287995735e-03 
 1.5598638192760820e-03  1.5802744304506747e-03  1.6009521117652194e-03  1.6219003577970733e-03 
 1.6431227088496763e-03  1.6646227515508649e-03  1.6864041194590280e-03  1.7084704936771852e-03 
 1.7308256034750987e-03  1.7534732269195317e-03  1.7764171915127501e-03  1.7996613748393791e-03 
 1.8232097052217238e-03  1.8470661623836684e-03  1.8712347781232501e-03  1.8957196369940546e-03 
 1.9205248769955073e-03  1.9456546902722070e-03  1.9711133238224090e-03  1.9969050802157778e-03 
 2.0230343183205300e-03  2.0495054540400960e-03  2.0763229610594176e-03  2.1034913716010063e-03 
 2.1310152771909082e-03  2.1588993294346780e-03  2.1871482408035115e-03  2.2157667854306655e-03 
 2.2447597999182959e-03  2.2741321841548584e-03  2.3038889021431974e-03  2.3340349828394795e-03 
 2.3645755210030882e-03  2.3955156780576647e-03  2.4268606829633927e-03  2.4586158331007042e-03 
 2.4907864951655531e-03  2.5233781060763983e-03  2.5563961738930543e-03  2.5898462787475682e-03 
 2.6237340737872775e-03  2.6580652861301957e-03  2.6928457178329221e-03  2.7280812468711956e-03 
 2.7637778281332879e-03  2.7999414944263929e-03  2.8365783574961878e-03  2.8736946090597306e-03 
 2.9112965218518754e-03  2.9493904506853832e-03  2.9879828335248890e-03  3.0270801925749487e-03 
 3.0666891353822970e-03  3.1068163559525418e-03  3.1474686358814665e-03  3.1886528455011345e-03 
 3.2303759450409949e-03  3.2726449858041739e-03  3.3154671113591687e-03  3.3588495587471121e-03 
 3.4027996597048721e-03  3.4473248419041136e-03  3.4924326302066028e-03  3.5381306479359258e-03 
 3.5844266181658431e-03  3.6313283650255112e-03  3.6788438150217829e-03  3.7269809983787997e-03 
 3.7757480503951154e-03  3.8251532128185930e-03  3.8752048352392720e-03  3.9259113765004686e-03 
 3.9772814061283428e-03  4.0293236057801661e-03  4.0820467707115482e-03  4.1354598112628453e-03 
 4.1895717543650440e-03  4.2443917450653134e-03  4.2999290480725616e-03  4.3561930493231813e-03 
 4.4131932575672975e-03  4.4709393059757692e-03  4.5294409537682189e-03  4.5887080878623627e-03 
 4.6487507245449242e-03  4.7095790111644151e-03  4.7712032278460423e-03  4.8336337892291008e-03 
 4.8968812462270549e-03  4.9609562878106727e-03  5.0258697428144858e-03  5.0916325817668903e-03 
 5.1582559187441932e-03  5.2257510132489105e-03  5.2941292721126647e-03  5.3634022514239422e-03 
 5.4335816584811254e-03  5.5046793537710421e-03  5.5767073529734154e-03  5.6496778289915443e-03 
 5.7236031140095534e-03  5.7984957015765580e-03  5.8743682487181099e-03  5.9512335780752658e-03 
 6.0291046800716227e-03  6.1079947151087633e-03  6.1879170157903771e-03  6.2688850891754987e-03 
 6.3509126190612461e-03  6.4340134682953996e-03  6.5182016811192690e-03  6.6034914855412005e-03 
 6.6898972957411410e-03  6.7774337145066589e-03  6.8661155357008768e-03  6.9559577467626470e-03 
 7.0469755312394730e-03  7.1391842713535610e-03  7.2325995506014578e-03  7.3272371563876922e-03 
 7.4231130826928901e-03  7.5202435327767969e-03  7.6186449219166428e-03  7.7183338801814052e-03 
 7.8193272552422987e-03  7.9216421152200848e-03  8.0252957515696156e-03  8.1303056820021431e-03 
 8.2366896534458427e-03  8.3444656450450926e-03  8.4536518711989996e-03  8.5642667846396407e-03 
 8.6763290795506681e-03  8.7898576947266441e-03  8.9048718167737389e-03  9.0213908833523242e-03 
 9.1394345864619798e-03  9.2590228757694869e-03  9.3801759619803679e-03  9.5029143202545602e-03 
 9.6272586936667209e-03  9.7532300967119179e-03  9.8808498188570921e-03  1.0010139428139029e-02 
 1.0141120774809423e-02  1.0273815995027608e-02  1.0408247514601629e-02  1.0544438052778255e-02 
 1.0682410626082590e-02  1.0822188552207896e-02  1.0963795453956380e-02  1.1107255263231476e-02 
 1.1252592225082403e-02  1.1399830901801623e-02  1.1548996177075950e-02  1.1700113260191932e-02 
 1.1853207690296286e-02  1.2008305340712093e-02  1.2165432423311397e-02  1.2324615492945145e-02 
 1.2485881451930981e-02  1.2649257554599799e-02  1.2814771411901798e-02  1.2982450996072807e-02 
 1.3152324645361643e-02  1.3324421068819347e-02  1.3498769351151104e-02  1.3675398957631573e-02 
 1.3854339739084653e-02  1.4035621936928307e-02  1.4219276188285439e-02  1.4405333531161645e-02 
 1.4593825409690704e-02  1.4784783679448719e-02  1.4978240612837776e-02  1.5174228904540076e-02 
 1.5372781677043364e-02  1.5573932486238781e-02  1.5777715327091837e-02  1.5984164639387659e-02 
 1.6193315313551396e-02  1.6405202696544781e-02  1.6619862597839853e-02  1.6837331295470839e-02 
 1.7057645542165253e-02  1.7280842571555124e-02  1.7506960104469664e-02  1.7736036355310115e-02 
 1.7968110038508098e-02  1.8203220375068430e-02  1.8441407099197577e-02  1.8682710465018820e-02 
 1.8927171253375306e-02  1.9174830778722132e-02  1.9425730896108492e-02  1.9679914008251420e-02 
 1.9937423072701833e-02  2.0198301609104536e-02  2.0462593706553085e-02  2.0730344031040997e-02 
 2.1001597833010380e-02  2.1276400954999372e-02  2.1554799839389675e-02  2.1836841536255321e-02 
 2.2122573711314389e-02  2.2412044653984536e-02  2.2705303285544043e-02  2.3002399167399625e-02 
 2.3303382509462432e-02  2.3608304178633643e-02  2.3917215707401088e-02  2.4230169302548392e-02 
 2.4547217853977957e-02  2.4868414943649594e-02  2.5193814854635944e-02  2.5523472580296441e-02 
 2.5857443833571345e-02  2.6195785056397341e-02  2.6538553429246364e-02  2.6885806880789259e-02 
 2.7237604097685855e-02  2.7594004534503065e-02  2.7955068423763007e-02  2.8320856786122336e-02 
 2.8691431440684895e-02  2.9066855015449308e-02  2.9447190957893266e-02  2.9832503545696262e-02 
 3.0222857897602737e-02  3.0618319984427253e-02  3.1018956640203675e-02  3.1424835573480407e-02 
 3.1836025378763205e-02  3.2252595548107839e-02  3.2674616482864398e-02  3.3102159505575310e-02 
 3.3535296872029004e-02  3.3974101783471322e-02  3.4418648398976730e-02  3.4869011847981239e-02 
 3.5325268242979692e-02  3.5787494692388754e-02  3.6255769313578531e-02  3.6730171246074542e-02 
 3.7210780664932497e-02  3.7697678794288085e-02  3.8190947921084031e-02  3.8690671408976827e-02 
 3.9196933712425247e-02  3.9709820390963560e-02  4.0229418123661161e-02  4.0755814723771565e-02 
 4.1289099153573067e-02  4.1829361539403580e-02  4.2376693186892168e-02  4.2931186596389975e-02 
 4.3492935478602994e-02  4.4062034770429248e-02  4.4638580651003609e-02  4.5222670557952128e-02 
 4.5814403203859273e-02  4.6413878592950583e-02  4.7021198037993622e-02  4.7636464177420082e-02 
 4.8259780992671919e-02  4.8891253825774507e-02  4.9530989397139534e-02  5.0179095823601208e-02 
 5.0835682636688181e-02  5.1500860801134592e-02  5.2174742733633421e-02  5.2857442321835181e-02 
 5.3549074943595149e-02  5.4249757486472566e-02  5.4959608367484918e-02  5.5678747553120508e-02 
 5.6407296579613388e-02  5.7145378573483042e-02  5.7893118272343135e-02  5.8650642045982485e-02 
 5.9418077917721801e-02  6.0195555586049998e-02  6.0983206446543474e-02  6.1781163614072397e-02 
 6.2589561945297204e-02  6.3408538061459963e-02  6.4238230371473581e-02  6.5078779095313163e-02 
 6.5930326287713656e-02  6.6793015862177313e-02  6.7666993615295531e-02  6.8552407251388725e-02 
 6.9449406407468758e-02  7.0358142678527955e-02  7.1278769643159018e-02  7.2211442889510133e-02 
 7.3156320041579931e-02  7.4113560785855750e-02  7.5083326898301814e-02  7.6065782271699273e-02 
 7.7061092943344567e-02  7.8069427123110158e-02  7.9090955221872331e-02  8.0125849880311129e-02 
 8.1174285998086973e-02  8.2236440763399157e-02  8.3312493682931019e-02  8.4402626612187101e-02 
 8.5507023786227071e-02  8.6625871850801880e-02  8.7759359893897437e-02  8.8907679477690835e-02 
 9.0071024670924843e-02  9.1249592081705980e-02  9.2443580890731944e-02  9.3653192884952954e-02 
 9.4878632491675177e-02  9.6120106813108813e-02  9.7377825661369030e-02  9.8652001593934655e-02 
 9.9942849949570964e-02  1.0125058888472238e-01  1.0257543941038154e-01  1.0391762542944052e-01 
 1.0527737377453107e-01  1.0665491424635984e-01  1.0805047965254527e-01  1.0946430584696257e-01 
 1.1089663176960365e-01  1.1234769948695851e-01  1.1381775423292505e-01  1.1530704445025422e-01 
 1.1681582183253759e-01  1.1834434136674345e-01  1.1989286137631125e-01  1.2146164356480825e-01 
 1.2305095306015819e-01  1.2466105845944844e-01  1.2629223187432373e-01  1.2794474897697350e-01 
 1.2961888904672125e-01  1.3131493501722341e-01  1.3303317352428573e-01  1.3477389495430547e-01 
 1.3653739349334740e-01  1.3832396717686191e-01  1.4013391794005373e-01  1.4196755166890970e-01 
 1.4382517825189420e-01  1.4570711163232114e-01  1.4761366986141122e-01  1.4954517515204244e-01 
 1.5150195393320631e-01  1.5348433690517424e-01  1.5549265909538668e-01  1.5752725991507383e-01 
 1.5958848321661673e-01  1.6167667735165928e-01  1.6379219522998037e-01  1.6593539437913662e-01 
 1.6810663700488523e-01  1.7030629005239770e-01  1.7253472526827451e-01  1.7479231926337099e-01 
 1.7707945357644558e-01  1.7939651473864082e-01  1.8174389433880797e-01  1.8412198908968644e-01 
 1.8653120089494954e-01  1.8897193691712583e-01  1.9144460964641263e-01  1.9394963697038636e-01 
 1.9648744224462700e-01  1.9905845436426609e-01  2.0166310783647109e-01  2.0430184285387820e-01 
 2.0697510536898575e-01  2.0968334716952144e-01  2.1242702595479543e-01  2.1520660541305262e-01 
 2.1802255529983719e-01  2.2087535151738219e-01  2.2376547619503837e-01  2.2669341777075494e-01 
 2.2965967107362703e-01  2.3266473740752283e-01  2.3570912463580546e-01  2.3879334726716170e-01 
 2.4191792654255734e-01  2.4508339052332673e-01  2.4829027418041674e-01  2.5153911948479812e-01 
 2.5483047549905985e-01  2.5816489847020213e-01  2.6154295192364330e-01  2.6496520675845708e-01 
 2.6843224134385590e-01  2.7194464161693649e-01  2.7550300118170490e-01  2.7910792140939683e-01 
 2.8276001154011077e-01  2.8645988878577122e-01  2.9020817843443869e-01  2.9400551395598518e-01 
 2.9785253710915222e-01  3.0174989805000813e-01  3.0569825544182833e-01  3.0969827656640969e-01 
 3.1375063743684262e-01  3.1785602291175924e-01  3.2201512681107602e-01  3.2622865203325108e-01 
 3.3049731067407551e-01  3.3482182414701933e-01  3.3920292330515239e-01  3.4364134856465983e-01 
 3.4813785002997427e-01  3.5269318762054563e-01  3.5730813119926869e-01  3.6198346070259241e-01 
 3.6671996627233050e-01  3.7151844838919756e-01  3.7637971800809294e-01  3.8130459669515115e-01 
 3.8629391676659275e-01  3.9134852142938470e-01  3.9646926492374562e-01  4.0165701266751375e-01 
 4.0691264140240541e-01  4.1223703934218536e-01  4.1763110632277822e-01  4.2309575395434218e-01 
 4.2863190577533306e-01  4.3424049740858550e-01  4.3992247671943435e-01  4.4567880397590687e-01 
 4.5151045201100998e-01  4.5741840638714149e-01  4.6340366556265244e-01  4.6946724106058907e-01 
 4.7561015763964321e-01  4.8183345346733586e-01  4.8813818029547462e-01  4.9452540363789943e-01 
 5.0099620295055747e-01  5.0755167181393346e-01  5.1419291811786816e-01  5.2092106424879359e-01 
 5.2773724727941962e-01  5.3464261916090150e-01  5.4163834691752288e-01  5.4872561284392485e-01 
 5.5590561470491762e-01  5.6317956593790452e-01  5.7054869585795687e-01  5.7801424986557026e-01 
 5.8557748965714085e-01  5.9323969343819449e-01  6.0100215613940811e-01  6.0886618963545147e-01 
 6.1683312296670378e-01  6.2490430256385987e-01  6.3308109247548194e-01  6.4136487459852665e-01 
 6.4975704891188890e-01  6.5825903371300198e-01  6.6687226585753268e-01  6.7559820100221379e-01 
 6.8443831385085330e-01  6.9339409840356314e-01  7.0246706820924809e-01  7.1165875662140010e-01 
 7.2097071705723781e-01  7.3040452326023819e-01  7.3996176956610293e-01  7.4964407117220500e-01 
 7.5945306441056193e-01  7.6939040702437467e-01  7.7945777844819808e-01  7.8965688009176416e-01 
 7.9998943562752556e-01  8.1045719128196025e-01  8.2106191613068802e-01  8.3180540239744882e-01 
 8.4268946575699211e-01  8.5371594564193054e-01  8.6488670555360936e-01  8.7620363337704044e-01 
 8.8766864169996185e-01  8.9928366813606764e-01  9.1105067565247055e-01  9.2297165290144767e-01 
 9.3504861455652677e-01  9.4728360165297221e-01  9.5967868193272521e-01  9.7223595019385123e-01 
 9.8495752864457586e-01  9.9784556726193541e-01  1.0109022441551312e+00  1.0241297659336346e+00 
 1.0375303680801085e+00  1.0511063153282103e+00  1.0648599020453378e+00  1.0787934526203804e+00 
 1.0929093218565484e+00  1.1072098953693401e+00  1.1216975899897159e+00  1.1363748541725489e+00 
 1.1512441684104191e+00  1.1663080456528232e+00  1.1815690317308685e+00  1.1970297057875248e+00 
 1.2126926807135081e+00  1.2285606035888557e+00  1.2446361561303028e+00  1.2609220551444902e+00 
 1.2774210529871137e+00  1.2941359380280777e+00  1.3110695351227373e+00  1.3282247060893049e+00 
 1.3456043501925048e+00  1.3632114046335557e+00  1.3810488450465648e+00  1.3991196860014166e+00 
 1.4174269815132428e+00  1.4359738255585581e+00  1.4547633525981494e+00  1.4737987381068074e+00 
 1.4930831991099889e+00  1.5126199947275025e+00  1.5324124267243098e+00  1.5524638400685205e+00 
 1.5727776234967168e+00  1.5933572100866471e+00  1.6142060778374261e+00  1.6353277502573267e+00 
 1.6567257969592588e+00  1.6784038342640444e+00  1.7003655258115844e+00  1.7226145831800210e+00 
 1.7451547665130043e+00  1.7679898851551656e+00  1.7911237982959050e+00  1.8145604156216044e+00 
 1.8383036979763729e+00  1.8623576580314403e+00  1.8867263609633065e+00  1.9114139251407665e+00 
 1.9364245228209287e+00  1.9617623808543223e+00  1.9874317813992644e+00  2.0134370626455427e+00 
 2.0397826195475832e+00  2.0664729045672070e+00  2.0935124284261084e+00  2.1209057608681756e+00 
 2.1486575314317906e+00  2.1767724302322304e+00  2.2052552087543082e+00  2.2341106806553865e+00 
 2.2633437225788948e+00  2.2929592749784962e+00  2.3229623429530339e+00  2.3533579970924059e+00 
 2.3841513743345057e+00  2.4153476788333794e+00  2.4469521828387411e+00  2.4789702275869812e+00 
 2.5114072242038725e+00  2.5442686546190463e+00  2.5775600724924566e+00  2.6112871041529599e+00 
 2.6454554495491815e+00  2.6800708832128164e+00  2.7151392552345426e+00  2.7506664922526971e+00 
 2.7866585984548951e+00  2.8231216565927491e+00  2.8600618290098692e+00  2.8974853586833165e+00 
 2.9353985702786765e+00  2.9738078712189462e+00  3.0127197527674019e+00  3.0521407911246401e+00 
 3.0920776485399739e+00  3.1325370744373502e+00  3.1735259065560473e+00  3.2150510721062506e+00 
 3.2571195889397728e+00  3.2997385667360861e+00  3.3429152082038738e+00  3.3866568102983101e+00 
 3.4309707654542572e+00  3.4758645628356089e+00  3.5213457896009732e+00  3.5674221321859241e+00 
 3.6141013776020245e+00  3.6613914147528499e+00  3.7093002357672344e+00  3.7578359373499572e+00 
 3.8070067221501054e+00  3.8568209001473415e+00  3.9072868900563158e+00  3.9584132207494229e+00 
 4.0102085326982442e+00  4.0626815794337743e+00  4.1158412290258051e+00  4.1696964655816418e+00 
 4.2242563907644426e+00  4.2795302253314205e+00  4.3355273106921759e+00  4.3922571104874129e+00 
 4.4497292121883190e+00  4.5079533287168703e+00  4.5669393000873404e+00  4.6266970950692823e+00 
 4.6872368128722783e+00  4.7485686848527262e+00  4.8107030762429668e+00  4.8736504879030313e+00 
 4.9374215580953198e+00  5.0020270642824594e+00  5.0674779249487703e+00  5.1337852014454848e+00 
 5.2009600998601497e+00  5.2690139729104786e+00  5.3379583218629936e+00  5.4078047984767599e+00 
 5.4785652069725668e+00  5.5502515060278679e+00  5.6228758107978232e+00  5.6964503949627918e+00 
 5.7709876928026116e+00  5.8465003012980237e+00  5.9230009822595919e+00  6.0005026644844781e+00 
 6.0790184459414380e+00  6.1585615959844144e+00  6.2391455575950951e+00  6.3207839496547686e+00 
 6.4034905692460118e+00  6.4872793939843838e+00  6.5721645843806922e+00  6.6581604862341477e+00 
 6.7452816330568437e+00  6.8335427485299487e+00  6.9229587489920483e+00  7.0135447459600391e+00 
 7.1053160486830125e+00  7.1982881667295509e+00  7.2924768126088910e+00  7.3878979044263620e+00 
 7.4845675685735920e+00  7.5825021424539063e+00  7.6817181772433827e+00  7.7822324406880474e+00 
 7.8840619199376665e+00  7.9872238244165725e+00  8.0917355887321705e+00  8.1976148756213778e+00 
 8.3048795789356813e+00  8.4135478266652406e+00  8.5236379840025656e+00  8.6351686564462700e+00 
 8.7481586929454505e+00  8.8626271890852006e+00  8.9785934903138180e+00  9.0960771952122190e+00 
 9.2150981588061569e+00  9.3356764959217546e+00  9.4578325845849776e+00  9.5815870694655523e+00 
 9.7069608653659696e+00  9.8339751607561414e+00  9.9626514213543107e+00  1.0093011393754745e+01 
 1.0225077109103067e+01  1.0358870886819501e+01  1.0494415338370922e+01  1.0631733371092251e+01 
 1.0770848192057848e+01  1.0911783312003566e+01  1.1054562549300108e+01  1.1199210033978414e+01 
 1.1345750211807664e+01  1.1494207848426692e+01  1.1644608033529432e+01  1.1796976185105132e+01 
 1.1951338053734059e+01  1.2107719726939408e+01  1.2266147633596153e+01  1.2426648548397596e+01 
 1.2589249596380364e+01  1.2753978257508530e+01  1.2920862371317918e+01  1.3089930141620963e+01 
 1.3261210141273237e+01  1.3434731317002351e+01  1.3610522994300002e+01  1.3788614882378049e+01 
 1.3969037079189455e+01  1.4151820076514904e+01  1.4336994765115982e+01  1.4524592439955802e+01 
 1.4714644805487907e+01  1.4907183981014422e+01  1.5102242506114267e+01  1.5299853346142443e+01 
 1.5500049897801246e+01  1.5702865994784425e+01  1.5908335913495037e+01  1.6116494378838404e+01 
 1.6327376570090614e+01  1.6541018126843905e+01  1.6757455155029856e+01  1.6976724233021368e+01 
 1.7198862417814507e+01  1.7423907251291219e+01  1.7651896766563976e+01  1.7882869494403508e+01 
 1.8116864469750553e+01  1.8353921238312878e+01  1.8594079863248584e+01  1.8837380931936888e+01 
 1.9083865562837477e+01  1.9333575412439632e+01  1.9586552682302273e+01  1.9842840126186147e+01 
 2.0102481057279189e+01  2.0365519355516760e+01  2.0631999474997322e+01  2.0901966451495312e+01 
 2.1175465910072308e+01  2.1452544072787763e+01  2.1733247766510647e+01  2.2017624430833308e+01 
 2.2305722126088853e+01  2.2597589541473479e+01  2.2893276003275073e+01  2.3192831483209424e+01 
 2.3496306606865623e+01  2.3803752662261864e+01  2.4115221608513263e+01  2.4430766084613062e+01 
 2.4750439418328746e+01  2.5074295635214611e+01  2.5402389467742037e+01  2.5734776364549649e+01 
 2.6071512499814130e+01  2.6412654782743797e+01  2.6758260867196430e+01  2.7108389161422863e+01 
 2.7463098837938166e+01  2.7822449843521913e+01  2.8186502909349343e+01  2.8555319561255047e+01 
 2.8928962130131030e+01  2.9307493762460734e+01  2.9690978430990963e+01  3.0079480945543434e+01 
 3.0473066963967771e+01  3.0871803003237869e+01  3.1275756450693393e+01  3.1684995575428466e+01 
 3.2099589539829083e+01  3.2519608411262062e+01  3.2945123173916357e+01  3.3376205740799627e+01 
 3.3812928965891686e+01  3.4255366656457021e+01  3.4703593585518384e+01  3.5157685504493614e+01 
 3.5617719155997797e+01  3.6083772286812959e+01  3.6555923661027457e+01  3.7034253073347308e+01 
 3.7518841362581661e+01  3.8009770425304758e+01  3.8507123229696667e+01  3.9010983829565070e+01 
 3.9521437378550580e+01  4.0038570144517990e+01  4.0562469524135416e+01  4.1093224057645024e+01 
 4.1630923443826227e+01  4.2175658555155053e+01  4.2727521453161856e+01  4.3286605403989881e+01 
 4.3853004894157479e+01  4.4426815646526585e+01  4.5008134636480072e+01  4.5597060108310842e+01 
 4.6193691591825335e+01  4.6798129919164296e+01  4.7410477241843672e+01  4.8030837048018441e+01 
 4.8659314179972370e+01  4.9296014851836581e+01  4.9941046667540043e+01  5.0594518638994927e+01 
 5.1256541204519557e+01  5.1927226247503292e+01  5.2606687115314656e+01  5.3295038638457534e+01 
 5.3992397149977648e+01  5.4698880505123235e+01  5.5414608101262822e+01  5.6139700898063644e+01 
 5.6874281437934165e+01  5.7618473866733979e+01  5.8372403954754816e+01  5.9136199117975977e+01 
 5.9909988439597946e+01  6.0693902691857787e+01  6.1488074358129900e+01  6.2292637655316106e+01 
 6.3107728556528564e+01  6.3933484814069686e+01  6.4770045982712148e+01  6.5617553443284692e+01 
 6.6476150426565241e+01  6.7345982037487559e+01  6.8227195279664173e+01  6.9119939080230367e+01 
 7.0024364315013258e+01  7.0940623834030163e+01  7.1868872487320559e+01  7.2809267151116174e+01 
 7.3761966754353423e+01  7.4727132305532791e+01  7.5704926919929591e+01  7.6695515847160905e+01 
 7.7699066499113144e+01  7.8715748478235014e+01  7.9745733606200815e+01  8.0789195952948759e+01 
 8.1846311866098716e+01  8.2917260000756201e+01  8.4002221349704882e+01  8.5101379273995093e+01 
 8.6214919533932118e+01  8.7343030320470234e+01  8.8485902287017382e+01  8.9643728581656021e+01 
 9.0816704879785718e+01  9.2005029417192631e+01  9.3208903023551926e+01  9.4428529156368413e+01 
 9.5664113935361357e+01  9.6915866177299222e+01  9.8183997431290180e+01  9.9468722014534436e+01 
 1.0077025704854435e+02  1.0208882249583860e+02  1.0342464119711575e+02  1.0477793890891584e+02 
 1.0614894434177319e+02  1.0753788919886904e+02  1.0894500821519007e+02  1.1037053919719916e+02 
 1.1181472306302510e+02  1.1327780388317858e+02  1.1476002892180043e+02  1.1626164867845004e+02 
 1.1778291693044028e+02 
  </PP_R>
  <PP_RAB>
 3.0045655221860832e-07  3.0438798635177436e-07  3.0837086277910673e-07  3.1240585461620125e-07 
 3.1649364378628197e-07  3.2063492113544845e-07  3.2483038654942861e-07  3.2908074907186344e-07 
 3.3338672702413534e-07  3.3774904812676701e-07  3.4216844962240747e-07  3.4664567840042820e-07 
 3.5118149112314886e-07  3.5577665435371520e-07  3.6043194468565058e-07  3.6514814887410032e-07 
 3.6992606396879774e-07  3.7476649744876574e-07  3.7967026735878301e-07  3.8463820244763587e-07 
 3.8967114230817863e-07  3.9476993751922640e-07  3.9993544978930562e-07  4.0516855210228464e-07 
 4.1047012886490893e-07  4.1584107605626997e-07  4.2128230137922650e-07  4.2679472441380880e-07 
 4.3237927677262976e-07  4.3803690225832976e-07  4.4376855702308166e-07  4.4957520973018255e-07 
 4.5545784171776072e-07  4.6141744716462251e-07  4.6745503325827328e-07  4.7357162036513295e-07 
 4.7976824220298069e-07  4.8604594601565529e-07  4.9240579275004310e-07  4.9884885723537900e-07 
 5.0537622836489620e-07  5.1198900927985204e-07  5.1868831755595895e-07  5.2547528539226118e-07 
 5.3235105980247679e-07  5.3931680280884588e-07  5.4637369163851592e-07  5.5352291892249511e-07 
 5.6076569289721028e-07  5.6810323760870234e-07  5.7553679311949019e-07  5.8306761571814854e-07 
 5.9069697813162073e-07  5.9842616974031296e-07  6.0625649679600353e-07  6.1418928264260172e-07 
 6.2222586793979647e-07  6.3036761088963083e-07  6.3861588746604139e-07  6.4697209164740178e-07 
 6.5543763565210626e-07  6.6401395017724091e-07  6.7270248464037305e-07  6.8150470742450632e-07 
 6.9042210612624139e-07  6.9945618780718336e-07  7.0860847924863787e-07  7.1788052720964312e-07 
 7.2727389868837106e-07  7.3679018118695948e-07  7.4643098297980061e-07  7.5619793338534332e-07 
 7.6609268304145209e-07  7.7611690418436973e-07  7.8627229093132793e-07  7.9656055956685753e-07 
 8.0698344883284520e-07  8.1754272022238413e-07  8.2824015827747238e-07  8.3907757089060029e-07 
 8.5005678961029452e-07  8.6117966995065044e-07  8.7244809170491878e-07  8.8386395926319626e-07 
 8.9542920193427086e-07  9.0714577427168125e-07  9.1901565640403741e-07  9.3104085436967210e-07 
 9.4322340045566275e-07  9.5556535354129302e-07  9.6806879944600996e-07  9.8073585128193038e-07 
 9.9356864981096395e-07  1.0065693638066051e-06  1.0197401904204619e-06  1.0330833555535801e-06 
 1.0466011142326260e-06  1.0602957509909882e-06  1.0741695802548743e-06  1.0882249467344513e-06 
 1.1024642258201068e-06  1.1168898239838977e-06  1.1315041791862472e-06  1.1463097612879699e-06 
 1.1613090724676775e-06  1.1765046476446599e-06  1.1918990549072891e-06  1.2074948959470329e-06 
 1.2232948064981460e-06  1.2393014567831179e-06  1.2555175519639429e-06  1.2719458325993032e-06 
 1.2885890751077272e-06  1.3054500922368108e-06  1.3225317335385813e-06  1.3398368858510717e-06 
 1.3573684737862126e-06  1.3751294602240918e-06  1.3931228468136898e-06  1.4113516744801664e-06 
 1.4298190239387839e-06  1.4485280162155561e-06  1.4674818131747034e-06  1.4866836180530268e-06 
 1.5061366760012516e-06  1.5258442746324718e-06  1.5458097445777617e-06  1.5660364600490619e-06 
 1.5865278394094289e-06  1.6072873457507456e-06  1.6283184874789939e-06  1.6496248189071813e-06 
 1.6712099408560323e-06  1.6930775012625279e-06  1.7152311957964247e-06  1.7376747684848277e-06 
 1.7604120123449390e-06  1.7834467700250870e-06  1.8067829344541451e-06  1.8304244494994457e-06 
 1.8543753106332973e-06  1.8786395656082391e-06  1.9032213151411121e-06  1.9281247136060948e-06 
 1.9533539697368005e-06  1.9789133473375630e-06  2.0048071660040308e-06  2.0310398018531879e-06 
 2.0576156882629302e-06  2.0845393166213131e-06  2.1118152370856113e-06  2.1394480593513003e-06 
 2.1674424534311130e-06  2.1958031504442785e-06  2.2245349434160925e-06  2.2536426880879544e-06 
 2.2831313037379888e-06  2.3130057740124282e-06  2.3432711477678533e-06  2.3739325399244630e-06 
 2.4049951323305097e-06  2.4364641746380404e-06  2.4683449851901061e-06  2.5006429519195681e-06 
 2.5333635332596774e-06  2.5665122590665577e-06  2.6000947315537672e-06  2.6341166262390868e-06 
 2.6685836929036930e-06  2.7035017565638898e-06  2.7388767184555387e-06  2.7747145570313983e-06 
 2.8110213289714855e-06  2.8478031702066739e-06  2.8850662969556720e-06  2.9228170067755928e-06 
 2.9610616796262444e-06  2.9998067789483672e-06  3.0390588527559643e-06  3.0788245347429291e-06 
 3.1191105454041664e-06  3.1599236931713614e-06  3.2012708755636281e-06  3.2431590803531983e-06 
 3.2855953867463795e-06  3.3285869665799568e-06  3.3721410855332447e-06  3.4162651043560112e-06 
 3.4609664801124541e-06  3.5062527674414707e-06  3.5521316198334053e-06  3.5986107909235112e-06 
 3.6456981358023225e-06  3.6934016123432000e-06  3.7417292825472149e-06  3.7906893139056587e-06 
 3.8402899807803621e-06  3.8905396658020763e-06  3.9414468612871718e-06  3.9930201706728506e-06 
 4.0452683099711497e-06  4.0982001092419603e-06  4.1518245140853466e-06  4.2061505871533571e-06 
 4.2611875096816416e-06  4.3169445830411029e-06  4.3734312303098425e-06  4.4306569978656926e-06 
 4.4886315569995753e-06  4.5473647055499692e-06  4.6068663695587692e-06  4.6671466049488097e-06 
 4.7282155992233476e-06  4.7900836731877657e-06  4.8527612826938169e-06  4.9162590204066815e-06 
 4.9805876175951691e-06  5.0457579459453094e-06  5.1117810193977080e-06  5.1786679960089163e-06 
 5.2464301798371809e-06  5.3150790228528509e-06  5.3846261268737833e-06  5.4550832455260911e-06 
 5.5264622862305176e-06  5.5987753122148312e-06  5.6720345445525349e-06  5.7462523642282618e-06 
 5.8214413142301791e-06  5.8976141016697933e-06  5.9747835999294817e-06  6.0529628508381222e-06 
 6.1321650668751922e-06  6.2124036334037094e-06  6.2936921109323926e-06  6.3760442374074202e-06 
 6.4594739305341735e-06  6.5439952901293572e-06  6.6296226005039150e-06  6.7163703328771011e-06 
 6.8042531478221554e-06  6.8932858977439741e-06  6.9834836293891972e-06  7.0748615863891515e-06 
 7.1674352118360631e-06  7.2612201508929663e-06  7.3562322534377729e-06  7.4524875767419552e-06 
 7.5500023881842495e-06  7.6487931679998807e-06  7.7488766120657763e-06  7.8502696347221843e-06 
 7.9529893716312602e-06  8.0570531826730271e-06  8.1624786548792338e-06  8.2692836054056020e-06 
 8.3774860845429775e-06  8.4871043787678684e-06  8.5981570138329010e-06  8.7106627578977192e-06 
 8.8246406247008386e-06  8.9401098767730319e-06  9.0570900286927272e-06  9.1756008503840238e-06 
 9.2956623704578512e-06  9.4172948795968603e-06  9.5405189339845931e-06  9.6653553587795302e-06 
 9.7918252516345846e-06  9.9199499862626500e-06  1.0049751216048839e-05  1.0181250877709916e-05 
 1.0314471195001694e-05  1.0449434682474864e-05  1.0586164149280035e-05  1.0724682703022530e-05 
 1.0865013753667618e-05  1.1007181017496865e-05  1.1151208521116219e-05  1.1297120605516597e-05 
 1.1444941930187549e-05  1.1594697477284776e-05  1.1746412555852157e-05  1.1900112806099082e-05 
 1.2055824203733651e-05  1.2213573064352682e-05  1.2373386047889079e-05  1.2535290163117420e-05 
 1.2699312772218530e-05  1.2865481595403738e-05  1.3033824715599669e-05  1.3204370583194290e-05 
 1.3377148020845153e-05  1.3552186228350444e-05  1.3729514787583839e-05  1.3909163667493917e-05 
 1.4091163229168950e-05  1.4275544230968044e-05  1.4462337833719351e-05  1.4651575605986321e-05 
 1.4843289529402865e-05  1.5037512004078346e-05  1.5234275854073249e-05  1.5433614332946536e-05 
 1.5635561129375599e-05  1.5840150372849664e-05  1.6047416639437832e-05  1.6257394957632467e-05 
 1.6470120814269118e-05  1.6685630160523860e-05  1.6903959417989161e-05  1.7125145484829143e-05 
 1.7349225742015564e-05  1.7576238059645221e-05  1.7806220803340108e-05  1.8039212840731288e-05 
 1.8275253548027619e-05  1.8514382816670439e-05  1.8756641060075305e-05  1.9002069220461952e-05 
 1.9250708775773607e-05  1.9502601746686917e-05  1.9757790703713494e-05  2.0016318774394454e-05 
 2.0278229650589064e-05  2.0543567595858768e-05  2.0812377452947851e-05  2.1084704651361952e-05 
 2.1360595215045792e-05  2.1640095770161244e-05  2.1923253552967362e-05  2.2210116417803406e-05 
 2.2500732845176282e-05  2.2795151949953912e-05  2.3093423489665750e-05  2.3395597872911927e-05 
 2.3701726167882409e-05  2.4011860110987689e-05  2.4326052115602250e-05  2.4644355280922710e-05 
 2.4966823400941595e-05  2.5293510973538688e-05  2.5624473209691315e-05  2.5959766042805110e-05 
 2.6299446138166890e-05  2.6643570902521247e-05  2.6992198493772429e-05  2.7345387830813081e-05 
 2.7703198603481807e-05  2.8065691282650812e-05  2.8432927130445650e-05  2.8804968210598651e-05 
 2.9181877398937847e-05  2.9563718394013156e-05  2.9950555727861566e-05  3.0342454776913233e-05 
 3.0739481773040148e-05  3.1141703814749637e-05  3.1549188878524108e-05  3.1962005830309153e-05 
 3.2380224437152191e-05  3.2803915378993177e-05  3.3233150260609705e-05  3.3668001623718389e-05 
 3.4108542959234606e-05  3.4554848719692543e-05  3.5006994331827985e-05  3.5465056209325545e-05 
 3.5929111765732738e-05  3.6399239427543108e-05  3.6875518647450442e-05  3.7358029917776498e-05 
 3.7846854784074377e-05  3.8342075858909981e-05  3.8843776835823554e-05  3.9352042503474331e-05 
 3.9866958759969861e-05  4.0388612627383041e-05  4.0917092266459062e-05  4.1452486991514750e-05 
 4.1994887285532934e-05  4.2544384815454260e-05  4.3101072447669194e-05  4.3665044263712456e-05 
 4.4236395576163332e-05  4.4815222944753476e-05  4.5401624192685835e-05  4.5995698423167034e-05 
 4.6597546036155955e-05  4.7207268745331643e-05  4.7824969595283174e-05  4.8450752978924396e-05 
 4.9084724655136495e-05  4.9726991766641710e-05  5.0377662858110532e-05  5.1036847894506089e-05 
 5.1704658279668451e-05  5.2381206875142158e-05  5.3066608019250124e-05  5.3760977546416983e-05 
 5.4464432806745567e-05  5.5177092685849071e-05  5.5899077624943299e-05  5.6630509641201357e-05 
 5.7371512348374864e-05  5.8122210977684999e-05  5.8882732398986845e-05  5.9653205142210713e-05 
 6.0433759419084010e-05  6.1224527145137392e-05  6.2025641961998551e-05  6.2837239259978307e-05 
 6.3659456200951711e-05  6.4492431741538738e-05  6.5336306656588319e-05  6.6191223562969573e-05 
 6.7057326943674504e-05  6.7934763172235833e-05  6.8823680537464640e-05  6.9724229268511252e-05 
 7.0636561560254629e-05  7.1560831599023543e-05  7.2497195588654397e-05  7.3445811776890079e-05 
 7.4406840482124184e-05  7.5380444120495249e-05  7.6366787233335425e-05  7.7366036514978450e-05 
 7.8378360840931097e-05  7.9403931296413913e-05  8.0442921205274904e-05  8.1495506159281485e-05 
 8.2561864047796200e-05  8.3642175087840192e-05  8.4736621854550489e-05  8.5845389312035601e-05 
 8.6968664844634829e-05  8.8106638288586563e-05  8.9259501964111397e-05  9.0427450707914411e-05 
 9.1610681906113145e-05  9.2809395527596283e-05  9.4023794157818951e-05  9.5254083033039991e-05 
 9.6500470075007566e-05  9.7763165926098361e-05  9.9042383984916351e-05  1.0033834044235826e-04 
 1.0165125431814988e-04  1.0298134749786110e-04  1.0432884477040500e-04  1.0569397386602785e-04 
 1.0707696549479595e-04  1.0847805338558619e-04  1.0989747432558699e-04  1.1133546820031533e-04 
 1.1279227803415868e-04  1.1426815003144637e-04  1.1576333361805860e-04  1.1727808148358022e-04 
 1.1881264962400573e-04  1.2036729738500332e-04  1.2194228750574478e-04  1.2353788616330927e-04 
 1.2515436301766737e-04  1.2679199125725492e-04  1.2845104764514219e-04  1.3013181256580738e-04 
 1.3183457007252250e-04  1.3355960793535890e-04  1.3530721768982118e-04  1.3707769468611732e-04 
 1.3887133813907367e-04  1.4068845117870264e-04  1.4252934090143294e-04  1.4439431842200919e-04 
 1.4628369892607124e-04  1.4819780172342108e-04  1.5013695030198734e-04  1.5210147238249510e-04 
 1.5409169997385172e-04  1.5610796942925719e-04  1.5815062150304816e-04  1.6022000140828688e-04 
 1.6231645887510276e-04  1.6444034820979739e-04  1.6659202835472337e-04  1.6877186294894647e-04 
 1.7098022038970135e-04  1.7321747389465150e-04  1.7548400156496433e-04  1.7778018644921045e-04 
 1.8010641660810048e-04  1.8246308518006800e-04  1.8485059044771068e-04  1.8726933590510137e-04 
 1.8971973032597914e-04  1.9220218783283334e-04  1.9471712796689108e-04  1.9726497575902097e-04 
 1.9984616180156374e-04  2.0246112232110414e-04  2.0511029925219387e-04  2.0779414031203957e-04 
 2.1051309907616815e-04  2.1326763505508215e-04  2.1605821377191809e-04  2.1888530684112091e-04 
 2.2174939204814829e-04  2.2465095343021660e-04  2.2759048135810562e-04  2.3056847261903148e-04 
 2.3358543050060526e-04  2.3664186487588957e-04  2.3973829228956850e-04  2.4287523604524466e-04 
 2.4605322629387896e-04  2.4927280012338772e-04  2.5253450164941038e-04  2.5583888210726845e-04 
 2.5918649994512383e-04  2.6257792091835894e-04  2.6601371818519009e-04  2.6949447240353296e-04 
 2.7302077182913490e-04  2.7659321241499185e-04  2.8021239791206577e-04  2.8387893997131915e-04 
 2.8759345824708703e-04  2.9135658050179897e-04  2.9516894271207253e-04  2.9903118917619511e-04 
 3.0294397262301161e-04  3.0690795432223732e-04  3.1092380419621413e-04  3.1499220093312907e-04 
 3.1911383210171343e-04  3.2328939426744469e-04  3.2751959311026725e-04  3.3180514354385374e-04 
 3.3614676983642746e-04  3.4054520573316541e-04  3.4500119458020270e-04  3.4951548945026033e-04 
 3.5408885326991611e-04  3.5872205894853986e-04  3.6341588950891907e-04  3.6817113821959032e-04 
 3.7298860872890359e-04  3.7786911520084097e-04  3.8281348245261244e-04  3.8782254609405140e-04 
 3.9289715266883554e-04  3.9803815979755428e-04  4.0324643632264778e-04  4.0852286245524527e-04 
 4.1386832992392164e-04  4.1928374212540188e-04  4.2477001427723715e-04  4.3032807357247900e-04 
 4.3595885933637703e-04  4.4166332318512717e-04  4.4744242918669746e-04  4.5329715402375606e-04 
 4.5922848715873599e-04  4.6523743100105377e-04  4.7132500107652090e-04  4.7749222619896899e-04 
 4.8374014864412243e-04  4.9006982432574513e-04  4.9648232297409237e-04  5.0297872831669879e-04 
 5.0956013826152814e-04  5.1622766508252623e-04  5.2298243560759509e-04  5.2982559140903030e-04 
 5.3675828899644984e-04  5.4378170001224654e-04  5.5089701142959822e-04  5.5810542575306966e-04 
 5.6540816122183893e-04  5.7280645201558016e-04  5.8030154846304687e-04  5.8789471725337761e-04 
 5.9558724165017054e-04  6.0338042170835751e-04  6.1127557449391706e-04  6.1927403430646105e-04 
 6.2737715290473492e-04  6.3558629973506852e-04  6.4390286216281392e-04  6.5232824570681566e-04 
 6.6086387427694634e-04  6.6951119041474964e-04  6.7827165553723445e-04  6.8714675018385733e-04 
 6.9613797426673694e-04  7.0524684732414333e-04  7.1447490877730394e-04  7.2382371819056655e-04 
 7.3329485553497403e-04  7.4288992145527953e-04  7.5261053754046073e-04  7.6245834659777222e-04 
 7.7243501293038335e-04  7.8254222261864997e-04  7.9278168380506509e-04  8.0315512698294115e-04 
 8.1366430528886360e-04  8.2431099479897949e-04  8.3509699482915657e-04  8.4602412823907107e-04 
 8.5709424174027751e-04  8.6830920620830504e-04  8.7967091699884192e-04  8.9118129426805340e-04 
 9.0284228329709385e-04  9.1465585482086340e-04  9.2662400536106719e-04  9.3874875756363172e-04 
 9.5103216054053907e-04  9.6347629021612468e-04  9.7608324967792350e-04  9.8885516953209048e-04 
 1.0017942082634792e-03  1.0149025526004320e-03  1.0281824178843403e-03  1.0416360484440446e-03 
 1.0552657179751306e-03  1.0690737299241890e-03  1.0830624178781031e-03  1.0972341459584323e-03 
 1.1115913092209519e-03  1.1261363340604243e-03  1.1408716786206667e-03  1.1557998332099807e-03 
 1.1709233207220229e-03  1.1862446970621777e-03  1.2017665515795153e-03  1.2174915075043884e-03 
 1.2334222223917772e-03  1.2495613885704145e-03  1.2659117335977973e-03  1.2824760207211505e-03 
 1.2992570493444225e-03  1.3162576555013909e-03  1.3334807123349599e-03  1.3509291305827268e-03 
 1.3686058590689039e-03  1.3865138852026779e-03  1.4046562354830885e-03  1.4230359760105133e-03 
 1.4416562130048474e-03  1.4605200933304606e-03  1.4796308050280256e-03  1.4989915778533048e-03 
 1.5186056838229886e-03  1.5384764377676648e-03  1.5586071978920461e-03  1.5790013663425071e-03 
 1.5996623897820564e-03  1.6205937599728297e-03  1.6417990143662083e-03  1.6632817367006555e-03 
 1.6850455576073761e-03  1.7070941552239042e-03  1.7294312558157143e-03  1.7520606344059711e-03 
 1.7749861154135161e-03  1.7982115732992046e-03  1.8217409332206983e-03  1.8455781716958260e-03 
 1.8697273172746244e-03  1.8941924512201748e-03  1.9189777081983458e-03  1.9440872769765517e-03 
 1.9695254011316819e-03  1.9952963797672651e-03  2.0214045682400267e-03  2.0478543788959597e-03 
 2.0746502818160175e-03  2.1017968055715703e-03  2.1292985379897447e-03  2.1571601269287761e-03 
 2.1853862810635081e-03  2.2139817706811698e-03  2.2429514284875687e-03  2.2723001504238228e-03 
 2.3020328964937927e-03  2.3321546916023304e-03  2.3626706264045037e-03  2.3935858581659235e-03 
 2.4249056116343441e-03  2.4566351799226358e-03  2.4887799254033642e-03  2.5213452806150225e-03 
 2.5543367491801510e-03  2.5877599067354591e-03  2.6216204018741241e-03  2.6559239571004164e-03 
 2.6906763697968146e-03  2.7258835132037786e-03  2.7615513374123404e-03  2.7976858703696837e-03 
 2.8342932188978832e-03  2.8713795697259685e-03  2.9089511905354987e-03  2.9470144310198140e-03 
 2.9855757239571515e-03  3.0246415862977966e-03  3.0642186202654710e-03  3.1043135144731017e-03 
 3.1449330450532454e-03  3.1860840768032474e-03  3.2277735643454174e-03  3.2700085533023753e-03 
 3.3127961814877777e-03  3.3561436801126275e-03  3.4000583750073629e-03  3.4445476878599418e-03 
 3.4896191374701267e-03  3.5352803410201744e-03  3.5815390153621637e-03  3.6284029783221587e-03 
 3.6758801500214400e-03  3.7239785542150256e-03  3.7727063196477026e-03  3.8220716814278072e-03 
 3.8720829824189784e-03  3.9227486746501051e-03  3.9740773207437678e-03  4.0260775953633258e-03 
 4.0787582866789540e-03  4.1321282978528696e-03  4.1861966485439881e-03  4.2409724764322634e-03 
 4.2964650387629817e-03  4.3526837139112508e-03  4.4096380029669813e-03  4.4673375313405775e-03 
 4.5257920503896654e-03  4.5850114390670934e-03  4.6450057055904929e-03  4.7057849891337013e-03 
 4.7673595615402966e-03  4.8297398290595680e-03  4.8929363341052084e-03  4.9569597570369647e-03 
 5.0218209179657058e-03  5.0875307785820008e-03  5.1541004440086927e-03  5.2215411646776783e-03 
 5.2898643382312703e-03  5.3590815114484096e-03  5.4292043821961167e-03  5.5002448014064478e-03 
 5.5722147750793295e-03  5.6451264663116112e-03  5.7189921973526464e-03  5.7938244516867890e-03 
 5.8696358761431292e-03  5.9464392830328389e-03  6.0242476523144819e-03  6.1030741337876580e-03 
 6.1829320493153612e-03  6.2638348950753656e-03  6.3457963438411698e-03  6.4288302472926924e-03 
 6.5129506383572464e-03  6.5981717335811350e-03  6.6845079355322854e-03  6.7719738352343163e-03 
 6.8605842146324545e-03  6.9503540490917191e-03  7.0412985099277976e-03  7.1334329669710227e-03 
 7.2267729911639289e-03  7.3213343571927585e-03  7.4171330461534389e-03  7.5141852482524130e-03 
 7.6125073655428305e-03  7.7121160146965285e-03  7.8130280298123050e-03  7.9152604652608684e-03 
 8.0188305985671483e-03  8.1237559333301786e-03  8.2300542021812653e-03  8.3377433697808465e-03 
 8.4468416358545548e-03  8.5573674382690250e-03  8.6693394561479249e-03  8.7827766130287796e-03 
 8.8976980800610922e-03  9.0141232792463211e-03  9.1320718867202253e-03  9.2515638360782006e-03 
 9.3726193217440919e-03  9.4952588023830952e-03  9.6195030043593373e-03  9.7453729252386639e-03 
 9.8728898373373047e-03  1.0002075291316871e-02  1.0132951119826575e-02  1.0265539441192933e-02 
 1.0399862663157832e-02  1.0535943486665483e-02  1.0673804909698943e-02  1.0813470231166834e-02 
 1.0954963054840897e-02  1.1098307293345096e-02  1.1243527172196921e-02  1.1390647233901525e-02 
 1.1539692342099504e-02  1.1690687685768879e-02  1.1843658783482116e-02  1.1998631487718819e-02 
 1.2155631989234847e-02  1.2314686821488638e-02  1.2475822865125427e-02  1.2639067352520066e-02 
 1.2804447872379486e-02  1.2971992374405160e-02  1.3141729174016705e-02  1.3313686957137250e-02 
 1.3487894785041409e-02  1.3664382099266733e-02  1.3843178726589390e-02  1.4024314884064944e-02 
 1.4207821184135130e-02  1.4393728639801422e-02  1.4582068669866307e-02  1.4772873104243136e-02 
 1.4966174189335447e-02  1.5162004593486701e-02  1.5360397412501290e-02  1.5561386175237821e-02 
 1.5765004849275604e-02  1.5971287846655122e-02  1.6180270029693935e-02  1.6391986716878370e-02 
 1.6606473688832477e-02  1.6823767194365010e-02  1.7043903956595583e-02  1.7266921179160961e-02 
 1.7492856552502562e-02  1.7721748260236224e-02  1.7953634985605340e-02  1.8188555918018413e-02 
 1.8426550759672155e-02  1.8667659732261255e-02  1.8911923583775941e-02  1.9159383595388494e-02 
 1.9410081588429856e-02  1.9664059931457530e-02  1.9921361547416028e-02  2.0182029920890764e-02 
 2.0446109105457317e-02  2.0713643731126410e-02  2.0984679011886540e-02  2.1259260753345246e-02 
 2.1537435360470362e-02  2.1819249845432577e-02  2.2104751835550596e-02  2.2393989581340274e-02 
 2.2687011964669053e-02  2.2983868507017152e-02  2.3284609377846762e-02  2.3589285403080855e-02 
 2.3897948073692846e-02  2.4210649554408721e-02  2.4527442692522983e-02  2.4848381026829965e-02 
 2.5173518796672071e-02  2.5502910951106190e-02  2.5836613158190434e-02  2.6174681814392052e-02 
 2.6517174054118582e-02  2.6864147759373690e-02  2.7215661569539407e-02  2.7571774891286281e-02 
 2.7932547908613277e-02  2.8298041593018994e-02  2.8668317713806006e-02  2.9043438848520023e-02 
 2.9423468393525630e-02  2.9808470574720448e-02  3.0198510458389439e-02  3.0593653962201275e-02 
 3.0993967866348573e-02  3.1399519824833931e-02  3.1810378376903634e-02  3.2226612958630753e-02 
 3.2648293914650343e-02  3.3075492510047599e-02  3.3508280942401936e-02  3.3946732353988478e-02 
 3.4390920844139361e-02  3.4840921481766610e-02  3.5296810318049050e-02  3.5758664399285059e-02 
 3.6226561779913631e-02  3.6700581535705733e-02  3.7180803777128298e-02  3.7667309662883112e-02 
 3.8160181413622790e-02  3.8659502325846300e-02  3.9165356785976220e-02  3.9677830284620318e-02 
 4.0197009431019656e-02  4.0722981967685548e-02  4.1255836785228615e-02  4.1795663937381260e-02 
 4.2342554656217044e-02  4.2896601367569120e-02  4.3457897706650359e-02  4.4026538533878029e-02 
 4.4602619950905344e-02  4.5186239316862914e-02  4.5777495264812652e-02  4.6376487718417014e-02 
 4.6983317908826316e-02  4.7598088391787044e-02  4.8220903064974042e-02  4.8851867185549444e-02 
 4.9491087387951369e-02  5.0138671701915438e-02  5.0794729570732104e-02  5.1459371869742497e-02 
 5.2132710925077173e-02  5.2814860532639063e-02  5.3505935977335460e-02  5.4206054052561341e-02 
 5.4915333079937755e-02  5.5633892929308461e-02  5.6361855038998286e-02  5.7099342436336367e-02 
 5.7846479758448144e-02  5.8603393273319308e-02  5.9370210901135423e-02  6.0147062235900668e-02 
 6.0934078567339615e-02  6.1731392903085436e-02  6.2539139991158565e-02  6.3357456342739399e-02 
 6.4186480255239153e-02  6.5026351835671972e-02  6.5877213024334011e-02  6.6739207618791305e-02 
 6.7612481298181940e-02  6.8497181647836219e-02  6.9393458184218909e-02  7.0301462380197868e-02 
 7.1221347690643366e-02  7.2153269578362281e-02  7.3097385540371693e-02  7.4053855134516289e-02 
 7.5022840006433944e-02  7.6004503916874300e-02  7.6999012769374695e-02  7.8006534638298208e-02 
 7.9027239797238691e-02  8.0061300747797381e-02  8.1108892248736228e-02  8.2170191345511984e-02 
 8.3245377400198148e-02  8.4334632121796982e-02  8.5438139596949000e-02  8.6556086321043918e-02 
 8.7688661229738965e-02  8.8836055730889332e-02  8.9998463736896628e-02  9.1176081697480510e-02 
 9.2369108632879157e-02  9.3577746167484155e-02  9.4802198563915585e-02  9.6042672757542705e-02 
 9.7299378391456692e-02  9.8572527851900779e-02  9.9862336304163968e-02  1.0116902172894461e-01 
 1.0249280495918967e-01  1.0383390971741543e-01  1.0519256265351822e-01  1.0656899338307790e-01 
 1.0796343452616385e-01  1.0937612174664813e-01  1.1080729379203334e-01  1.1225719253380151e-01 
 1.1372606300829086e-01  1.1521415345810761e-01  1.1672171537407963e-01  1.1824900353775884e-01 
 1.1979627606448004e-01  1.2136379444698281e-01  1.2295182359960470e-01  1.2456063190305218e-01 
 1.2619049124975759e-01  1.2784167708982982e-01  1.2951446847760603e-01  1.3120914811881168e-01 
 1.3292600241833985e-01  1.3466532152865351e-01  1.3642739939882198e-01  1.3821253382419926e-01 
 1.4002102649675202e-01  1.4185318305604636e-01  1.4370931314090141e-01  1.4558973044171938e-01 
 1.4749475275349963e-01  1.4942470202954700e-01  1.5137990443588259e-01  1.5336069040636671e-01 
 1.5536739469854274e-01  1.5740035645021230e-01  1.5945991923674999e-01  1.6154643112916875e-01 
 1.6366024475294472e-01  1.6580171734761087e-01  1.6797121082713293e-01  1.7016909184107251e-01 
 1.7239573183655207e-01  1.7465150712103056e-01  1.7693679892590003e-01  1.7925199347091464e-01 
 1.8159748202946291e-01  1.8397366099469373e-01  1.8638093194650776e-01  1.8881970171942541e-01 
 1.9129038247134278e-01  1.9379339175318747e-01  1.9632915257948547e-01  1.9889809349985174e-01 
 2.0150064867141618e-01  2.0413725793219750e-01  2.0680836687543547e-01  2.0951442692489924e-01 
 2.1225589541117798e-01  2.1503323564897076e-01  2.1784691701538811e-01  2.2069741502927778e-01 
 2.2358521143158858e-01  2.2651079426678583e-01  2.2947465796533167e-01  2.3247730342724560e-01 
 2.3551923810675718e-01  2.3860097609806741e-01  2.4172303822223160e-01  2.4488595211517952e-01 
 2.4809025231688719e-01  2.5133648036171519e-01  2.5462518486992952e-01  2.5795692164041989e-01 
 2.6133225374462943e-01  2.6475175162171788e-01  2.6821599317496519e-01  2.7172556386943902e-01 
 2.7528105683094001e-01  2.7888307294624093e-01  2.8253222096463843e-01  2.8622911760083297e-01 
 2.8997438763915506e-01  2.9376866403915519e-01  2.9761258804257595e-01  3.0150680928172252e-01 
 3.0545198588925310e-01  3.0944878460940423e-01  3.1349788091067238e-01  3.1759995909996980e-01 
 3.2175571243827367e-01  3.2596584325778993e-01  3.3023106308064648e-01  3.3455209273914543e-01 
 3.3892966249758366e-01  3.4336451217566932e-01  3.4785739127355358e-01  3.5240905909849723e-01 
 3.5702028489319615e-01  3.6169184796578485e-01  3.6642453782154144e-01  3.7121915429631558e-01 
 3.7607650769170337e-01  3.8099741891198952e-01  3.8598271960288250e-01  3.9103325229206465e-01 
 3.9614987053158102e-01  4.0133343904209229e-01  4.0658483385901412e-01  4.1190494248057002e-01 
 4.1729466401777804e-01  4.2275490934640680e-01  4.2828660126091261e-01  4.3389067463039510e-01 
 4.3956807655659191e-01  4.4531976653394123e-01  4.5114671661173894e-01  4.5704991155841695e-01 
 4.6303034902797136e-01  4.6908903972856847e-01  4.7522700759335690e-01  4.8144528995351499e-01 
 4.8774493771356159e-01  4.9412701552896182e-01  5.0059260198605660e-01  5.0714278978434590e-01 
 5.1377868592115750e-01  5.2050141187873389e-01  5.2731210381376037e-01  5.3421191274938529e-01 
 5.4120200476974090e-01  5.4828356121701571e-01  5.5545777889110415e-01  5.6272587025186838e-01 
 5.7008906362404721e-01  5.7754860340484560e-01  5.8510575027424094e-01  5.9276178140804092e-01 
 6.0051799069372935e-01  6.0837568894913585e-01  6.1633620414396773e-01  6.2440088162423968e-01 
 6.3257108433964082e-01  6.4084819307387553e-01  6.4923360667802055e-01  6.5772874230693401e-01 
 6.6633503565875418e-01  6.7505394121754281e-01  6.8388693249909049e-01  6.9283550229994795e-01 
 7.0190116294970939e-01  7.1108544656660200e-01  7.2038990531641667e-01  7.2981611167482729e-01 
 7.3936565869314408e-01  7.4904016026754172e-01  7.5884125141181258e-01  7.6877058853368763e-01 
 7.7882984971477331e-01  7.8902073499415115e-01  7.9934496665568866e-01  8.0980428951910932e-01 
 8.2040047123487125e-01  8.3113530258290591e-01  8.4201059777525789e-01  8.5302819476270098e-01 
 8.6418995554534805e-01  8.7549776648733824e-01  8.8695353863563420e-01  8.9855920804299472e-01 
 9.1031673609517227e-01  9.2222810984239212e-01  9.3429534233516720e-01  9.4652047296451025e-01 
 9.5890556780659442e-01  9.7145271997192628e-01  9.8416404995908469e-01  9.9704170601309172e-01 
 1.0100878644884708e+00  1.0233047302170550e+00  1.0366945368806106e+00  1.0502595473883338e+00 
 1.0640020542592832e+00  1.0779243800098306e+00  1.0920288775461635e+00  1.1063179305619362e+00 
 1.1207939539411176e+00  1.1354593941661131e+00  1.1503167297312260e+00  1.1653684715615282e+00 
 1.1806171634372142e+00  1.1960653824235041e+00  1.2117157393061750e+00  1.2275708790327893e+00 
 1.2436334811596976e+00  1.2599062603048898e+00  1.2763919666067722e+00  1.2930933861889475e+00 
 1.3100133416310764e+00  1.3271546924459017e+00  1.3445203355625046e+00  1.3621132058159060e+00 
 1.3799362764430514e+00  1.3979925595852973e+00  1.4162851067974709e+00  1.4348170095635890e+00 
 1.4535913998193262e+00  1.4726114504813215e+00  1.4918803759834054e+00  1.5114014328198504e+00 
 1.5311779200957236e+00 
  </PP_RAB>
</PP_MESH>


<PP_LOCAL>
1.5770159371593101e+02 1.5770159370832525e+02 1.5770159370057684e+02 1.5770159369277349e+02 
1.5770159368452201e+02 1.5770159367632027e+02 1.5770159366789909e+02 1.5770159365913878e+02 
1.5770159365015084e+02 1.5770159364100920e+02 1.5770159363143503e+02 1.5770159362190842e+02 
1.5770159361174203e+02 1.5770159360152977e+02 1.5770159359112671e+02 1.5770159358026351e+02 
1.5770159356919189e+02 1.5770159355788297e+02 1.5770159354621970e+02 1.5770159353425711e+02 
1.5770159352207503e+02 1.5770159350937590e+02 1.5770159349635676e+02 1.5770159348323654e+02 
1.5770159346968401e+02 1.5770159345571494e+02 1.5770159344140964e+02 1.5770159342663769e+02 
1.5770159341154195e+02 1.5770159339602839e+02 1.5770159338001935e+02 1.5770159336368494e+02 
1.5770159334704891e+02 1.5770159332972801e+02 1.5770159331217883e+02 1.5770159329412760e+02 
1.5770159327544013e+02 1.5770159325636959e+02 1.5770159323676887e+02 1.5770159321667700e+02 
1.5770159319605960e+02 1.5770159317486213e+02 1.5770159315326362e+02 1.5770159313088169e+02 
1.5770159310789239e+02 1.5770159308438258e+02 1.5770159306029339e+02 1.5770159303557139e+02 
1.5770159301018225e+02 1.5770159298408259e+02 1.5770159295739833e+02 1.5770159292984033e+02 
1.5770159290169912e+02 1.5770159287280498e+02 1.5770159284306612e+02 1.5770159281256753e+02 
1.5770159278127207e+02 1.5770159274924049e+02 1.5770159271624226e+02 1.5770159268238552e+02 
1.5770159264777450e+02 1.5770159261211754e+02 1.5770159257553047e+02 1.5770159253799102e+02 
1.5770159249957305e+02 1.5770159245994139e+02 1.5770159241939373e+02 1.5770159237777253e+02 
1.5770159233499899e+02 1.5770159229126622e+02 1.5770159224618470e+02 1.5770159220002856e+02 
1.5770159215255777e+02 1.5770159210391864e+02 1.5770159205397621e+02 1.5770159200271161e+02 
1.5770159195004925e+02 1.5770159189607025e+02 1.5770159184068683e+02 1.5770159178376656e+02 
1.5770159172550348e+02 1.5770159166551690e+02 1.5770159160396992e+02 1.5770159154092326e+02 
1.5770159147614967e+02 1.5770159140957162e+02 1.5770159134146843e+02 1.5770159127138146e+02 
1.5770159119951040e+02 1.5770159112578995e+02 1.5770159105005024e+02 1.5770159097232244e+02 
1.5770159089253360e+02 1.5770159081070386e+02 1.5770159072674215e+02 1.5770159064046203e+02 
1.5770159055197570e+02 1.5770159046121597e+02 1.5770159036795565e+02 1.5770159027224136e+02 
1.5770159017407664e+02 1.5770159007333086e+02 1.5770158996990082e+02 1.5770158986374045e+02 
1.5770158975477369e+02 1.5770158964293830e+02 1.5770158952815885e+02 1.5770158941041066e+02 
1.5770158928949050e+02 1.5770158916541925e+02 1.5770158903805972e+02 1.5770158890733077e+02 
1.5770158877324960e+02 1.5770158863550222e+02 1.5770158849422765e+02 1.5770158834918837e+02 
1.5770158820036266e+02 1.5770158804758847e+02 1.5770158789080168e+02 1.5770158772987040e+02 
1.5770158756474257e+02 1.5770158739521133e+02 1.5770158722121721e+02 1.5770158704261422e+02 
1.5770158685937437e+02 1.5770158667131179e+02 1.5770158647824130e+02 1.5770158628009273e+02 
1.5770158607675339e+02 1.5770158586803998e+02 1.5770158565384750e+02 1.5770158543401428e+02 
1.5770158520834534e+02 1.5770158497675601e+02 1.5770158473904138e+02 1.5770158449513320e+02 
1.5770158424477975e+02 1.5770158398778972e+02 1.5770158372407798e+02 1.5770158345338064e+02 
1.5770158317559452e+02 1.5770158289043238e+02 1.5770158259781863e+02 1.5770158229745184e+02 
1.5770158198919438e+02 1.5770158167281971e+02 1.5770158134811990e+02 1.5770158101484475e+02 
1.5770158067275929e+02 1.5770158032172233e+02 1.5770157996139443e+02 1.5770157959162447e+02 
1.5770157921209389e+02 1.5770157882254844e+02 1.5770157842273954e+02 1.5770157801240762e+02 
1.5770157759126943e+02 1.5770157715904861e+02 1.5770157671545167e+02 1.5770157626013514e+02 
1.5770157579284034e+02 1.5770157531322741e+02 1.5770157482100149e+02 1.5770157431580662e+02 
1.5770157379729562e+02 1.5770157326512694e+02 1.5770157271893538e+02 1.5770157215836699e+02 
1.5770157158302121e+02 1.5770157099251483e+02 1.5770157038644126e+02 1.5770156976445264e+02 
1.5770156912604619e+02 1.5770156847081358e+02 1.5770156779833047e+02 1.5770156710814661e+02 
1.5770156639977785e+02 1.5770156567273213e+02 1.5770156492653999e+02 1.5770156416073041e+02 
1.5770156337470095e+02 1.5770156256797682e+02 1.5770156174000400e+02 1.5770156089023263e+02 
1.5770156001806023e+02 1.5770155912291284e+02 1.5770155820419487e+02 1.5770155726127024e+02 
1.5770155629351453e+02 1.5770155530025082e+02 1.5770155428085431e+02 1.5770155323455191e+02 
1.5770155216073167e+02 1.5770155105860675e+02 1.5770154992745393e+02 1.5770154876651270e+02 
1.5770154757498821e+02 1.5770154635205438e+02 1.5770154509692020e+02 1.5770154380873535e+02 
1.5770154248660339e+02 1.5770154112963999e+02 1.5770153973695110e+02 1.5770153830755356e+02 
1.5770153684050373e+02 1.5770153533481459e+02 1.5770153378946443e+02 1.5770153220339125e+02 
1.5770153057556547e+02 1.5770152890483516e+02 1.5770152719010591e+02 1.5770152543018611e+02 
1.5770152362392503e+02 1.5770152177008137e+02 1.5770151986739498e+02 1.5770151791459358e+02 
1.5770151591034264e+02 1.5770151385330158e+02 1.5770151174208041e+02 1.5770150957523407e+02 
1.5770150735130144e+02 1.5770150506879276e+02 1.5770150272614990e+02 1.5770150032180234e+02 
1.5770149785411317e+02 1.5770149532143341e+02 1.5770149272201323e+02 1.5770149005413955e+02 
1.5770148731596575e+02 1.5770148450566862e+02 1.5770148162133853e+02 1.5770147866102954e+02 
1.5770147562273658e+02 1.5770147250439933e+02 1.5770146930392596e+02 1.5770146601914260e+02 
1.5770146264781383e+02 1.5770145918768125e+02 1.5770145563641037e+02 1.5770145199157179e+02 
1.5770144825072558e+02 1.5770144441133408e+02 1.5770144047079137e+02 1.5770143642643839e+02 
1.5770143227556110e+02 1.5770142801532461e+02 1.5770142364286488e+02 1.5770141915521120e+02 
1.5770141454935077e+02 1.5770140982215216e+02 1.5770140497042109e+02 1.5770139999087243e+02 
1.5770139488013882e+02 1.5770138963479243e+02 1.5770138425124600e+02 1.5770137872589146e+02 
1.5770137305495820e+02 1.5770136723464910e+02 1.5770136126101357e+02 1.5770135512999539e+02 
1.5770134883747133e+02 1.5770134237917890e+02 1.5770133575074112e+02 1.5770132894769074e+02 
1.5770132196542201e+02 1.5770131479921702e+02 1.5770130744421607e+02 1.5770129989545012e+02 
1.5770129214783739e+02 1.5770128419610427e+02 1.5770127603489144e+02 1.5770126765868358e+02 
1.5770125906179862e+02 1.5770125023844460e+02 1.5770124118264656e+02 1.5770123188826665e+02 
1.5770122234904196e+02 1.5770121255850790e+02 1.5770120251004295e+02 1.5770119219685913e+02 
1.5770118161198269e+02 1.5770117074824273e+02 1.5770115959830295e+02 1.5770114815461775e+02 
1.5770113640945294e+02 1.5770112435486439e+02 1.5770111198269555e+02 1.5770109928458197e+02 
1.5770108625193558e+02 1.5770107287594334e+02 1.5770105914755553e+02 1.5770104505749504e+02 
1.5770103059622417e+02 1.5770101575396578e+02 1.5770100052068977e+02 1.5770098488608110e+02 
1.5770096883956745e+02 1.5770095237030543e+02 1.5770093546714907e+02 1.5770091811866561e+02 
1.5770090031312202e+02 1.5770088203847874e+02 1.5770086328237863e+02 1.5770084403213110e+02 
1.5770082427471201e+02 1.5770080399676814e+02 1.5770078318457035e+02 1.5770076182406069e+02 
1.5770073990077614e+02 1.5770071739989677e+02 1.5770069430619986e+02 1.5770067060406558e+02 
1.5770064627746328e+02 1.5770062130993546e+02 1.5770059568460078e+02 1.5770056938411517e+02 
1.5770054239070348e+02 1.5770051468609637e+02 1.5770048625155761e+02 1.5770045706785316e+02 
1.5770042711524411e+02 1.5770039637346645e+02 1.5770036482172847e+02 1.5770033243868204e+02 
1.5770029920242814e+02 1.5770026509048273e+02 1.5770023007976721e+02 1.5770019414660263e+02 
1.5770015726667933e+02 1.5770011941505186e+02 1.5770008056610655e+02 1.5770004069357512e+02 
1.5769999977047667e+02 1.5769995776912549e+02 1.5769991466111014e+02 1.5769987041727038e+02 
1.5769982500767492e+02 1.5769977840159976e+02 1.5769973056751613e+02 1.5769968147306369e+02 
1.5769963108503327e+02 1.5769957936932522e+02 1.5769952629096076e+02 1.5769947181402409e+02 
1.5769941590166337e+02 1.5769935851604583e+02 1.5769929961834811e+02 1.5769923916872062e+02 
1.5769917712626571e+02 1.5769911344900649e+02 1.5769904809385807e+02 1.5769898101659848e+02 
1.5769891217184863e+02 1.5769884151302020e+02 1.5769876899231099e+02 1.5769869456064444e+02 
1.5769861816766112e+02 1.5769853976166894e+02 1.5769845928961638e+02 1.5769837669704577e+02 
1.5769829192807759e+02 1.5769820492534501e+02 1.5769811562997577e+02 1.5769802398154357e+02 
1.5769792991803268e+02 1.5769783337578829e+02 1.5769773428948116e+02 1.5769763259205263e+02 
1.5769752821468444e+02 1.5769742108673850e+02 1.5769731113571908e+02 1.5769719828721207e+02 
1.5769708246484930e+02 1.5769696359024368e+02 1.5769684158294285e+02 1.5769671636037239e+02 
1.5769658783778465e+02 1.5769645592819322e+02 1.5769632054231570e+02 1.5769618158852515e+02 
1.5769603897276829e+02 1.5769589259851739e+02 1.5769574236669976e+02 1.5769558817562654e+02 
1.5769542992092940e+02 1.5769526749549121e+02 1.5769510078936307e+02 1.5769492968970366e+02 
1.5769475408069317e+02 1.5769457384345395e+02 1.5769438885598200e+02 1.5769419899304793e+02 
1.5769400412612080e+02 1.5769380412328744e+02 1.5769359884914601e+02 1.5769338816473064e+02 
1.5769317192740766e+02 1.5769294999078033e+02 1.5769272220459402e+02 1.5769248841463073e+02 
1.5769224846260286e+02 1.5769200218605039e+02 1.5769174941822860e+02 1.5769148998798974e+02 
1.5769122371968112e+02 1.5769095043300902e+02 1.5769066994292709e+02 1.5769038205950838e+02 
1.5769008658781573e+02 1.5768978332776874e+02 1.5768947207401277e+02 1.5768915261577553e+02 
1.5768882473672093e+02 1.5768848821480785e+02 1.5768814282214043e+02 1.5768778832481081e+02 
1.5768742448273613e+02 1.5768705104950553e+02 1.5768666777220400e+02 1.5768627439124595e+02 
1.5768587064019616e+02 1.5768545624559096e+02 1.5768503092675473e+02 1.5768459439560175e+02 
1.5768414635645021e+02 1.5768368650581468e+02 1.5768321453220284e+02 1.5768273011590369e+02 
1.5768223292877360e+02 1.5768172263400680e+02 1.5768119888591306e+02 1.5768066132967968e+02 
1.5768010960113213e+02 1.5767954332648941e+02 1.5767896212210152e+02 1.5767836559420093e+02 
1.5767775333862474e+02 1.5767712494054888e+02 1.5767647997420033e+02 1.5767581800257091e+02 
1.5767513857711913e+02 1.5767444123746924e+02 1.5767372551109355e+02 1.5767299091299432e+02 
1.5767223694537591e+02 1.5767146309730416e+02 1.5767066884436147e+02 1.5766985364828761e+02 
1.5766901695661946e+02 1.5766815820230988e+02 1.5766727680334799e+02 1.5766637216236109e+02 
1.5766544366620832e+02 1.5766449068556702e+02 1.5766351257450364e+02 1.5766250867003382e+02 
1.5766147829167610e+02 1.5766042074098570e+02 1.5765933530108282e+02 1.5765822123616286e+02 
1.5765707779100148e+02 1.5765590419043676e+02 1.5765469963884661e+02 1.5765346331960399e+02 
1.5765219439452781e+02 1.5765089200330925e+02 1.5764955526292968e+02 1.5764818326705876e+02 
1.5764677508544165e+02 1.5764532976326632e+02 1.5764384632051292e+02 1.5764232375129097e+02 
1.5764076102315485e+02 1.5763915707640251e+02 1.5763751082335546e+02 1.5763582114762150e+02 
1.5763408690333515e+02 1.5763230691437880e+02 1.5763047997358669e+02 1.5762860484192171e+02 
1.5762668024763508e+02 1.5762470488540563e+02 1.5762267741544670e+02 1.5762059646260423e+02 
1.5761846061541578e+02 1.5761626842515838e+02 1.5761401840485831e+02 1.5761170902828653e+02 
1.5760933872892122e+02 1.5760690589888205e+02 1.5760440888783995e+02 1.5760184600189825e+02 
1.5759921550243976e+02 1.5759651560494848e+02 1.5759374447779695e+02 1.5759090024100450e+02 
1.5758798096496091e+02 1.5758498466911544e+02 1.5758190932063386e+02 1.5757875283301942e+02 
1.5757551306469639e+02 1.5757218781755702e+02 1.5756877483547029e+02 1.5756527180275285e+02 
1.5756167634259592e+02 1.5755798601545550e+02 1.5755419831739675e+02 1.5755031067839664e+02 
1.5754632046060101e+02 1.5754222495653735e+02 1.5753802138727912e+02 1.5753370690056252e+02 
1.5752927856885296e+02 1.5752473338736345e+02 1.5752006827201643e+02 1.5751528005735835e+02 
1.5751036549441247e+02 1.5750532124848235e+02 1.5750014389689244e+02 1.5749482992667120e+02 
1.5748937573217637e+02 1.5748377761265388e+02 1.5747803176973392e+02 1.5747213430486519e+02 
1.5746608121667632e+02 1.5745986839827341e+02 1.5745349163446352e+02 1.5744694659890769e+02 
1.5744022885119969e+02 1.5743333383386678e+02 1.5742625686929475e+02 1.5741899315657059e+02 
1.5741153776824541e+02 1.5740388564700990e+02 1.5739603160228768e+02 1.5738797030673550e+02 
1.5737969629265623e+02 1.5737120394831723e+02 1.5736248751417159e+02 1.5735354107898638e+02 
1.5734435857586408e+02 1.5733493377816671e+02 1.5732526029533204e+02 1.5731533156858018e+02 
1.5730514086651311e+02 1.5729468128059844e+02 1.5728394572053563e+02 1.5727292690950634e+02 
1.5726161737929860e+02 1.5725000946530918e+02 1.5723809530141477e+02 1.5722586681471483e+02 
1.5721331572013591e+02 1.5720043351490065e+02 1.5718721147285535e+02 1.5717364063865062e+02 
1.5715971182177566e+02 1.5714541559044011e+02 1.5713074226529974e+02 1.5711568191302243e+02 
1.5710022433969260e+02 1.5708435908404684e+02 1.5706807541053908e+02 1.5705136230223053e+02 
1.5703420845350027e+02 1.5701660226257326e+02 1.5699853182385777e+02 1.5697998492009444e+02 
1.5696094901430496e+02 1.5694141124154203e+02 1.5692135840043250e+02 1.5690077694450929e+02 
1.5687965297332897e+02 1.5685797222336825e+02 1.5683572005869550e+02 1.5681288146141185e+02 
1.5678944102185662e+02 1.5676538292857174e+02 1.5674069095802145e+02 1.5671534846405876e+02 
1.5668933836713646e+02 1.5666264314325420e+02 1.5663524481264000e+02 1.5660712492815517e+02 
1.5657826456342110e+02 1.5654864430066095e+02 1.5651824421824949e+02 1.5648704387796678e+02 
1.5645502231194578e+02 1.5642215800931450e+02 1.5638842890251996e+02 1.5635381235333134e+02 
1.5631828513851468e+02 1.5628182343517449e+02 1.5624440280575408e+02 1.5620599818268863e+02 
1.5616658385270608e+02 1.5612613344076786e+02 1.5608461989364380e+02 1.5604201546311455e+02 
1.5599829168879540e+02 1.5595341938057541e+02 1.5590736860066511e+02 1.5586010864524539e+02 
1.5581160802571495e+02 1.5576183444952525e+02 1.5571075480060151e+02 1.5565833511934062e+02 
1.5560454058218116e+02 1.5554933548074067e+02 1.5549268320051317e+02 1.5543454619912242e+02 
1.5537488598412543e+02 1.5531366309036110e+02 1.5525083705684000e+02 1.5518636640316933e+02 
1.5512020860551070e+02 1.5505232007206422e+02 1.5498265611807921e+02 1.5491117094038395e+02 
1.5483781759143520e+02 1.5476254795288315e+02 1.5468531270865100e+02 1.5460606131752684e+02 
1.5452474198526832e+02 1.5444130163621895e+02 1.5435568588443732e+02 1.5426783900433895e+02 
1.5417770390085516e+02 1.5408522207910966e+02 1.5399033361361711e+02 1.5389297711700854e+02 
1.5379308970828924e+02 1.5369060698063532e+02 1.5358546296873652e+02 1.5347759011569511e+02 
1.5336691923949095e+02 1.5325337949902331e+02 1.5313689835974355e+02 1.5301740155889379e+02 
1.5289481307036576e+02 1.5276905506920076e+02 1.5264004789574784e+02 1.5250771001950406e+02 
1.5237195800265940e+02 1.5223270646337357e+02 1.5208986803881237e+02 1.5194335334797424e+02 
1.5179307095434146e+02 1.5163892732839147e+02 1.5148082681000761e+02 1.5131867157083084e+02 
1.5115236157659902e+02 1.5098179454952066e+02 1.5080686593073727e+02 1.5062746884292841e+02 
1.5044349405312022e+02 1.5025482993576145e+02 1.5006136243613477e+02 1.4986297503417620e+02 
1.4965954870877991e+02 1.4945096190267139e+02 1.4923709048793589e+02 1.4901780773229530e+02 
1.4879298426623239e+02 1.4856248805106637e+02 1.4832618434809083e+02 1.4808393568889173e+02 
1.4783560184696745e+02 1.4758103981078392e+02 1.4732010375840116e+02 1.4705264503381775e+02 
1.4677851212518587e+02 1.4649755064505914e+02 1.4620960331284240e+02 1.4591450993962300e+02 
1.4561210741556977e+02 1.4530222970009817e+02 1.4498470781500720e+02 1.4465936984080454e+02 
1.4432604091644731e+02 1.4398454324273436e+02 1.4363469608959920e+02 1.4327631580756196e+02 
1.4290921584361067e+02 1.4253320676179393e+02 1.4214809626881848e+02 1.4175368924495743e+02 
1.4134978778058706e+02 1.4093619121868286e+02 1.4051269620361688e+02 1.4007909673661322e+02 
1.3963518423822890e+02 1.3918074761824201e+02 1.3871557335334009e+02 1.3823944557301752e+02 
1.3775214615409888e+02 1.3725345482432226e+02 1.3674314927542542e+02 1.3622100528619180e+02 
1.3568679685592446e+02 1.3514029634882630e+02 1.3458127464977673e+02 1.3400950133200556e+02 
1.3342474483717083e+02 1.3282677266836083e+02 1.3221535159654300e+02 1.3159024788099239e+02 
1.3095122750423459e+02 1.3029805642204406e+02 1.2963050082903916e+02 1.2894832744041616e+02 
1.2825130379036182e+02 1.2753919854768269e+02 1.2681178184918011e+02 1.2606882565129318e+02 
1.2531010410051965e+02 1.2453539392311023e+02 1.2374447483451378e+02 1.2293712996902961e+02 
1.2211314633009788e+02 1.2127231526162873e+02 1.2041443294073846e+02 1.1953930089222143e+02 
1.1864672652504223e+02 1.1773652369108545e+02 1.1680851326634412e+02 1.1586252375466731e+02 
1.1489839191412132e+02 1.1391596340594459e+02 1.1291509346599473e+02 1.1189564759850032e+02 
1.1085750229183239e+02 1.0980054575590765e+02 1.0872467868072380e+02 1.0762981501540693e+02 
1.0651588276702188e+02 1.0538282481825789e+02 1.0423059976295701e+02 1.0305918275829295e+02 
1.0186856639224655e+02 1.0065876156484568e+02 9.9429798381455981e+01 9.8181727056213774e+01 
9.6914618823491665e+01 9.5628566855075434e+01 9.4323687180512692e+01 9.3000119607866907e+01 
9.1658028641874211e+01 9.0297604396264617e+01 8.8919063496758710e+01 8.7522649971003176e+01 
8.6108636121454111e+01 8.4677323376961880e+01 8.3229043118554799e+01 8.1764157474665694e+01 
8.0283060080792083e+01 7.8786176798337380e+01 7.7273966387141115e+01 7.5746921125978815e+01 
7.4205567375098269e+01 7.2650466074659619e+01 7.1082213172769201e+01 6.9501439976639048e+01 
6.7908813420275010e+01 6.6305036241998167e+01 6.4690847065032301e+01 6.3067020374372724e+01 
6.1434366383156735e+01 5.9793730781823008e+01 5.8145994363457987e+01 5.6492072518895441e+01 
5.4832914595362915e+01 5.3169503112760104e+01 5.1502852832013509e+01 4.9834009670383175e+01 
4.8164049459102799e+01 4.6494076539319749e+01 4.4825222192966649e+01 4.3158642905943914e+01 
4.1495518461826400e+01 3.9837049865222696e+01 3.8184457094918649e+01 3.6538976688022345e+01 
3.4901859157487849e+01 3.3274366246646082e+01 3.1657768025676798e+01 3.0053339836341262e+01 
2.8462359092730182e+01 2.6886101947269164e+01 2.5325839832746727e+01 2.3782835892679405e+01 
2.2258341313886902e+01 2.0753591576704959e+01 1.9269802639795106e+01 1.7808167078000309e+01 
1.6369850193124005e+01 1.4955986118855391e+01 1.3567673942303324e+01 1.2205973865712194e+01 
1.0871903432891607e+01 9.5664338456749967e+00 8.2904863963020627e+00 7.0449290419862374e+00 
5.8305731480389094e+00 4.6481704257783880e+00 3.4984100910217659e+00 2.3819162682313277e+00 
1.2992456643538279e+00 2.5088553503830324e-01 -7.6274803575207117e-01 -1.7413115237109862e+00 
-2.6845350030231381e+00 -3.5922228219481447e+00 -4.4642539039295110e+00 -5.3005816661534464e+00 
-6.1012335508615436e+00 -6.8663101682938352e+00 -7.5959840538651004e+00 -8.2904980460059825e+00 
-8.9501632949865435e+00 -9.5753569169153714e+00 -1.0166519310927193e+01 -1.0724151161260364e+01 
-1.1248810149428140e+01 -1.1741107404937113e+01 -1.2201703725942485e+01 -1.2631305603793498e+01 
-1.3030661087559363e+01 -1.3400555526289041e+01 -1.3741807227904566e+01 -1.4055263074227398e+01 
-1.4341794131667017e+01 -1.4602291296549435e+01 -1.4837661012932529e+01 -1.5048821099055203e+01 
-1.5236696716326467e+01 -1.5402216512012458e+01 -1.5546308963576479e+01 -1.5669898949024729e+01 
-1.5773904563682327e+01 -1.5859234199643184e+01 -1.5926783899789529e+01 -1.5977434993848906e+01 
-1.6012052019537769e+01 -1.6031480927520935e+01 -1.6036547564782406e+01 -1.6028056427136363e+01 
-1.6006789668083915e+01 -1.5973506348106817e+01 -1.5928941905840162e+01 -1.5873807830425704e+01 
-1.5808791512747458e+01 -1.5734556252208677e+01 -1.5651741395228351e+01 -1.5560962581706304e+01 
-1.5462812076304983e+01 -1.5357859162489222e+01 -1.5246650578803946e+01 -1.5129710978799128e+01 
-1.5007543398265343e+01 -1.4880629715950306e+01 -1.4749431096611348e+01 -1.4614388408040391e+01 
-1.4475922606497885e+01 -1.4334435087730791e+01 -1.4190308003352170e+01 -1.4043904544755488e+01 
-1.3895569198863123e+01 -1.3745627981810877e+01 -1.3594388658105609e+01 -1.3442140953829625e+01 
-1.3289156773084290e+01 -1.3135690427062322e+01 -1.2981978884921169e+01 -1.2828242055023701e+01 
-1.2674683104150917e+01 -1.2521488821024517e+01 -1.2368830028962195e+01 -1.2216862050791891e+01 
-1.2065725227344643e+01 -1.1915545489003378e+01 -1.1766434977979944e+01 -1.1618492717295565e+01 
-1.1471805320913086e+01 -1.1326447738167259e+01 -1.1182484024604408e+01 -1.1039968130604484e+01 
-1.0898944698732535e+01 -1.0759449860654723e+01 -1.0621512024644003e+01 -1.0485152645168784e+01 
-1.0350386966768657e+01 -1.0217224735333717e+01 -1.0085670870966963e+01 -9.9557260977739581e+00 
-9.8273875271372688e+00 -9.7006491922465798e+00 -9.5755025328238315e+00 -9.4519368300681919e+00 
-9.3299395928166469e+00 -9.2094968967505668e+00 -9.0905936791619020e+00 -8.9732139923193071e+00 
-8.8573412188456508e+00 -8.7429582527421807e+00 -8.6300476497845082e+00 -8.5185917509882252e+00 
-8.4085727827174068e+00 -8.2999729368077393e+00 -8.1927744338179753e+00 -8.0869595722290786e+00 
-7.9825107660958725e+00 -7.8794105733376476e+00 -7.7776417165435543e+00 -7.6771870978753460e+00 
-7.5780298093809160e+00 -7.4801531397910983e+00 -7.3835405786615445e+00 -7.2881758185410854e+00 
-7.1940427556968780e+00 -7.1011254898023379e+00 -7.0094083228937256e+00 -6.9188757578221241e+00 
-6.8295124963659628e+00 -6.7413034371225455e+00 -6.6542336732619214e+00 -6.5682884902008931e+00 
-6.4834533632361540e+00 -6.3997139551629090e+00 -6.3170561138957950e+00 -6.2354658701030772e+00 
-6.1549294348608017e+00 -6.0754331973309528e+00 -5.9969637224659440e+00 -5.9195077487406627e+00 
-5.8430521859126250e+00 -5.7675841128104395e+00 -5.6930907751504520e+00 -5.6195595833814513e+00 
-5.5469781105570837e+00 -5.4753340902357248e+00 -5.4046154144074308e+00 -5.3348101314476741e+00 
-5.2659064440974861e+00 -5.1978927074697268e+00 -5.1307574270810159e+00 -5.0644892569091819e+00 
-4.9990769974757399e+00 -4.9345095939531580e+00 -4.8707761342965625e+00 -4.8078658473995830e+00 
-4.7457681012740007e+00 -4.6844724012529193e+00 -4.6239683882171478e+00 -4.5642458368444769e+00 
-4.5052946538815801e+00 -4.4471048764382264e+00 -4.3896666703035301e+00 -4.3329703282839453e+00 
-4.2770062685627304e+00 -4.2217650330805911e+00 -4.1672372859372446e+00 -4.1134138118136567e+00 
-4.0602855144145868e+00 -4.0078434149313269e+00 -3.9560786505242445e+00 -3.9049824728249511e+00 
-3.8545462464578004e+00 -3.8047614475804945e+00 -3.7556196624435301e+00 -3.7071125859682565e+00 
-3.6592320203432980e+00 -3.6119698736391048e+00 -3.5653181584403932e+00 -3.5192689904962604e+00 
-3.4738145873877224e+00 -3.4289472672124672e+00 -3.3846594472865981e+00 -3.3409436428631363e+00 
-3.2977924658670821e+00 -3.2551986236468302e+00 -3.2131549177416625e+00 -3.1716542426652126e+00 
-3.1306895847046166e+00 -3.0902540207351805e+00 -3.0503407170503518e+00 -3.0109429282068101e+00 
-2.9720539958844712e+00 -2.9336673477612134e+00 -2.8957764964021391e+00 -2.8583750381631847e+00 
-2.8214566521088882e+00 -2.7850150989441391e+00 -2.7490442199597167e+00 -2.7135379359914582e+00 
-2.6784902463928657e+00 -2.6438952280209786e+00 -2.6097470342353493e+00 -2.5760398939099609e+00 
-2.5427681104578674e+00 -2.5099260608684753e+00 -2.4775081947572368e+00 -2.4455090334276215e+00 
-2.4139231689452041e+00 -2.3827452632237081e+00 -2.3519700471228617e+00 -2.3215923195578951e+00 
-2.2916069466205484e+00 -2.2620088607114268e+00 -2.2327930596835648e+00 -2.2039546059970530e+00 
-2.1754886258845803e+00 -2.1473903085277550e+00 -2.1196549052440679e+00 -2.0922777286843504e+00 
-2.0652541520406005e+00 -2.0385796082640537e+00 -2.0122495892933205e+00 -1.9862596452925261e+00 
-1.9606053838992770e+00 -1.9352824694823372e+00 -1.9102866224088986e+00 -1.8856136183213146e+00 
-1.8612592874231697e+00 -1.8372195137745764e+00 -1.8134902345965715e+00 -1.7900674395844953e+00 
-1.7669471702302428e+00 -1.7441255191532641e+00 -1.7215986294402097e+00 -1.6993626939931021e+00 
-1.6774139548859273e+00 -1.6557487027295323e+00 -1.6343632760447437e+00 -1.6132540606435499e+00 
-1.5924174890183049e+00 -1.5718500397388118e+00 -1.5515482368571898e+00 -1.5315086493204317e+00 
-1.5117278903905478e+00 -1.4922026170721978e+00 -1.4729295295477203e+00 -1.4539053706194507e+00 
-1.4351269251592513e+00 -1.4165910195651445e+00 -1.3982945212249682e+00 -1.3802343379869551e+00 
-1.3624074176371530e+00 -1.3448107473835931e+00 -1.3274413533471203e+00 -1.3102963000587999e+00 
-1.2933726899638240e+00 -1.2766676629318039e+00 -1.2601783957734118e+00 -1.2439021017632519e+00 
-1.2278360301688973e+00 -1.2119774657860098e+00 -1.1963237284794639e+00 -1.1808721727303970e+00 
-1.1656201871891116e+00 -1.1505651942337505e+00 -1.1357046495346705e+00 -1.1210360416244494e+00 
-1.1065568914734367e+00 -1.0922647520707958e+00 -1.0781572080109505e+00 -1.0642318750853772e+00 
-1.0504863998796685e+00 -1.0369184593757967e+00 -1.0235257605595276e+00 -1.0103060400328834e+00 
-9.9725706363163091e-01 -9.8437662604770060e-01 -9.7166255045648353e-01 -9.5911268814894468e-01 
-9.4672491816848403e-01 -9.3449714695249075e-01 -9.2242730797852579e-01 -9.1051336141507577e-01 
-8.9875329377681468e-01 -8.8714511758432157e-01 -8.7568687102819154e-01 -8.6437661763748463e-01 
-8.5321244595245849e-01 -8.4219246920152646e-01 -8.3131482498238896e-01 -8.2057767494728173e-01 
-8.0997920449229643e-01 -7.9951762245069913e-01 -7.8919116079022522e-01 -7.7899807431427626e-01 
-7.6893664036697718e-01 -7.5900515854204376e-01 -7.4920195039540960e-01 -7.3952535916156537e-01 
-7.2997374947356131e-01 -7.2054550708662635e-01 -7.1123903860535731e-01 -7.0205277121442999e-01 
-6.9298515241279157e-01 -6.8403464975128259e-01 -6.7519975057365023e-01 -6.6647896176090549e-01 
-6.5787080947898280e-01 -6.4937383892965705e-01 -6.4098661410468416e-01 -6.3270771754310517e-01 
-6.2453575009169637e-01 -6.1646933066850873e-01 -6.0850709602946063e-01 -6.0064770053794714e-01 
-5.9288981593742440e-01 -5.8523213112693018e-01 -5.7767335193950553e-01 -5.7021220092347702e-01 
-5.6284741712656472e-01 -5.5557775588277825e-01 -5.4840198860206468e-01 -5.4131890256267468e-01 
-5.3432730070620904e-01 -5.2742600143531360e-01 -5.2061383841398545e-01 -5.1388966037045980e-01 
-5.0725233090264477e-01 -5.0070072828606171e-01 -4.9423374528427544e-01 -4.8785028896176613e-01 
-4.8154928049922235e-01 -4.7532965501121682e-01 -4.6919036136623865e-01 -4.6313036200904989e-01 
-4.5714863278533568e-01 -4.5124416276862028e-01 -4.4541595408941742e-01 -4.3966302176658878e-01 
-4.3398439354087925e-01 -4.2837910971060283e-01 -4.2284622296945135e-01 -4.1738479824639657e-01 
-4.1199391254766166e-01 -4.0667265480073195e-01 -4.0142012570038460e-01 -3.9623543755669915e-01 
-3.9111771414503965e-01 -3.8606609055796864e-01 -3.8107971305907645e-01 -3.7615773893869792e-01 
-3.7129933637149187e-01 -3.6650368427586083e-01 -3.6176997217518669e-01 -3.5709740006085772e-01 
-3.5248517825706543e-01 -3.4793252728734730e-01 -3.4343867774285386e-01 -3.3900287015231623e-01 
-3.3462435485369396e-01 -3.3030239186748034e-01 -3.2603625077164389e-01 -3.2182521057818519e-01 
-3.1766855961128987e-01 -3.1356559538705070e-01 -3.0951562449474845e-01 -3.0551796247966295e-01 
-3.0157193372739882e-01 -2.9767687134970500e-01 -2.9383211707176898e-01 -2.9003702112096702e-01 
-2.8629094211705058e-01 -2.8259324696375215e-01 -2.7894331074178985e-01 -2.7534051660325493e-01 
-2.7178425566736308e-01 -2.6827392691755181e-01 -2.6480893709990749e-01 -2.6138870062290398e-01 
-2.5801263945843605e-01 -2.5468018304413126e-01 -2.5139076818692485e-01 -2.4814383896787637e-01 
-2.4493884664821977e-01 -2.4177524957662494e-01 -2.3865251309765703e-01 -2.3557010946141860e-01 
-2.3252751773435892e-01 -2.2952422371123427e-01 -2.2655971982820669e-01 -2.2363350507706409e-01 
-2.2074508492054892e-01 
</PP_LOCAL>


<PP_NONLOCAL>
  <PP_BETA>
  1  1      Beta    L
  1189  
 -7.9290797495308519e-11  -8.1379392314591514e-11  -8.3523002702839172e-11  -8.5723077822341969e-11 
 -8.7981105007700703e-11  -9.0298610771321791e-11  -9.2677161835397624e-11  -9.5118366191070479e-11 
 -9.7623874185496010e-11  -1.0019537963754095e-10  -1.0283462098286906e-10  -1.0554338244919010e-10 
 -1.0832349526246600e-10  -1.1117683888488944e-10  -1.1410534228547140e-10  -1.1711098524409926e-10 
 -1.2019579968994199e-10  -1.2336187107511265e-10  -1.2661133978451388e-10  -1.2994640258281882e-10 
 -1.3336931409956895e-10  -1.3688238835338917e-10  -1.4048800031635275e-10  -1.4418858751955347e-10 
 -1.4798665170096969e-10  -1.5188476049673416e-10  -1.5588554917695479e-10  -1.5999172242725766e-10 
 -1.6420605617725805e-10  -1.6853139947719390e-10  -1.7297067642399451e-10  -1.7752688813808022e-10 
 -1.8220311479223466e-10  -1.8700251769392029e-10  -1.9192834142244168e-10  -1.9698391602240647e-10 
 -2.0217265925496168e-10  -2.0749807890833160e-10  -2.1296377516921695e-10  -2.1857344305665766e-10 
 -2.2433087492000828e-10  -2.3023996300271016e-10  -2.3630470207359880e-10  -2.4252919212751738e-10 
 -2.4891764115707279e-10  -2.5547436799739881e-10  -2.6220380524585253e-10  -2.6911050225862294e-10 
 -2.7619912822626678e-10  -2.8347447533026177e-10  -2.9094146198270439e-10  -2.9860513615134526e-10 
 -3.0647067877220709e-10  -3.1454340725209843e-10  -3.2282877906338247e-10  -3.3133239543343814e-10 
 -3.4006000513130415e-10  -3.4901750835406839e-10  -3.5821096071562485e-10  -3.6764657734050450e-10 
 -3.7733073706553456e-10  -3.8726998675217924e-10  -3.9747104571246656e-10  -4.0794081025150409e-10 
 -4.1868635832964487e-10  -4.2971495434745806e-10  -4.4103405405674785e-10  -4.5265130960092178e-10 
 -4.6457457468813894e-10  -4.7681190990071574e-10  -4.8937158814438954e-10  -5.0226210024112152e-10 
 -5.1549216066921905e-10  -5.2907071345465642e-10  -5.4300693821758448e-10  -5.5731025637810225e-10 
 -5.7199033752550261e-10  -5.8705710595528697e-10  -6.0252074737836906e-10  -6.1839171580701205e-10 
 -6.3468074062213827e-10  -6.5139883382680770e-10  -6.6855729749075814e-10  -6.8616773139103566e-10 
 -7.0424204085389754e-10  -7.2279244480326654e-10  -7.4183148402119843e-10  -7.6137202962593484e-10 
 -7.8142729177327638e-10  -8.0201082858715885e-10  -8.2313655532546979e-10  -8.4481875378729751e-10 
 -8.6707208196798453e-10  -8.8991158396850248e-10  -9.1335270016583802e-10  -9.3741127765129291e-10 
 -9.6210358094373330e-10  -9.8744630298502910e-10  -1.0134565764251374e-09  -1.0401519852044323e-09 
 -1.0675505764411406e-09  -1.0956708726318848e-09  -1.1245318841736187e-09  -1.1541531222153930e-09 
 -1.1845546118486542e-09  -1.2157569056449830e-09  -1.2477810975504326e-09  -1.2806488371458657e-09 
 -1.3143823442829059e-09  -1.3490044241054393e-09  -1.3845384824667673e-09  -1.4210085417528929e-09 
 -1.4584392571225811e-09  -1.4968559331752217e-09  -1.5362845410577247e-09  -1.5767517360220366e-09 
 -1.6182848754451328e-09  -1.6609120373236873e-09  -1.7046620392558904e-09  -1.7495644579232912e-09 
 -1.7956496490857867e-09  -1.8429487681033206e-09  -1.8914937909981417e-09  -1.9413175360718325e-09 
 -1.9924536860918059e-09  -2.0449368110621746e-09  -2.0988023915944369e-09  -2.1540868428937929e-09 
 -2.2108275393772531e-09  -2.2690628399402389e-09  -2.3288321138887107e-09  -2.3901757675543943e-09 
 -2.4531352716110681e-09  -2.5177531891103973e-09  -2.5840732042562466e-09  -2.6521401519369592e-09 
 -2.7220000480355291e-09  -2.7937001205381857e-09  -2.8672888414624166e-09  -2.9428159596259826e-09 
 -3.0203325342791451e-09  -3.0998909696227520e-09  -3.1815450502356010e-09  -3.2653499774350068e-09 
 -3.3513624065951075e-09  -3.4396404854481986e-09  -3.5302438933949682e-09  -3.6232338818501950e-09 
 -3.7186733156512036e-09  -3.8166267155570667e-09  -3.9171603018672554e-09  -4.0203420391893074e-09 
 -4.1262416823856754e-09  -4.2349308237308661e-09  -4.3464829413108041e-09  -4.4609734486970127e-09 
 -4.5784797459293503e-09  -4.6990812718416196e-09  -4.8228595577655132e-09  -4.9498982826492120e-09 
 -5.0802833296278460e-09  -5.2141028440840590e-09  -5.3514472932380091e-09  -5.4924095273070017e-09 
 -5.6370848422761647e-09  -5.7855710443225361e-09  -5.9379685159361985e-09  -6.0943802837830946e-09 
 -6.2549120883554614e-09  -6.4196724554568886e-09  -6.5887727695704339e-09  -6.7623273491593195e-09 
 -6.9404535239510976e-09  -7.1232717142576698e-09  -7.3109055123846091e-09  -7.5034817661849351e-09 
 -7.7011306648137891e-09  -7.9039858267420226e-09  -8.1121843900881339e-09  -8.3258671053297003e-09 
 -8.5451784304568898e-09  -8.7702666286325251e-09  -9.0012838684245508e-09  -9.2383863266788152e-09 
 -9.4817342941016065e-09  -9.7314922836234379e-09  -9.9878291416171804e-09  -1.0250918162045978e-08 
 -1.0520937203617757e-08  -1.0798068810025977e-08  -1.1082500333357524e-08  -1.1374424060751399e-08 
 -1.1674037344393771e-08  -1.1981542734937266e-08  -1.2297148118434766e-08  -1.2621066856880073e-08 
 -1.2953517932450879e-08  -1.3294726095551029e-08  -1.3644922016752680e-08  -1.4004342442740623e-08 
 -1.4373230356364588e-08  -1.4751835140907440e-08  -1.5140412748680512e-08  -1.5539225874060012e-08 
 -1.5948544131081432e-08  -1.6368644235712095e-08  -1.6799810192925002e-08  -1.7242333488700675e-08 
 -1.7696513287086333e-08  -1.8162656632446237e-08  -1.8641078657039467e-08  -1.9132102794065706e-08 
 -1.9636060996322958e-08  -2.0153293960625157e-08  -2.0684151358131274e-08  -2.1228992070741732e-08 
 -2.1788184433721793e-08  -2.2362106484716357e-08  -2.2951146219323973e-08  -2.3555701853403234e-08 
 -2.4176182092288901e-08  -2.4813006407099616e-08  -2.5466605318323957e-08  -2.6137420686876999e-08 
 -2.6825906012823561e-08  -2.7532526741970577e-08  -2.8257760580535683e-08  -2.9002097818104861e-08 
 -2.9766041659097237e-08  -3.0550108562961721e-08  -3.1354828593334638e-08  -3.2180745776395432e-08 
 -3.3028418468661792e-08  -3.3898419734473447e-08  -3.4791337733419778e-08  -3.5707776117973014e-08 
 -3.6648354441595901e-08  -3.7613708577599835e-08  -3.8604491149036996e-08  -3.9621371969916011e-08 
 -4.0665038498041138e-08  -4.1736196299779486e-08  -4.2835569527071763e-08  -4.3963901407008107e-08 
 -4.5121954744300798e-08  -4.6310512436993145e-08  -4.7530378005753065e-08  -4.8782376137109541e-08 
 -5.0067353240999671e-08  -5.1386178023001535e-08  -5.2739742071642270e-08  -5.4128960461176288e-08 
 -5.5554772370242347e-08  -5.7018141716817358e-08  -5.8520057809896626e-08  -6.0061536018340245e-08 
 -6.1643618457339197e-08  -6.3267374692964245e-08  -6.4933902465274688e-08  -6.6644328430475309e-08 
 -6.8399808922624611e-08  -7.0201530735407767e-08  -7.2050711924504935e-08  -7.3948602631095961e-08 
 -7.5896485927059408e-08  -7.7895678682437831e-08  -7.9947532455755440e-08  -8.2053434407791280e-08 
 -8.4214808239425451e-08  -8.6433115154193875e-08  -8.8709854846202158e-08  -9.1046566514067798e-08 
 -9.3444829901576405e-08  -9.5906266365757387e-08  -9.8432539973100078e-08  -1.0102535862465438e-07 
 -1.0368647521077635e-07  -1.0641768879630004e-07  -1.0922084583693865e-07  -1.1209784142773666e-07 
 -1.1505062058441920e-07  -1.1808117955850382e-07  -1.2119156718706472e-07  -1.2438388627806251e-07 
 -1.2766029503217458e-07  -1.3102300850208704e-07  -1.3447430009023539e-07  -1.3801650308600355e-07 
 -1.4165201224341879e-07  -1.4538328540040992e-07  -1.4921284514071943e-07  -1.5314328049955896e-07 
 -1.5717724871394290e-07  -1.6131747701924377e-07  -1.6556676449321985e-07  -1.6992798394864027e-07 
 -1.7440408387577313e-07  -1.7899809043605628e-07  -1.8371310950829489e-07  -1.8855232878877273e-07 
 -1.9351901994669753e-07  -1.9861654083643912e-07  -2.0384833776805553e-07  -2.0921794783764643e-07 
 -2.1472900131910782e-07  -2.2038522411890767e-07  -2.2619044029554409e-07  -2.3214857464538943e-07 
 -2.3826365535667225e-07  -2.4453981673339068e-07  -2.5098130199100255e-07  -2.5759246612578446e-07 
 -2.6437777885979919e-07  -2.7134182766346826e-07  -2.7848932085779182e-07  -2.8582509079831843e-07 
 -2.9335409714301829e-07  -3.0108143020627136e-07  -3.0901231440124318e-07  -3.1715211177297674e-07 
 -3.2550632562459015e-07  -3.3408060423904160e-07  -3.4288074469897123e-07  -3.5191269680721908e-07 
 -3.6118256711065776e-07  -3.7069662303007913e-07  -3.8046129709892286e-07  -3.9048319131371731e-07 
 -4.0076908159918318e-07  -4.1132592239101957e-07  -4.2216085133947787e-07  -4.3328119413690675e-07 
 -4.4469446947254370e-07  -4.5640839411789999e-07  -4.6843088814619255e-07  -4.8077008028935229e-07 
 -4.9343431343624195e-07  -5.0643215027580312e-07  -5.1977237908896170e-07  -5.3346401969321365e-07 
 -5.4751632954391331e-07  -5.6193880999641285e-07  -5.7674121273327517e-07  -5.9193354636093994e-07 
 -6.0752608318029495e-07  -6.2352936613574651e-07  -6.3995421594751133e-07  -6.5681173843194077e-07 
 -6.7411333201486576e-07  -6.9187069544303878e-07  -7.1009583569890469e-07  -7.2880107612407879e-07 
 -7.4799906475702084e-07  -7.6770278289057818e-07  -7.8792555385518983e-07  -8.0868105203371908e-07 
 -8.2998331211401743e-07  -8.5184673858551117e-07  -8.7428611548624145e-07  -8.9731661640698313e-07 
 -9.2095381475921714e-07  -9.4521369431394237e-07  -9.7011266001846596e-07  -9.9566754909852049e-07 
 -1.0218956424532505e-06  -1.0488146763507863e-06  -1.0764428544323794e-06  -1.1047988600332161e-06 
 -1.1339018688283026e-06  -1.1637715618120067e-06  -1.1944281386200603e-06  -1.2258923312031001e-06 
 -1.2581854178610075e-06  -1.2913292376476229e-06  -1.3253462051555828e-06  -1.3602593256913750e-06 
 -1.3960922108508945e-06  -1.4328690945061204e-06  -1.4706148492137514e-06  -1.5093550030570159e-06 
 -1.5491157569320544e-06  -1.5899240022906867e-06  -1.6318073393516106e-06  -1.6747940957924361e-06 
 -1.7189133459352957e-06  -1.7641949304390725e-06  -1.8106694765116698e-06  -1.8583684186560959e-06 
 -1.9073240199644975e-06  -1.9575693939746460e-06  -2.0091385271037815e-06  -2.0620663016751159e-06 
 -2.1163885195526781e-06  -2.1721419264006561e-06  -2.2293642365837565e-06  -2.2880941587255781e-06 
 -2.3483714219424684e-06  -2.4102368027707539e-06  -2.4737321528057387e-06  -2.5389004270713552e-06 
 -2.6057857131398454e-06  -2.6744332610213931e-06  -2.7448895138441235e-06  -2.8172021393454638e-06 
 -2.8914200621964054e-06  -2.9675934971807803e-06  -3.0457739832522814e-06  -3.1260144184925401e-06 
 -3.2083690959941925e-06  -3.2928937406935519e-06  -3.3796455471780954e-06  -3.4686832184947412e-06 
 -3.5600670059854852e-06  -3.6538587501777790e-06  -3.7501219227576875e-06  -3.8489216696546381e-06 
 -3.9503248552674601e-06  -4.0544001078619561e-06  -4.1612178661713788e-06  -4.2708504272317447e-06 
 -4.3833719954850013e-06  -4.4988587331838133e-06  -4.6173888121326705e-06  -4.7390424668010623e-06 
 -4.8639020488452177e-06  -4.9920520830761855e-06  -5.1235793249127071e-06  -5.2585728193587630e-06 
 -5.3971239615463502e-06  -5.5393265588854972e-06  -5.6852768948645011e-06  -5.8350737945444032e-06 
 -5.9888186917933280e-06  -6.1466156983070288e-06  -6.3085716744636951e-06  -6.4747963020620932e-06 
 -6.6454021589935886e-06  -6.8205047958999851e-06  -7.0002228148703910e-06  -7.1846779502320081e-06 
 -7.3739951514910021e-06  -7.5683026684813705e-06  -7.7677321387810894e-06  -7.9724186774566930e-06 
 -8.1825009691988474e-06  -8.3981213629135355e-06  -8.6194259688348325e-06  -8.8465647582275101e-06 
 -9.0796916657492508e-06  -9.3189646945443128e-06  -9.5645460241426181e-06  -9.8166021212398176e-06 
 -1.0075303853436769e-05  -1.0340826606018098e-05  -1.0613350401852517e-05  -1.0893060024499440e-05 
 -1.1180145144609029e-05  -1.1474800449704846e-05  -1.1777225777441459e-05  -1.2087626252431142e-05 
 -1.2406212426737107e-05  -1.2733200424133155e-05  -1.3068812088232070e-05  -1.3413275134589084e-05 
 -1.3766823306888202e-05  -1.4129696537323628e-05  -1.4502141111290787e-05  -1.4884409836505092e-05 
 -1.5276762216669902e-05  -1.5679464629818439e-05  -1.6092790511458164e-05  -1.6517020542649773e-05 
 -1.6952442843156405e-05  -1.7399353169803129e-05  -1.7858055120190355e-05  -1.8328860341909037e-05 
 -1.8812088747409760e-05  -1.9308068734682617e-05  -1.9817137413908472e-05  -2.0339640840247858e-05 
 -2.0875934252937625e-05  -2.1426382320871364e-05  -2.1991359394843882e-05  -2.2571249766645874e-05 
 -2.3166447935200259e-05  -2.3777358879937103e-05  -2.4404398341609906e-05  -2.5047993110762394e-05 
 -2.5708581324060546e-05  -2.6386612768711353e-05  -2.7082549195196433e-05  -2.7796864638554916e-05 
 -2.8530045748458166e-05  -2.9282592128324537e-05  -3.0055016683731358e-05  -3.0847845980388198e-05 
 -3.1661620611943910e-05  -3.2496895577907883e-05  -3.3354240671974516e-05  -3.4234240881049256e-05 
 -3.5137496795282747e-05  -3.6064625029430080e-05  -3.7016258655860984e-05  -3.7993047649557538e-05 
 -3.8995659345445865e-05  -4.0024778908419956e-05  -4.1081109816425330e-05  -4.2165374356983909e-05 
 -4.3278314137551077e-05  -4.4420690610110438e-05  -4.5593285610423396e-05  -4.6796901912363381e-05 
 -4.8032363797779977e-05  -4.9300517642351074e-05  -5.0602232517895787e-05  -5.1938400811637362e-05 
 -5.3309938862919640e-05  -5.4717787617897868e-05  -5.6162913302741216e-05  -5.7646308115902709e-05 
 -5.9168990940028520e-05  -6.0732008074099990e-05  -6.2336433986419603e-05  -6.3983372089073244e-05 
 -6.5673955534520723e-05  -6.7409348034991497e-05  -6.9190744705380905e-05  -7.1019372930369818e-05 
 -7.2896493256512310e-05  -7.4823400310062508e-05  -7.6801423741337712e-05  -7.8831929196442152e-05 
 -8.0916319317205147e-05  -8.3056034770214633e-05  -8.5252555305860271e-05  -8.7507400848330658e-05 
 -8.9822132617542051e-05  -9.2198354284011959e-05  -9.4637713157724358e-05  -9.7141901412073223e-05 
 -9.9712657344006494e-05  -1.0235176667153683e-04  -1.0506106386982251e-04  -1.0784243354707028e-04 
 -1.1069781186155270e-04  -1.1362918798108352e-04  -1.1663860558634110e-04  -1.1972816441948155e-04 
 -1.2290002187953785e-04  -1.2615639466615370e-04  -1.2949956047326167e-04  -1.3293185973437392e-04 
 -1.3645569742121413e-04  -1.4007354489748970e-04  -1.4378794182966616e-04  -1.4760149815667899e-04 
 -1.5151689612059231e-04  -1.5553689236028824e-04  -1.5966432007035635e-04  -1.6390209122742731e-04 
 -1.6825319888629525e-04  -1.7272071954824904e-04  -1.7730781560414149e-04  -1.8201773785481683e-04 
 -1.8685382811162106e-04  -1.9181952187983121e-04  -1.9691835112794909e-04  -2.0215394714592351e-04 
 -2.0753004349548980e-04  -2.1305047905593950e-04  -2.1871920116877357e-04  -2.2454026888482547e-04 
 -2.3051785631759085e-04  -2.3665625610665587e-04  -2.4295988299526477e-04  -2.4943327752625206e-04 
 -2.5608110986071635e-04  -2.6290818372402103e-04  -2.6991944048387185e-04  -2.7711996336543759e-04 
 -2.8451498180868338e-04  -2.9210987597329881e-04  -2.9991018139684055e-04  -3.0792159381193475e-04 
 -3.1614997412864249e-04  -3.2460135358834745e-04  -3.3328193909579900e-04  -3.4219811873622565e-04 
 -3.5135646748472952e-04  -3.6076375311549678e-04  -3.7042694231866080e-04  -3.8035320703302120e-04 
 -3.9054993100315631e-04  -4.0102471656985704e-04  -4.1178539170318509e-04  -4.2284001728787893e-04 
 -4.3419689467124651e-04  -4.4586457348413992e-04  -4.5785185974607246e-04  -4.7016782426601814e-04 
 -4.8282181135095650e-04  -4.9582344783476867e-04  -5.0918265244061331e-04  -5.2290964549054871e-04 
 -5.3701495897674658e-04  -5.5150944700928521e-04  -5.6640429665620021e-04  -5.8171103919215956e-04 
 -5.9744156177285945e-04  -6.1360811955302912e-04  -6.3022334826670461e-04  -6.4730027728930085e-04 
 -6.6485234320187486e-04  -6.8289340387890109e-04  -7.0143775312183233e-04  -7.2050013586173549e-04 
 -7.4009576395533949e-04  -7.6024033259992506e-04  -7.8095003739364892e-04  -8.0224159206908167e-04 
 -8.2413224692900165e-04  -8.4663980801478783e-04  -8.6978265703914416e-04  -8.9357977211629292e-04 
 -9.1805074932427462e-04  -9.4321582513556682e-04  -9.6909589975383362e-04  -9.9571256139632694e-04 
 -1.0230881115632399e-03  -1.0512455913371276e-03  -1.0802088087574699e-03  -1.1100023673174220e-03 
 -1.1406516956319025e-03  -1.1721830783283445e-03  -1.2046236882136624e-03  -1.2380016197734106e-03 
 -1.2723459240614526e-03  -1.3076866450410980e-03  -1.3440548574412505e-03  -1.3814827061938396e-03 
 -1.4200034475216981e-03  -1.4596514917489449e-03  -1.5004624479089937e-03  -1.5424731702284864e-03 
 -1.5857218065686745e-03  -1.6302478489091854e-03  -1.6760921859625359e-03  -1.7232971580113906e-03 
 -1.7719066140642144e-03  -1.8219659714287829e-03  -1.8735222778069008e-03  -1.9266242760176602e-03 
 -1.9813224714606611e-03  -2.0376692024348126e-03  -2.0957187134325065e-03  -2.1555272315333606e-03 
 -2.2171530460260544e-03  -2.2806565913911919e-03  -2.3461005337826629e-03  -2.4135498611493325e-03 
 -2.4830719771434559e-03  -2.5547367989666170e-03  -2.6286168593083691e-03  -2.7047874125371166e-03 
 -2.7833265453069069e-03  -2.8643152917479002e-03  -2.9478377534121140e-03  -3.0339812241496522e-03 
 -3.1228363200938884e-03  -3.2144971149371290e-03  -3.3090612806806917e-03  -3.4066302340454136e-03 
 -3.5073092887300200e-03  -3.6112078137055361e-03  -3.7184393977338554e-03  -3.8291220202976485e-03 
 -3.9433782291267870e-03  -4.0613353245032699e-03  -4.1831255505221437e-03  -4.3088862934797835e-03 
 -4.4387602875532407e-03  -4.5728958279244907e-03  -4.7114469914917084e-03  -4.8545738652951654e-03 
 -5.0024427827684509e-03  -5.1552265679054160e-03  -5.3131047874099098e-03  -5.4762640108678247e-03 
 -5.6448980789497328e-03  -5.8192083796158615e-03  -5.9994041322541667e-03  -6.1857026796348167e-03 
 -6.3783297875113576e-03  -6.5775199516380925e-03  -6.7835167119055786e-03  -6.9965729732193310e-03 
 -7.2169513326612207e-03  -7.4449244123771779e-03  -7.6807751975276461e-03  -7.9247973785180476e-03 
 -8.1772956965938896e-03  -8.4385862917380969e-03  -8.7089970516450853e-03  -8.9888679603661436e-03 
 -9.2785514450214462e-03  -9.5784127187552703e-03  -9.8888301178693822e-03  -1.0210195430805126e-02 
 -1.0542914216353705e-02  -1.0887406108156621e-02  -1.1244105102209979e-02  -1.1613459823707106e-02 
 -1.1995933769140434e-02  -1.2392005519133581e-02  -1.2802168916986436e-02  -1.3226933207386545e-02 
 -1.3666823129167487e-02  -1.4122378955376555e-02  -1.4594156473248111e-02  -1.5082726895962281e-02 
 -1.5588676697300964e-02  -1.6112607359489890e-02  -1.6655135023639248e-02  -1.7216890031259934e-02 
 -1.7798516344342027e-02  -1.8400670830433331e-02  -1.9024022398050355e-02  -1.9669250966593822e-02 
 -2.0337046253726798e-02  -2.1028106361911259e-02  -2.1743136144491235e-02  -2.2482845330364990e-02 
 -2.3247946384914075e-02  -2.4039152083461104e-02  -2.4857172772126963e-02  -2.5702713289562182e-02 
 -2.6576469521659114e-02  -2.7479124560027574e-02  -2.8411344433764248e-02  -2.9373773382889799e-02 
 -3.0367028640802294e-02  -3.1391694692232130e-02  -3.2448316972525017e-02  -3.3537394973665070e-02 
 -3.4659374722331132e-02  -3.5814640595502011e-02  -3.7003506439745780e-02  -3.8226205961405108e-02 
 -3.9482882356475922e-02  -4.0773577151139662e-02  -4.2098218226703912e-02  -4.3456607006198987e-02 
 -4.4848404784122775e-02  -4.6273118185892567e-02  -4.7730083749492197e-02  -4.9218451628673048e-02 
 -5.0737168424916212e-02  -5.2284959164273143e-02  -5.3860308445231368e-02  -5.5461440794999151e-02 
 -5.7086300284181254e-02  -5.8732529463876429e-02  -6.0397447704976133e-02  -6.2078029037129313e-02 
 -6.3770879604817046e-02  -6.5472214880649665e-02  -6.7177836801853671e-02  -6.8883111025530519e-02 
 -7.0582944532215489e-02  -7.2271763846144102e-02  -7.3943494184957603e-02  -7.5591539901665297e-02 
 -7.7208766637591561e-02  -7.8787485666393445e-02  -8.0319440975108083e-02  -8.1795799696945670e-02 
 -8.3207146579710706e-02  -8.4543483239896411e-02  -8.5794233011239104e-02  -8.6948252242366741e-02 
 -8.7993848924755411e-02  -8.8918809532390120e-02  -8.9710434920851151e-02  -9.0355586058936857e-02 
 -9.0840740244460941e-02  -9.1152058284209109e-02  -9.1275462896308751e-02  -9.1196728326491144e-02 
 -9.0901580867723694e-02  -9.0375809649709885e-02  -8.9605386737208595e-02  -8.8576595259833232e-02 
 -8.7276164002783083e-02  -8.5691406623481917e-02  -8.3810363422277989e-02  -8.1621943380115691e-02 
 -7.9116063974972339e-02  -7.6283786097331843e-02  -7.3117441205022643e-02  -6.9610747700459372e-02 
 -6.5758913398916694e-02  -6.1558720914021134e-02  -5.7008592850869663e-02  -5.2108633905528778e-02 
 -4.6860647355585233e-02  -4.1268124011879743e-02  -3.5336202486099533e-02  -2.9071600580281701e-02 
 -2.2482518653740055e-02  -1.5578516872020888e-02  -8.3703691842518801e-03  -8.6989762651586665e-04 
 6.9102089175529452e-03  1.4956587007580610e-02  2.3255397206514022e-02  3.1792523780999254e-02 
 4.0553769933074635e-02  4.9525042479113740e-02  5.8692518528823463e-02  6.8042784152488656e-02 
 7.7562942645262756e-02  8.7240676901985989e-02  9.7064260132324581e-02  1.0702250660915646e-01 
 1.1710465570936329e-01  1.2730018452883052e-01  1.3759854682234554e-01  1.4798883893122225e-01 
 1.5845939660281605e-01  1.6899733004757736e-01  1.7958800808126196e-01  1.9021450561672007e-01 
 2.0085703195190793e-01  2.1149236009948524e-01  2.2209327967386339e-01  2.3262809745905755e-01 
 2.4306021060608832e-01  2.5334777735460157e-01  2.6344350917114856e-01  2.7329460621017643e-01 
 2.8284285503594370e-01  2.9202490363646738e-01  3.0077272399853949e-01  3.0901426701996654e-01 
 3.1667430847287636e-01  3.2367547829398774e-01  3.2993945888344084e-01  3.3538833157980041e-01 
 3.3994604429046205e-01  3.4353996763776912e-01  3.4610250216415051e-01  3.4757269533638768e-01 
 3.4789782448113293e-01  3.4703490051498836e-01  3.4495204750131730e-01  3.4162971472450454e-01 
 3.3706168111210272e-01  3.3125581639686758e-01  3.2423456929401029e-01  3.1603516000039589e-01 
 3.0670946228621754e-01  2.9632356910705587e-01  2.8495704472859912e-01  2.7270187551928959e-01 
 2.5966114051295375e-01  2.4594743125735818e-01  2.3168105804151973e-01  2.1698808605627726e-01 
 2.0199825014744491e-01  1.8684280037567591e-01  1.7165233246556047e-01  1.5655465733660462e-01 
 1.4167276225648393e-01  1.2712291280844909e-01  1.1301293995300045e-01  9.9440750184457957e-02 
 8.6493089385053887e-02  7.4244582754291036e-02  6.2757064460776335e-02  5.2079201763073762e-02 
 4.2246409610000306e-02  3.3281043478013403e-02  2.5192850722108008e-02  1.7979654253086147e-02 
 1.1628237101544741e-02  6.1153925219737800e-03  1.4091018005597483e-03  -2.5301991336640879e-03 
 -5.7483028842461011e-03  -8.2959005598066543e-03  -1.0227272857433902e-02  -1.1599032944209093e-02 
 -1.2468947479930149e-02  -1.2894857287714612e-02  -1.2933714077794674e-02  -1.2640744481849353e-02 
 -1.2068747660876962e-02  -1.1267528083804212e-02  -1.0283460879860415e-02  -9.1591835542799462e-03 
 -7.9334048962960094e-03  -6.6408196374694367e-03  -5.3121158402988089e-03  -3.9740610848450859e-03 
 -2.6496532228445151e-03  -1.3583217125271321e-03  -1.1616624734710077e-04  1.0637795461654605e-03 
 2.1712702388943404e-03  3.1985659572664107e-03  4.1401527876157784e-03  4.9924724603526757e-03 
 5.7536660245398989e-03  6.4233348153204545e-03  7.0023207620112972e-03  7.4925070087176098e-03 
 7.8966389342276320e-03  8.2181649650045121e-03  8.4610960536805110e-03  8.6298824259125155e-03 
 8.7293058295587703e-03  8.7643856796373390e-03  8.7402973526167303e-03  8.6623010517484361e-03 
 8.5356798069882410e-03  8.3656853552861437e-03  8.1574908411243732e-03  7.9161494691307056e-03 
 7.6465584195492455e-03  7.3534274961443878e-03  7.0412521097002493e-03  6.7142903073940247e-03 
 6.3765436389329588e-03  6.0317417057730634e-03  5.6833302730800502e-03  5.3344628385470433e-03 
 4.9879955514441684e-03  4.6464853629905609e-03  4.3121912687640578e-03  3.9870784785454019e-03 
 3.6728253213774522e-03  3.3708326660611509e-03  3.0822356115480323e-03  2.8079171792079415e-03 
 2.5485237207360841e-03  2.3044817422985179e-03  2.0760158377878288e-03  1.8631674220074353e-03 
 1.6658139581966650e-03  1.4836883833995111e-03  1.3163984493950876e-03  1.1634457158212598e-03 
 1.0242439551279025e-03  8.9813675544563975e-04  7.8441413658019528e-04  6.8232802538181877e-04 
 5.9110646884619547e-04  5.0996649567627513e-04  4.3812556888733474e-04  3.7481160261572535e-04 
 3.1927154494611741e-04  2.7077855472387556e-04  2.2863782350968575e-04  1.9219111371675412e-04 
 1.6082010033217068e-04  1.3394861636159441e-04  1.1104391127434360e-04  9.1617037388822345e-05 
 7.5222481547390917e-05  6.1457158879786908e-05  4.9958882302960766e-05  4.0404416042155460e-05 
 3.2507214303482484e-05  2.6014937700507650e-05  2.0706830543470296e-05  1.6391032029731118e-05 
 1.2901884074224685e-05  1.0097288301502788e-05  7.8561548487341420e-06  6.0759763146699863e-06 
 4.6705516001342340e-06  3.5678766364055756e-06  2.7082121649787417e-06  2.0423328486325926e-06 
 1.5299570594320655e-06  1.1383526769532702e-06  8.4111108566331220e-07  6.1707921693781474e-07 
 4.4943785571481326e-07  3.2491343599561378e-07  2.3311009130191170e-07  1.6594871365659058e-07 
 1.1720011960678801e-07  8.2100041614765611e-08  5.7034482196830255e-08  3.9284920227567615e-08 
 2.6823886007733231e-08  1.8152476082055991e-08  1.2172421695800153e-08  8.0863258807188319e-09 
 5.3206217410917606e-09  3.4666635791303171e-09  2.2361344182869752e-09  1.4276348239882554e-09 
 9.0190923675238807e-10  5.6367106108157789e-10  3.4841253796491937e-10  2.1293743084638880e-10 
 1.2864193800571225e-10  7.6800595671235221e-11  4.5297485281488771e-11  2.6386631954813527e-11 
 1.5176227692563029e-11  8.6154907496281594e-12  4.8260900885811846e-12  2.6666711155992638e-12 
 1.4529743946280055e-12  7.8039249779666580e-13  4.1303149336646205e-13  2.1533412964162701e-13 
 1.1054591351228664e-13  5.5861028605251793e-14  2.7774394474308768e-14  1.3582423636250037e-14 
 6.5302550545432581e-15  3.0854871820257436e-15  1.4320968088276641e-15  6.5265957343494859e-16 
 2.9191063413483359e-16  1.2809460131935674e-16  5.5112702322526675e-17  2.3234128519671249e-17 
 9.5997415090521916e-18  3.8789936435398592e-18  1.5384067453685231e-18  5.9608148869030326e-19 
 2.2580978814891692e-19  8.4033277244234064e-20  3.0287117936198387e-20  1.0204987423774975e-20 
 3.2915377458537508e-21  1.3232430339556015e-21  0.0000000000000000e+00  0.0000000000000000e+00 
 0.0000000000000000e+00  0.0000000000000000e+00  0.0000000000000000e+00  0.0000000000000000e+00 
 0.0000000000000000e+00  0.0000000000000000e+00  0.0000000000000000e+00  0.0000000000000000e+00 
 0.0000000000000000e+00  0.0000000000000000e+00  0.0000000000000000e+00  0.0000000000000000e+00 
 0.0000000000000000e+00  0.0000000000000000e+00  0.0000000000000000e+00  0.0000000000000000e+00 
 0.0000000000000000e+00  0.0000000000000000e+00  0.0000000000000000e+00  0.0000000000000000e+00 
 0.0000000000000000e+00  0.0000000000000000e+00  0.0000000000000000e+00  0.0000000000000000e+00 
 0.0000000000000000e+00  0.0000000000000000e+00  0.0000000000000000e+00  0.0000000000000000e+00 
 0.0000000000000000e+00  0.0000000000000000e+00  0.0000000000000000e+00  0.0000000000000000e+00 
 0.0000000000000000e+00  0.0000000000000000e+00  0.0000000000000000e+00  0.0000000000000000e+00 
 0.0000000000000000e+00  0.0000000000000000e+00  0.0000000000000000e+00  0.0000000000000000e+00 
 0.0000000000000000e+00  0.0000000000000000e+00  0.0000000000000000e+00  0.0000000000000000e+00 
 0.0000000000000000e+00  0.0000000000000000e+00  0.0000000000000000e+00  0.0000000000000000e+00 
 0.0000000000000000e+00  0.0000000000000000e+00  0.0000000000000000e+00  0.0000000000000000e+00 
 0.0000000000000000e+00  0.0000000000000000e+00  0.0000000000000000e+00  0.0000000000000000e+00 
 0.0000000000000000e+00  0.0000000000000000e+00  0.0000000000000000e+00  0.0000000000000000e+00 
 0.0000000000000000e+00  0.0000000000000000e+00  0.0000000000000000e+00  0.0000000000000000e+00 
 0.0000000000000000e+00  0.0000000000000000e+00  0.0000000000000000e+00  0.0000000000000000e+00 
 0.0000000000000000e+00  0.0000000000000000e+00  0.0000000000000000e+00  0.0000000000000000e+00 
 0.0000000000000000e+00  0.0000000000000000e+00  0.0000000000000000e+00  0.0000000000000000e+00 
 0.0000000000000000e+00  0.0000000000000000e+00  0.0000000000000000e+00  0.0000000000000000e+00 
 0.0000000000000000e+00  0.0000000000000000e+00  0.0000000000000000e+00  0.0000000000000000e+00 
 0.0000000000000000e+00  0.0000000000000000e+00  0.0000000000000000e+00  0.0000000000000000e+00 
 0.0000000000000000e+00  0.0000000000000000e+00  0.0000000000000000e+00  0.0000000000000000e+00 
 0.0000000000000000e+00  0.0000000000000000e+00  0.0000000000000000e+00  0.0000000000000000e+00 
 0.0000000000000000e+00  0.0000000000000000e+00  0.0000000000000000e+00  0.0000000000000000e+00 
 0.0000000000000000e+00  0.0000000000000000e+00  0.0000000000000000e+00  0.0000000000000000e+00 
 0.0000000000000000e+00  0.0000000000000000e+00  0.0000000000000000e+00  0.0000000000000000e+00 
 0.0000000000000000e+00  0.0000000000000000e+00  0.0000000000000000e+00  0.0000000000000000e+00 
 0.0000000000000000e+00  0.0000000000000000e+00  0.0000000000000000e+00  0.0000000000000000e+00 
 0.0000000000000000e+00  0.0000000000000000e+00  0.0000000000000000e+00  0.0000000000000000e+00 
 0.0000000000000000e+00  0.0000000000000000e+00  0.0000000000000000e+00  0.0000000000000000e+00 
 0.0000000000000000e+00  0.0000000000000000e+00  0.0000000000000000e+00  0.0000000000000000e+00 
 0.0000000000000000e+00  0.0000000000000000e+00  0.0000000000000000e+00  0.0000000000000000e+00 
 0.0000000000000000e+00  0.0000000000000000e+00  0.0000000000000000e+00  0.0000000000000000e+00 
 0.0000000000000000e+00  0.0000000000000000e+00  0.0000000000000000e+00  0.0000000000000000e+00 
 0.0000000000000000e+00  0.0000000000000000e+00  0.0000000000000000e+00  0.0000000000000000e+00 
 0.0000000000000000e+00 
  </PP_BETA>
  <PP_BETA>
  2  1      Beta    L
  1189  
 -5.1451271912516498e-11  -5.2806547220085367e-11  -5.4197521764989537e-11  -5.5625135899015196e-11 
 -5.7090354743707301e-11  -5.8594168842828585e-11  -6.0137594832004955e-11  -6.1721676126009766e-11 
 -6.3347483624152202e-11  -6.5016116434246007e-11  -6.6728702615648324e-11  -6.8486399941870700e-11 
 -7.0290396683278515e-11  -7.2141912410406838e-11  -7.4042198818436499e-11  -7.5992540573388450e-11 
 -7.7994256180606222e-11  -8.0048698876116264e-11  -8.2157257541467418e-11  -8.4321357642667082e-11 
 -8.6542462193851630e-11  -8.8822072746339079e-11  -9.1161730403735434e-11  -9.3563016863779523e-11 
 -9.6027555487631224e-11  -9.8557012397325287e-11  -1.0115309760213366e-10  -1.0381756615459702e-10 
 -1.0655221933700759e-10  -1.0935890587914407e-10  -1.1223952320808466e-10  -1.1519601873093949e-10 
 -1.1823039115137226e-10  -1.2134469182080082e-10  -1.2454102612518849e-10  -1.2782155490836612e-10 
 -1.3118849593284438e-10  -1.3464412537910676e-10  -1.3819077938439412e-10  -1.4183085562202278e-10 
 -1.4556681492230367e-10  -1.4940118293615736e-10  -1.5333655184255176e-10  -1.5737558210091239e-10 
 -1.6152100424969650e-10  -1.6577562075234065e-10  -1.7014230789183280e-10  -1.7462401771519199e-10 
 -1.7922378002916190e-10  -1.8394470444847871e-10  -1.8878998249808831e-10  -1.9376288977074057e-10 
 -1.9886678814141401e-10  -2.0410512804007366e-10  -2.0948145078429296e-10  -2.1499939097332037e-10 
 -2.2066267894520755e-10  -2.2647514329866167e-10  -2.3244071348132336e-10  -2.3856342244622607e-10 
 -2.4484740937822542e-10  -2.5129692249224791e-10  -2.5791632190524590e-10  -2.6471008258380546e-10 
 -2.7168279736939541e-10  -2.7883918008330242e-10  -2.8618406871335915e-10  -2.9372242868460495e-10 
 -3.0145935621610872e-10  -3.0940008176620543e-10  -3.1754997356848878e-10  -3.2591454126094200e-10 
 -3.3449943961066715e-10  -3.4331047233672221e-10  -3.5235359603366213e-10  -3.6163492419842274e-10 
 -3.7116073136328137e-10  -3.8093745733768305e-10  -3.9097171156179756e-10  -4.0127027757475882e-10 
 -4.1184011760059525e-10  -4.2268837725496318e-10  -4.3382239037586038e-10  -4.4524968398158002e-10 
 -4.5697798335926893e-10  -4.6901521728751761e-10  -4.8136952339652084e-10  -4.9404925366943093e-10 
 -5.0706298008862138e-10  -5.2041950043067758e-10  -5.3412784421403471e-10  -5.4819727880327946e-10 
 -5.6263731567424946e-10  -5.7745771684416138e-10  -5.9266850147110651e-10  -6.0827995262739464e-10 
 -6.2430262425131026e-10  -6.4074734828198027e-10  -6.5762524198218937e-10  -6.7494771545407758e-10 
 -6.9272647935281707e-10  -7.1097355280346572e-10  -7.2970127152636531e-10  -7.4892229617656994e-10 
 -7.6864962090293949e-10  -7.8889658213269268e-10  -8.0967686758734716e-10  -8.3100452553615978e-10 
 -8.5289397429329810e-10  -8.7536001196519110e-10  -8.9841782645461977e-10  -9.2208300572834145e-10 
 -9.4637154835515692e-10  -9.7129987432157718e-10  -9.9688483613237046e-10  -1.0231437302035256e-09 
 -1.0500943085552972e-09  -1.0777547908132786e-09  -1.1061438765255769e-09  -1.1352807578044508e-09 
 -1.1651851323009259e-09  -1.1958772165211896e-09  -1.2273777594937494e-09  -1.2597080567965816e-09 
 -1.2928899649537999e-09  -1.3269459162115218e-09  -1.3618989337029507e-09  -1.3977726470129400e-09 
 -1.4345913081525179e-09  -1.4723798079542165e-09  -1.5111636928992601e-09  -1.5509691823880067e-09 
 -1.5918231864653054e-09  -1.6337533240127662e-09  -1.6767879414202154e-09  -1.7209561317490004e-09 
 -1.7662877544000566e-09  -1.8128134553000633e-09  -1.8605646876193234e-09  -1.9095737330353636e-09 
 -1.9598737235566564e-09  -2.0114986639211878e-09  -2.0644834545850276e-09  -2.1188639153164657e-09 
 -2.1746768094116151e-09  -2.2319598685478888e-09  -2.2907518182921500e-09  -2.3510924042807775e-09 
 -2.4130224190893251e-09  -2.4765837298099797e-09  -2.5418193063554139e-09  -2.6087732505082240e-09 
 -2.6774908257355380e-09  -2.7480184877889742e-09  -2.8204039161106609e-09  -2.8946960460664852e-09 
 -2.9709451020284558e-09  -3.0492026313284352e-09  -3.1295215391062884e-09  -3.2119561240759579e-09 
 -3.2965621152336749e-09  -3.3833967095330674e-09  -3.4725186105527202e-09  -3.5639880681822533e-09 
 -3.6578669193537939e-09  -3.7542186298463452e-09  -3.8531083371913510e-09  -3.9546028947084211e-09 
 -4.0587709167010445e-09  -4.1656828248427638e-09  -4.2754108957852647e-09  -4.3880293100204920e-09 
 -4.5036142020298330e-09  -4.6222437117543596e-09  -4.7439980374207960e-09  -4.8689594897589961e-09 
 -4.9972125476476058e-09  -5.1288439152254791e-09  -5.2639425805074855e-09  -5.4025998755443294e-09 
 -5.5449095381670551e-09  -5.6909677753579950e-09  -5.8408733282909659e-09  -5.9947275390847274e-09 
 -6.1526344193147970e-09  -6.3147007203299897e-09  -6.4810360054211268e-09  -6.6517527238908641e-09 
 -6.8269662870744812e-09  -7.0067951463632983e-09  -7.1913608732832447e-09  -7.3807882416828515e-09 
 -7.5752053120861685e-09  -7.7747435182676728e-09  -7.9795377561076883e-09  -8.1897264747883023e-09 
 -8.4054517703916721e-09  -8.6268594819636725e-09  -8.8540992901081470e-09  -9.0873248181781707e-09 
 -9.3266937361328916e-09  -9.5723678671301282e-09  -9.8245132969267219e-09  -1.0083300486160739e-08 
 -1.0348904385591304e-08  -1.0621504554374052e-08  -1.0901285281452115e-08  -1.1188435710144827e-08 
 -1.1483149966018156e-08  -1.1785627288123591e-08  -1.2096072163693995e-08  -1.2414694466387611e-08 
 -1.2741709598173618e-08  -1.3077338634955219e-08  -1.3421808476028684e-08  -1.3775351997479416e-08 
 -1.4138208209618712e-08  -1.4510622418567747e-08  -1.4892846392097896e-08  -1.5285138529839674e-08 
 -1.5687764037975202e-08  -1.6100995108532550e-08  -1.6525111103402807e-08  -1.6960398743204789e-08 
 -1.7407152301124564e-08  -1.7865673801861260e-08  -1.8336273225813376e-08  -1.8819268718643936e-08 
 -1.9314986806365754e-08  -1.9823762616092858e-08  -2.0345940102606507e-08  -2.0881872280889910e-08 
 -2.1431921464788026e-08  -2.1996459511954318e-08  -2.2575868075250011e-08  -2.3170538860765606e-08 
 -2.3780873892639337e-08  -2.4407285784851398e-08  -2.5050198020178144e-08  -2.5710045236494058e-08 
 -2.6387273520616080e-08  -2.7082340709888039e-08  -2.7795716701709812e-08  -2.8527883771219817e-08 
 -2.9279336897346319e-08  -3.0050584097447476e-08  -3.0842146770766557e-08  -3.1654560050934473e-08 
 -3.2488373167758385e-08  -3.3344149818539932e-08  -3.4222468549175509e-08  -3.5123923145295217e-08 
 -3.6049123033705291e-08  -3.6998693694405542e-08  -3.7973277083460384e-08  -3.8973532067008894e-08 
 -4.0000134866708150e-08  -4.1053779516910502e-08  -4.2135178333884013e-08  -4.3245062397393343e-08 
 -4.4384182044967266e-08  -4.5553307379186005e-08  -4.6753228788332778e-08  -4.7984757480760748e-08 
 -4.9248726033337131e-08  -5.0545988954335740e-08  -5.1877423261158357e-08  -5.3243929073276249e-08 
 -5.4646430220792402e-08  -5.6085874869037318e-08  -5.7563236159619547e-08  -5.9079512868366558e-08 
 -6.0635730080599633e-08  -6.2232939884201378e-08  -6.3872222080943159e-08  -6.5554684916555915e-08 
 -6.7281465830036713e-08  -6.9053732222699532e-08  -7.0872682247489885e-08  -7.2739545619097419e-08 
 -7.4655584445415415e-08  -7.6622094080908143e-08  -7.8640404002464367e-08  -8.0711878708328955e-08 
 -8.2837918640719436e-08  -8.5019961132751206e-08  -8.7259481380311863e-08  -8.9557993439539930e-08 
 -9.1917051250580921e-08  -9.4338249688313740e-08  -9.6823225640754817e-08  -9.9373659115847235e-08 
 -1.0199127437724086e-07  -1.0467784111006605e-07  -1.0743517561751115e-07  -1.1026514204893522e-07 
 -1.1316965366033614e-07  -1.1615067410803102e-07  -1.1921021877642109e-07  -1.2235035614074038e-07 
 -1.2557320916571093e-07  -1.2888095674105012e-07  -1.3227583515480083e-07  -1.3576013960548342e-07 
 -1.3933622575408997e-07  -1.4300651131697344e-07  -1.4677347770070787e-07  -1.5063967168002709e-07 
 -1.5460770711997655e-07  -1.5868026674344434e-07  -1.6286010394526730e-07  -1.6715004465413968e-07 
 -1.7155298924358551e-07  -1.7607191449328641e-07  -1.8070987560209358e-07  -1.8547000825408596e-07 
 -1.9035553073907392e-07  -1.9536974612898068e-07  -2.0051604451158045e-07  -2.0579790528309890e-07 
 -2.1121889950123210e-07  -2.1678269230017658e-07  -2.2249304536930251e-07  -2.2835381949715322e-07 
 -2.3436897718248795e-07  -2.4054258531413875e-07  -2.4687881792149741e-07  -2.5338195899749074e-07 
 -2.6005640539595984e-07  -2.6690666980540280e-07  -2.7393738380109614e-07  -2.8115330097766153e-07 
 -2.8855930016420018e-07  -2.9616038872416976e-07  -3.0396170594224424e-07  -3.1196852650044507e-07 
 -3.2018626404590358e-07  -3.2862047485266695e-07  -3.3727686158003250e-07  -3.4616127712995592e-07 
 -3.5527972860614335e-07  -3.6463838137751741e-07  -3.7424356324880132e-07  -3.8410176874105749e-07 
 -3.9421966348507506e-07  -4.0460408873058261e-07  -4.1526206597435391e-07  -4.2620080171032690e-07 
 -4.3742769230497184e-07  -4.4895032900120579e-07  -4.6077650305424340e-07  -4.7291421100288096e-07 
 -4.8537166007976790e-07  -4.9815727376435180e-07  -5.1127969748225484e-07  -5.2474780445495125e-07 
 -5.3857070170370929e-07  -5.5275773621187854e-07  -5.6731850124969424e-07  -5.8226284286590104e-07 
 -5.9760086655058875e-07  -6.1334294407377641e-07  -6.2949972050437457e-07  -6.4608212141429651e-07 
 -6.6310136027260888e-07  -6.8056894603473873e-07  -6.9849669093189456e-07  -7.1689671846599234e-07 
 -7.3578147161550785e-07  -7.5516372125784635e-07  -7.7505657481392743e-07  -7.9547348512088844e-07 
 -8.1642825953890697e-07  -8.3793506929835582e-07  -8.6000845909362552e-07  -8.8266335693015080e-07 
 -9.0591508423132889e-07  -9.2977936621220820e-07  -9.5427234252698849e-07  -9.7941057819760615e-07 
 -1.0052110748308001e-06  -1.0316912821313320e-06  -1.0588691097191610e-06  -1.0867629392586447e-06 
 -1.1153916369080080e-06  -1.1447745660975696e-06  -1.1749316006454112e-06  -1.2058831382194501e-06 
 -1.2376501141550662e-06  -1.2702540156377107e-06  -1.3037168962601636e-06  -1.3380613909643632e-06 
 -1.3733107313779934e-06  -1.4094887615563058e-06  -1.4466199541398989e-06  -1.4847294269394851e-06 
 -1.5238429599589813e-06  -1.5639870128685218e-06  -1.6051887429393535e-06  -1.6474760234528434e-06 
 -1.6908774625961847e-06  -1.7354224228577271e-06  -1.7811410409351786e-06  -1.8280642481703053e-06 
 -1.8762237915240988e-06  -1.9256522551067678e-06  -1.9763830822773072e-06  -2.0284505983277529e-06 
 -2.0818900337676859e-06  -2.1367375482249242e-06  -2.1930302549787845e-06  -2.2508062461427612e-06 
 -2.3101046185138650e-06  -2.3709655001063925e-06  -2.4334300773883100e-06  -2.4975406232389737e-06 
 -2.5633405256474212e-06  -2.6308743171708940e-06  -2.7001877051739295e-06  -2.7713276028687513e-06 
 -2.8443421611783741e-06  -2.9192808014443584e-06  -2.9961942490016907e-06  -3.0751345676440404e-06 
 -3.1561551950030279e-06  -3.2393109788660466e-06  -3.3246582144575896e-06  -3.4122546827099433e-06 
 -3.5021596895495917e-06  -3.5944341062265649e-06  -3.6891404107146462e-06  -3.7863427302110047e-06 
 -3.8861068847648131e-06  -3.9885004320650147e-06  -4.0935927134183252e-06  -4.2014549009493865e-06 
 -4.3121600460558331e-06  -4.4257831291520011e-06  -4.5424011107357895e-06  -4.6620929838143123e-06 
 -4.7849398277247683e-06  -4.9110248633881488e-06  -5.0404335100341920e-06  -5.1732534434373357e-06 
 -5.3095746557042266e-06  -5.4494895166547376e-06  -5.5930928368392806e-06  -5.7404819322367538e-06 
 -5.8917566906783509e-06  -6.0470196400438949e-06  -6.2063760182786590e-06  -6.3699338452797653e-06 
 -6.5378039967029882e-06  -6.7101002797417495e-06  -6.8869395109318782e-06  -7.0684415960370506e-06 
 -7.2547296120714307e-06  -7.4459298915174112e-06  -7.6421721087983323e-06  -7.8435893690673548e-06 
 -8.0503182993756255e-06  -8.2624991422846248e-06  -8.4802758519891190e-06  -8.7037961930196135e-06 
 -8.9332118415944210e-06  -9.1686784896940149e-06  -9.4103559519321307e-06  -9.6584082753001573e-06 
 -9.9130038518637401e-06  -1.0174315534492506e-05  -1.0442520755706328e-05  -1.0717801649723883e-05 
 -1.1000345177801564e-05  -1.1290343256953530e-05  -1.1587992892146242e-05  -1.1893496312063375e-05 
 -1.2207061108539856e-05  -1.2528900379766837e-05  -1.2859232877371821e-05  -1.3198283157481869e-05 
 -1.3546281735880274e-05  -1.3903465247370986e-05  -1.4270076609467661e-05  -1.4646365190528354e-05 
 -1.5032586982459921e-05  -1.5429004778120080e-05  -1.5835888353548631e-05  -1.6253514655163675e-05 
 -1.6682167992062105e-05  -1.7122140233568206e-05  -1.7573731012178354e-05  -1.8037247932054024e-05 
 -1.8513006783220497e-05  -1.9001331761632374e-05  -1.9502555695272791e-05  -2.0017020276457835e-05 
 -2.0545076300522840e-05  -2.1087083911072752e-05  -2.1643412851984037e-05  -2.2214442726351833e-05 
 -2.2800563262581269e-05  -2.3402174587828749e-05  -2.4019687509004613e-05  -2.4653523801555731e-05 
 -2.5304116506252894e-05  -2.5971910234215345e-05  -2.6657361480411273e-05  -2.7360938945881751e-05 
 -2.8083123868941819e-05  -2.8824410365622126e-05  -2.9585305779621583e-05  -3.0366331042050309e-05 
 -3.1168021041251664e-05  -3.1990925003000876e-05  -3.2835606881387029e-05  -3.3702645760695944e-05 
 -3.4592636268620978e-05  -3.5506189001139529e-05  -3.6443930959404269e-05  -3.7406505999009708e-05 
 -3.8394575292005256e-05  -3.9408817802040259e-05  -4.0449930773037276e-05  -4.1518630231804547e-05 
 -4.2615651505010244e-05  -4.3741749750958739e-05  -4.4897700506619373e-05  -4.6084300250377425e-05 
 -4.7302366980990588e-05  -4.8552740813251359e-05  -4.9836284590872802e-05  -5.1153884517132847e-05 
 -5.2506450803831122e-05  -5.3894918339130370e-05  -5.5320247374875655e-05  -5.6783424234004637e-05 
 -5.8285462038683086e-05  -5.9827401459823659e-05  -6.1410311488667145e-05  -6.3035290231131563e-05 
 -6.4703465725657834e-05  -6.6415996785308231e-05  -6.8174073864899536e-05  -6.9978919953982783e-05 
 -7.1831791496508888e-05  -7.3733979338052122e-05  -7.5686809701493036e-05  -7.7691645192097826e-05 
 -7.9749885832963309e-05  -8.1862970131834820e-05  -8.4032376180339860e-05  -8.6259622786721054e-05 
 -8.8546270643190343e-05  -9.0893923529071548e-05  -9.3304229550939549e-05  -9.5778882421012512e-05 
 -9.8319622775100510e-05  -1.0092823953146304e-04  -1.0360657129198319e-04  -1.0635650778711434e-04 
 -1.0917999136612098e-04  -1.1207901853418391e-04  -1.1505564153801050e-04  -1.1811197000164973e-04 
 -1.2125017261428138e-04  -1.2447247887181656e-04  -1.2778118087422292e-04  -1.3117863518056062e-04 
 -1.3466726472379821e-04  -1.3824956078755754e-04  -1.4192808504702670e-04  -1.4570547167636801e-04 
 -1.4958442952504400e-04  -1.5356774436558535e-04  -1.5765828121542210e-04  -1.6185898673551588e-04 
 -1.6617289170863396e-04  -1.7060311360023601e-04  -1.7515285920505376e-04  -1.7982542738258312e-04 
 -1.8462421188484047e-04  -1.8955270427986989e-04  -1.9461449697464597e-04  -1.9981328634115859e-04 
 -2.0515287594963583e-04  -2.1063717991302470e-04  -2.1627022634702865e-04  -2.2205616095018012e-04 
 -2.2799925070862061e-04  -2.3410388773046676e-04  -2.4037459321484081e-04  -2.4681602156087468e-04 
 -2.5343296462221679e-04  -2.6023035611282274e-04  -2.6721327617005035e-04  -2.7438695608135308e-04 
 -2.8175678318113375e-04  -2.8932830592461403e-04  -2.9710723914587521e-04  -3.0509946950753553e-04 
 -3.1331106114986613e-04  -3.2174826154749602e-04  -3.3041750758219573e-04  -3.3932543184063836e-04 
 -3.4847886914640810e-04  -3.5788486333594201e-04  -3.6755067428853529e-04  -3.7748378522097761e-04 
 -3.8769191025786378e-04  -3.9818300228912785e-04  -4.0896526112684233e-04  -4.2004714197388669e-04 
 -4.3143736421764070e-04  -4.4314492056245360e-04  -4.5517908651525053e-04  -4.6754943023928874e-04 
 -4.8026582279174317e-04  -4.9333844876150871e-04  -5.0677781732433791e-04  -5.2059477373319978e-04 
 -5.3480051126254878e-04  -5.4940658362602403e-04  -5.6442491788797895e-04  -5.7986782789014866e-04 
 -5.9574802821569855e-04  -6.1207864871392216e-04  -6.2887324960984891e-04  -6.4614583722412368e-04 
 -6.6391088032964358e-04  -6.8218332717258281e-04  -7.0097862318667912e-04  -7.2031272943090215e-04 
 -7.4020214178195274e-04  -7.6066391091440463e-04  -7.8171566310271086e-04  -8.0337562188082206e-04 
 -8.2566263059661931e-04  -8.4859617590002997e-04  -8.7219641220531231e-04  -8.9648418716968060e-04 
 -9.2148106823226850e-04  -9.4720937025919957e-04  -9.7369218434245619e-04  -1.0009534078021852e-03 
 -1.0290177754440747e-03  -1.0579108921255375e-03  -1.0876592666865248e-03  -1.1182903473030254e-03 
 -1.1498325583235199e-03  -1.1823153386509727e-03  -1.2157691817352844e-03  -1.2502256772435295e-03 
 -1.2857175544777237e-03  -1.3222787276123756e-03  -1.3599443428265255e-03  -1.3987508274075557e-03 
 -1.4387359409065541e-03  -1.4799388284275680e-03  -1.5224000761356377e-03  -1.5661617690709640e-03 
 -1.6112675513590786e-03  -1.6577626889092696e-03  -1.7056941346958732e-03  -1.7551105967192734e-03 
 -1.8060626087455425e-03  -1.8586026039256419e-03  -1.9127849913968520e-03  -1.9686662359706532e-03 
 -2.0263049410125093e-03  -2.0857619346200443e-03  -2.1471003592066261e-03  -2.2103857645975620e-03 
 -2.2756862047457974e-03  -2.3430723381731443e-03  -2.4126175322414967e-03  -2.4843979713562825e-03 
 -2.5584927692013258e-03  -2.6349840851002376e-03  -2.7139572445944444e-03  -2.7955008643216397e-03 
 -2.8797069812709201e-03  -2.9666711864816896e-03  -3.0564927632427516e-03  -3.1492748298352718e-03 
 -3.2451244868486502e-03  -3.3441529690812133e-03  -3.4464758020181104e-03  -3.5522129628561909e-03 
 -3.6614890460200710e-03  -3.7744334330843152e-03  -3.8911804669836919e-03  -4.0118696303559484e-03 
 -4.1366457278196366e-03  -4.2656590719419513e-03  -4.3990656725987785e-03  -4.5370274293695311e-03 
 -4.6797123265431787e-03  -4.8272946302380590e-03  -4.9799550870557267e-03  -5.1378811235979639e-03 
 -5.3012670460748524e-03  -5.4703142391197097e-03  -5.6452313628029731e-03  -5.8262345467005143e-03 
 -6.0135475797210795e-03  -6.2074020942321003e-03  -6.4080377428408272e-03  -6.6157023659881081e-03 
 -6.8306521482929842e-03  -7.0531517613469921e-03  -7.2834744903951427e-03  -7.5219023420550609e-03 
 -7.7687261299148143e-03  -8.0242455345115385e-03  -8.2887691338257418e-03  -8.5626144000278369e-03 
 -8.8461076577823761e-03  -9.1395839989499277e-03  -9.4433871480242224e-03  -9.7578692721019978e-03 
 -1.0083390728602495e-02  -1.0420319743331338e-02  -1.0769032010819328e-02  -1.1129910208156728e-02 
 -1.1503343412789991e-02  -1.1889726413948086e-02  -1.2289458906519867e-02  -1.2702944555313442e-02 
 -1.3130589916693407e-02  -1.3572803203614800e-02  -1.4029992879055783e-02  -1.4502566061798268e-02 
 -1.4990926727422801e-02  -1.5495473686275562e-02  -1.6016598319041470e-02  -1.6554682049425066e-02 
 -1.7110093532314737e-02  -1.7683185534695989e-02  -1.8274291485505193e-02  -1.8883721669592204e-02 
 -1.9511759040011428e-02  -2.0158654622008859e-02  -2.0824622481345003e-02  -2.1509834229018917e-02 
 -2.2214413034071252e-02  -2.2938427115978027e-02  -2.3681882688240050e-02  -2.4444716325169299e-02 
 -2.5226786724611108e-02  -2.6027865840470225e-02  -2.6847629360472379e-02  -2.7685646506640724e-02 
 -2.8541369138546758e-02  -2.9414120142560108e-02  -3.0303081094117598e-02  -3.1207279184520910e-02 
 -3.2125573409003037e-02  -3.3056640018850052e-02  -3.3998957247293612e-02  -3.4950789326796530e-02 
 -3.5910169824349761e-02  -3.6874884331621262e-02  -3.7842452558432993e-02  -3.8810109891300314e-02 
 -3.9774788493940477e-02  -4.0733098044057822e-02  -4.1681306220726126e-02  -4.2615319079744918e-02 
 -4.3530661480862973e-02  -4.4422457761173061e-02  -4.5285412883633226e-02  -4.6113794328763232e-02 
 -4.6901415041096857e-02  -4.7641617789616779e-02  -4.8327261352415760e-02  -4.8950708988977569e-02 
 -4.9503819716896567e-02  -4.9977942961047364e-02  -5.0363917188961889e-02  -5.0652073182554824e-02 
 -5.0832242618850922e-02  -5.0893772636079450e-02  -5.0825547041356257e-02  -5.0616014767542919e-02 
 -5.0253226106090371e-02  -4.9724877127996281e-02  -4.9018362557115246e-02  -4.8120837182915620e-02 
 -4.7019285700317291e-02  -4.5700600651959571e-02  -4.4151667933437229e-02  -4.2359459113995725e-02 
 -4.0311129630000699e-02  -3.7994121728043381e-02  -3.5396270866490005e-02  -3.2505914123772441e-02 
 -2.9311999004119429e-02  -2.5804190875406297e-02  -2.1972977123687419e-02  -1.7809765976396066e-02 
 -1.3306977849830757e-02  -8.4581270415009045e-03  -3.2578916426645095e-03  2.2978302805051341e-03 
 8.2118798753857622e-03  1.4485813238028314e-02  2.1119894278556452e-02  2.8113104620339033e-02 
 3.5463169744188533e-02  4.3166599975769861e-02  5.1218744463592328e-02  5.9613856050311984e-02 
 6.8345164881774056e-02  7.7404958639278806e-02  8.6784667290001061e-02  9.6474950097435855e-02 
 1.0646578228621204e-01  1.1674653854639361e-01  1.2730606823025090e-01  1.3813275333542491e-01 
 1.4921455695427846e-01  1.6053904036397204e-01  1.7209334993496503e-01  1.8386416681800163e-01 
 1.9583761398554794e-01  2.0799911670899371e-01  2.2033321426220423e-01  2.3282332269001840e-01 
 2.4545145078189864e-01  2.5819787385466547e-01  2.7104077247830222e-01  2.8395584577731420e-01 
 2.9691591130684108e-01  3.0989050563687781e-01  3.2284550157959013e-01  3.3574275936800402e-01 
 3.4853982995124511e-01  3.6118972883574524e-01  3.7364079851407511e-01  3.8583667644389363e-01 
 3.9771638375419510e-01  4.0921454737588714e-01  4.2026176515850350e-01  4.3078511981225281e-01 
 4.4070884329946852e-01  4.4995512871129439e-01  4.5844508184459010e-01  4.6609979979738170e-01 
 4.7284155909629066e-01  4.7859509132903422e-01  4.8328892015002456e-01  4.8685673002060698e-01 
 4.8923873428614767e-01  4.9038300830872805e-01  4.9024675246938787e-01  4.8879745000451247e-01 
 4.8601388588033972e-01  4.8188699523936723e-01  4.7642051335584973e-01  4.6963140342827969e-01 
 4.6155004379788916e-01  4.5222016218720062e-01  4.4169851112171071e-01  4.3005428562624276e-01 
 4.1736829135795522e-01  4.0373187831738450e-01  3.8924566193004273e-01  3.7401805938195659e-01 
 3.5816367440511515e-01  3.4180156804832196e-01  3.2505345617309866e-01  3.0804187636027675e-01 
 2.9088836752423075e-01  2.7371170478241713e-01  2.5662623004469792e-01  2.3974031544898580e-01 
 2.2315499230583205e-01  2.0696277279757014e-01  1.9124668551732266e-01  1.7607953926638359e-01 
 1.6152342260847039e-01  1.4762943976410800e-01  1.3443767676902271e-01  1.2197738564977367e-01 
 1.1026736889250775e-01  9.9316541864970770e-02  8.9124647222919101e-02  7.9683092768808111e-02 
 7.0975882763718801e-02  6.2980612307277695e-02  5.5669495035260960e-02  4.9010395943740299e-02 
 4.2967843503521598e-02  3.7503998228321261e-02  3.2579558338665028e-02  2.8154586949729377e-02 
 2.4189249136127012e-02  2.0644451130857295e-02  1.7482377656495868e-02  1.4666926842072540e-02 
 1.2164045251723437e-02  9.9419681700241968e-03  7.9713724095588929e-03  6.2254505103422680e-03 
 4.6799162931698349e-03  3.3129523358580754e-03  2.1051101052045147e-03  1.0391732537468514e-03 
 9.9994043495358077e-05  -7.2568794292944365e-04  -1.4494366303096193e-03  -2.0813127501904697e-03 
 -2.6300637065406261e-03  -3.1033052684695797e-03  -3.5076914743107021e-03  -3.8490701767464447e-03 
 -4.1326225996679133e-03  -4.3629860968601580e-03  -4.5443599919656958e-03  -4.6805949368283308e-03 
 -4.7752666561459399e-03  -4.8317352593525457e-03  -4.8531915084520667e-03  -4.8426915476337878e-03 
 -4.8031816421239392e-03  -4.7375144551845463e-03  -4.6484583278961211e-03  -4.5387009241060986e-03 
 -4.4108485148932012e-03  -4.2674219702959794e-03  -4.1108504921586230e-03  -3.9434639123445544e-03 
 -3.7674842824152407e-03  -3.5850173554801096e-03  -3.3980444502937834e-03  -3.2084150874955712e-03 
 -3.0178406981979560e-03  -2.8278896255678589e-03  -2.6399835700169822e-03  -2.4553955673002749e-03 
 -2.2752495355325454e-03  -2.1005213810402967e-03  -1.9320416135006294e-03  -1.7704993873777792e-03 
 -1.6164478588667750e-03  -1.4703107249904597e-03  -1.3323897939202349e-03  -1.2028734227735322e-03 
 -1.0818456508596660e-03  -9.6929585238313435e-04  -8.6512873275205820e-04  -7.6917449658917122e-04 
 -6.8119902298937642e-04  -6.0091389412343958e-04  -5.2798613654551224e-04  -4.6204755002067130e-04 
 -4.0270351585580639e-04  -3.4954119506216502e-04  -3.0213704564194217e-04  -2.6006360737138609e-04 
 -2.2289552113538661e-04  -1.9021476770014970e-04  -1.6161512739002647e-04  -1.3670587714024107e-04 
 -1.1511475455092582e-04  -9.6490229714959002e-05  -8.0503134610809815e-05  -6.6847706725386904e-05 
 -5.5242108344167355e-05  -4.5428485716648420e-05  -3.7172633229733374e-05  -3.0263326997849535e-05 
 -2.4511390123782796e-05  -1.9748548542842461e-05  -1.5826132078431671e-05  -1.2613670353843235e-05 
 -9.9974277550213632e-06  -7.8789159371238724e-06  -6.1734166043734235e-06  -4.8085416369238593e-06 
 -3.7228522235044615e-06  -2.8645535997794998e-06  -2.1902773680921911e-06  -1.6639592404876731e-06 
 -1.2558164396386422e-06  -9.4142591700426332e-07  -7.0090200298343256e-07  -5.1817006378125131e-07 
 -3.8033117408656686e-07  -2.7711167970050035e-07  -2.0039077263681560e-07  -1.4379878260724330e-07 
 -1.0237875047075776e-07  -7.2303940120093447e-08  -5.0644217409298225e-08  -3.5174631876116082e-08 
 -2.4220039563330263e-08  -1.6530166809021192e-08  -1.1180105552629248e-08  -7.4918254579972748e-09 
 -4.9728670210021628e-09  -3.2689281389337565e-09  -2.1275637242673115e-09  -1.3706772345941507e-09 
 -8.7389111394609081e-10  -5.5123946891857805e-10  -3.4393210011502408e-10  -2.1219749379002709e-10 
 -1.2942724258650413e-10  -7.8020517809063380e-11  -4.6469321891566811e-11  -2.7338316478375812e-11 
 -1.5881642450467791e-11  -9.1076070849906928e-12  -5.1542082400571492e-12  -2.8775878564348505e-12 
 -1.5843844042828202e-12  -8.6002459616068929e-13  -4.6007510668635716e-13  -2.4247058009612869e-13 
 -1.2584708180497192e-13  -6.4301161274277925e-14  -3.2330924767438955e-14  -1.5990872496245373e-14 
 -7.7767819536869337e-15  -3.7172911401082221e-15  -1.7457134785628363e-15  -8.0508145510505142e-16 
 -3.6443116684766027e-16  -1.6185215117757659e-16  -7.0505888650841699e-17  -3.0095205627412773e-17 
 -1.2580717932026432e-17  -5.1531768726413767e-18  -2.0702207883134183e-18  -8.0625656117658570e-19 
 -3.0664899111867708e-19  -1.1328521613129278e-19  -4.2976230613469325e-20  -1.7615358381606645e-20 
 -4.8005863240256000e-21  0.0000000000000000e+00  0.0000000000000000e+00  0.0000000000000000e+00 
 0.0000000000000000e+00  0.0000000000000000e+00  0.0000000000000000e+00  0.0000000000000000e+00 
 0.0000000000000000e+00  0.0000000000000000e+00  0.0000000000000000e+00  0.0000000000000000e+00 
 0.0000000000000000e+00  0.0000000000000000e+00  0.0000000000000000e+00  0.0000000000000000e+00 
 0.0000000000000000e+00  0.0000000000000000e+00  0.0000000000000000e+00  0.0000000000000000e+00 
 0.0000000000000000e+00  0.0000000000000000e+00  0.0000000000000000e+00  0.0000000000000000e+00 
 0.0000000000000000e+00  0.0000000000000000e+00  0.0000000000000000e+00  0.0000000000000000e+00 
 0.0000000000000000e+00  0.0000000000000000e+00  0.0000000000000000e+00  0.0000000000000000e+00 
 0.0000000000000000e+00  0.0000000000000000e+00  0.0000000000000000e+00  0.0000000000000000e+00 
 0.0000000000000000e+00  0.0000000000000000e+00  0.0000000000000000e+00  0.0000000000000000e+00 
 0.0000000000000000e+00  0.0000000000000000e+00  0.0000000000000000e+00  0.0000000000000000e+00 
 0.0000000000000000e+00  0.0000000000000000e+00  0.0000000000000000e+00  0.0000000000000000e+00 
 0.0000000000000000e+00  0.0000000000000000e+00  0.0000000000000000e+00  0.0000000000000000e+00 
 0.0000000000000000e+00  0.0000000000000000e+00  0.0000000000000000e+00  0.0000000000000000e+00 
 0.0000000000000000e+00  0.0000000000000000e+00  0.0000000000000000e+00  0.0000000000000000e+00 
 0.0000000000000000e+00  0.0000000000000000e+00  0.0000000000000000e+00  0.0000000000000000e+00 
 0.0000000000000000e+00  0.0000000000000000e+00  0.0000000000000000e+00  0.0000000000000000e+00 
 0.0000000000000000e+00  0.0000000000000000e+00  0.0000000000000000e+00  0.0000000000000000e+00 
 0.0000000000000000e+00  0.0000000000000000e+00  0.0000000000000000e+00  0.0000000000000000e+00 
 0.0000000000000000e+00  0.0000000000000000e+00  0.0000000000000000e+00  0.0000000000000000e+00 
 0.0000000000000000e+00  0.0000000000000000e+00  0.0000000000000000e+00  0.0000000000000000e+00 
 0.0000000000000000e+00  0.0000000000000000e+00  0.0000000000000000e+00  0.0000000000000000e+00 
 0.0000000000000000e+00  0.0000000000000000e+00  0.0000000000000000e+00  0.0000000000000000e+00 
 0.0000000000000000e+00  0.0000000000000000e+00  0.0000000000000000e+00  0.0000000000000000e+00 
 0.0000000000000000e+00  0.0000000000000000e+00  0.0000000000000000e+00  0.0000000000000000e+00 
 0.0000000000000000e+00  0.0000000000000000e+00  0.0000000000000000e+00  0.0000000000000000e+00 
 0.0000000000000000e+00  0.0000000000000000e+00  0.0000000000000000e+00  0.0000000000000000e+00 
 0.0000000000000000e+00  0.0000000000000000e+00  0.0000000000000000e+00  0.0000000000000000e+00 
 0.0000000000000000e+00  0.0000000000000000e+00  0.0000000000000000e+00  0.0000000000000000e+00 
 0.0000000000000000e+00  0.0000000000000000e+00  0.0000000000000000e+00  0.0000000000000000e+00 
 0.0000000000000000e+00  0.0000000000000000e+00  0.0000000000000000e+00  0.0000000000000000e+00 
 0.0000000000000000e+00  0.0000000000000000e+00  0.0000000000000000e+00  0.0000000000000000e+00 
 0.0000000000000000e+00  0.0000000000000000e+00  0.0000000000000000e+00  0.0000000000000000e+00 
 0.0000000000000000e+00  0.0000000000000000e+00  0.0000000000000000e+00  0.0000000000000000e+00 
 0.0000000000000000e+00  0.0000000000000000e+00  0.0000000000000000e+00  0.0000000000000000e+00 
 0.0000000000000000e+00  0.0000000000000000e+00  0.0000000000000000e+00  0.0000000000000000e+00 
 0.0000000000000000e+00  0.0000000000000000e+00  0.0000000000000000e+00  0.0000000000000000e+00 
 0.0000000000000000e+00 
  </PP_BETA>
  <PP_BETA>
  3  2      Beta    L
  1189  
 -6.3390152899900470e-13  -6.5911209950788530e-13  -6.8532530660991524e-13  -7.1258102564789069e-13 
 -7.4092071782631234e-13  -7.7038749328187987e-13  -8.0102617666232272e-13  -8.3288337531333708e-13 
 -8.6600755017734589e-13  -9.0044908951194432e-13  -9.3626038554015862e-13  -9.7349591414912198e-13 
 -1.0122123177584103e-12  -1.0524684914840890e-12  -1.0943256727295415e-12  -1.1378475343393843e-12 
 -1.1831002814581355e-12  -1.2301527522410162e-12  -1.2790765225700704e-12  -1.3299460149348808e-12 
 -1.3828386116435460e-12  -1.4378347725360901e-12  -1.4950181573794060e-12  -1.5544757531299089e-12 
 -1.6162980062574737e-12  -1.6805789603319692e-12  -1.7474163990816736e-12  -1.8169119951411935e-12 
 -1.8891714647151628e-12  -1.9643047283929857e-12  -2.0424260783592661e-12  -2.1236543522542803e-12 
 -2.2081131139489508e-12  -2.2959308415093513e-12  -2.3872411226366308e-12  -2.4821828578796969e-12 
 -2.5809004719297502e-12  -2.6835441333181166e-12  -2.7902699828515798e-12  -2.9012403711326597e-12 
 -3.0166241055262443e-12  -3.1365967069481482e-12  -3.2613406768663443e-12  -3.3910457749208804e-12 
 -3.5259093075849634e-12  -3.6661364283061661e-12  -3.8119404495844410e-12  -3.9635431674616302e-12 
 -4.1211751989160340e-12  -4.2850763326753823e-12  -4.4554958939818016e-12  -4.6326931238636210e-12 
 -4.8169375734910518e-12  -5.0085095142155776e-12  -5.2077003639167899e-12  -5.4148131303052766e-12 
 -5.6301628718558537e-12  -5.8540771770723758e-12  -6.0868966628131023e-12  -6.3289754924347570e-12 
 -6.5806819145433975e-12  -6.8423988231716773e-12  -7.1145243402346251e-12  -7.3974724211500403e-12 
 -7.6916734845446340e-12  -7.9975750670038921e-12  -8.3156425038617865e-12  -8.6463596370656410e-12 
 -8.9902295511933432e-12  -9.3477753387421047e-12  -9.7195408958533498e-12  -1.0106091749683796e-11 
 -1.0508015918681657e-11  -1.0925924807076286e-11  -1.1360454134942310e-11  -1.1812264905252692e-11 
 -1.2282044409392115e-11  -1.2770507272660069e-11  -1.3278396541354103e-11  -1.3806484813087014e-11 
 -1.4355575412057212e-11  -1.4926503611060159e-11  -1.5520137902100009e-11  -1.6137381317533844e-11 
 -1.6779172803758734e-11  -1.7446488649530774e-11  -1.8140343971089323e-11  -1.8861794256345206e-11 
 -1.9611936970482154e-11  -2.0391913225413812e-11  -2.1202909515635831e-11  -2.2046159523113808e-11 
 -2.2922945993952329e-11  -2.3834602689700426e-11  -2.4782516416260994e-11  -2.5768129133491355e-11 
 -2.6792940148703567e-11  -2.7858508397401286e-11  -2.8966454814722807e-11  -3.0118464801197539e-11 
 -3.1316290786567039e-11  -3.2561754895570141e-11  -3.3856751719748215e-11  -3.5203251199486212e-11 
 -3.6603301620674088e-11  -3.8059032730547001e-11  -3.9572658977443931e-11  -4.1146482879413527e-11 
 -4.2782898526790689e-11  -4.4484395224072967e-11  -4.6253561276635734e-11  -4.8093087928047485e-11 
 -5.0005773453973839e-11  -5.1994527418898449e-11  -5.4062375102135977e-11  -5.6212462099869908e-11 
 -5.8448059110215380e-11  -6.0772566908587523e-11  -6.3189521520941578e-11  -6.5702599602756519e-11 
 -6.8315624031943205e-11  -7.1032569724185539e-11  -7.3857569679561214e-11  -7.6794921269638873e-11 
 -7.9849092774617763e-11  -8.3024730180452014e-11  -8.6326664246300421e-11  -8.9759917853052773e-11 
 -9.3329713644110988e-11  -9.7041481970047917e-11  -1.0090086914923023e-10  -1.0491374605696984e-10 
 -1.0908621705627183e-10  -1.1342462928376205e-10  -1.1793558230492163e-10  -1.2262593815331559e-10 
 -1.2750283176908724e-10  -1.3257368185259665e-10  -1.3784620214971567e-10  -1.4332841318594391e-10 
 -1.4902865446719886e-10  -1.5495559716583631e-10  -1.6111825731120280e-10  -1.6752600950478359e-10 
 -1.7418860118080861e-10  -1.8111616743401221e-10  -1.8831924643710167e-10  -1.9580879547138573e-10 
 -2.0359620759495290e-10  -2.1169332897375043e-10  -2.2011247690193257e-10  -2.2886645853888833e-10 
 -2.3796859039145075e-10  -2.4743271857092582e-10  -2.5727323985575706e-10  -2.6750512359186246e-10 
 -2.7814393446396358e-10  -2.8920585617254245e-10  -3.0070771605244551e-10  -3.1266701067058610e-10 
 -3.2510193244168296e-10  -3.3803139730252142e-10  -3.5147507348683943e-10  -3.6545341144460865e-10 
 -3.7998767495122352e-10  -3.9509997345392246e-10  -4.1081329570464792e-10  -4.2715154473050737e-10 
 -4.4413957419503006e-10  -4.6180322620553684e-10  -4.8016937062413392e-10  -4.9926594594213008e-10 
 -5.1912200178005585e-10  -5.3976774307794108e-10  -5.6123457604306487e-10  -5.8355515592508160e-10 
 -6.0676343669119638e-10  -6.3089472267695717e-10  -6.5598572229123259e-10  -6.8207460385707932e-10 
 -7.0920105367343539e-10  -7.3740633638597157e-10  -7.6673335775893526e-10  -7.9722672994347478e-10 
 -8.2893283934173286e-10  -8.6189991716995058e-10  -8.9617811282791096e-10  -9.3181957018634760e-10 
 -9.6887850690835833e-10  -1.0074112969254914e-09  -1.0474765561939757e-09  -1.0891352318615382e-09 
 -1.1324506949804571e-09  -1.1774888369078916e-09  -1.2243181695401292e-09  -1.2730099295332253e-09 
 -1.3236381866685960e-09  -1.3762799565283899e-09  -1.4310153176520616e-09  -1.4879275333523600e-09 
 -1.5471031783760464e-09  -1.6086322706020190e-09  -1.6726084079771840e-09  -1.7391289108984040e-09 
 -1.8082949702570848e-09  -1.8802118013716551e-09  -1.9549888040420583e-09  -2.0327397289697912e-09 
 -2.1135828507966024e-09  -2.1976411480251231e-09  -2.2850424900951071e-09  -2.3759198318998950e-09 
 -2.4704114160389684e-09  -2.5686609831143229e-09  -2.6708179903905252e-09  -2.7770378391511258e-09 
 -2.8874821110972651e-09  -3.0023188141481175e-09  -3.1217226380170789e-09  -3.2458752199525233e-09 
 -3.3749654210473387e-09  -3.5091896135376415e-09  -3.6487519795276699e-09  -3.7938648215953356e-09 
 -3.9447488857509232e-09  -4.1016336972402459e-09  -4.2647579097031200e-09  -4.4343696682183070e-09 
 -4.6107269867871841e-09  -4.7940981408304991e-09  -4.9847620752951425e-09  -5.1830088289919644e-09 
 -5.3891399758100090e-09  -5.6034690834784797e-09  -5.8263221905742997e-09  -6.0580383025009626e-09 
 -6.2989699071931206e-09  -6.5494835113315355e-09  -6.8099601978841208e-09  -7.0807962058211523e-09 
 -7.3624035328867213e-09  -7.6552105623432750e-09  -7.9596627146428238e-09  -8.2762231250161114e-09 
 -8.6053733480106197e-09  -8.9476140900492434e-09  -9.3034659711239639e-09  -9.6734703167834013e-09 
 -1.0058189981619172e-08  -1.0458210205503508e-08  -1.0874139503881196e-08  -1.1306610593469837e-08 
 -1.1756281354777053e-08  -1.2223835832898615e-08  -1.2709985278120389e-08  -1.3215469227906824e-08 
 -1.3741056631922407e-08  -1.4287547021797374e-08  -1.4855771727417442e-08  -1.5446595141587830e-08 
 -1.6060916034995878e-08  -1.6699668923472391e-08  -1.7363825489632242e-08  -1.8054396061056902e-08 
 -1.8772431147267785e-08  -1.9519023037828960e-08  -2.0295307464010534e-08  -2.1102465326540812e-08 
 -2.1941724492076002e-08  -2.2814361661120876e-08  -2.3721704310241984e-08  -2.4665132711529270e-08 
 -2.5646082032377814e-08  -2.6666044518785571e-08  -2.7726571765488152e-08  -2.8829277076385651e-08 
 -2.9975837918852435e-08  -3.1167998475664683e-08  -3.2407572298428339e-08  -3.3696445066545184e-08 
 -3.5036577455914682e-08  -3.6430008121736540e-08  -3.7878856799952690e-08  -3.9385327532047215e-08 
 -4.0951712018111142e-08  -4.2580393103273160e-08  -4.4273848402801417e-08  -4.6034654071391117e-08 
 -4.7865488722372761e-08  -4.9769137502803550e-08  -5.1748496330641826e-08  -5.3806576300439162e-08 
 -5.5946508264176017e-08  -5.8171547594333774e-08  -6.0485079136464748e-08  -6.2890622358755176e-08 
 -6.5391836706412172e-08  -6.7992527169022854e-08  -7.0696650069357177e-08  -7.3508319082422968e-08 
 -7.6431811493933362e-08  -7.9471574707708920e-08  -8.2632233011917575e-08  -8.5918594614449611e-08 
 -8.9335658958132188e-08  -9.2888624326916804e-08  -9.6582895754614547e-08  -1.0042409324821424e-07 
 -1.0441806033829789e-07  -1.0857087296956643e-07  -1.1288884874500509e-07  -1.1737855653775720e-07 
 -1.2204682648533454e-07  -1.2690076038137485e-07  -1.3194774248076103e-07  -1.3719545073454808e-07 
 -1.4265186847179597e-07  -1.4832529654608803e-07  -1.5422436596522339e-07  -1.6035805102330416e-07 
 -1.6673568295520573e-07  -1.7336696413421467e-07  -1.8026198283444198e-07  -1.8743122858048429e-07 
 -1.9488560810769537e-07  -2.0263646195736264e-07  -2.1069558173205184e-07  -2.1907522803738245e-07 
 -2.2778814913754972e-07  -2.3684760035298826e-07  -2.4626736422971053e-07  -2.5606177151102027e-07 
 -2.6624572294353185e-07  -2.7683471195068835e-07  -2.8784484820830104e-07  -2.9929288215800039e-07 
 -3.1119623049592314e-07  -3.2357300267543674e-07  -3.3644202846426089e-07  -3.4982288659793949e-07 
 -3.6373593457329013e-07  -3.7820233962720524e-07  -3.9324411094796452e-07  -4.0888413316811953e-07 
 -4.2514620118994688e-07  -4.4205505639650336e-07  -4.5963642430343277e-07  -4.7791705370885798e-07 
 -4.9692475740098908e-07  -5.1668845448544274e-07  -5.3723821439673736e-07  -5.5860530266100334e-07 
 -5.8082222847960982e-07  -6.0392279420618714e-07  -6.2794214679241219e-07  -6.5291683128092630e-07 
 -6.7888484642687502e-07  -7.0588570253280448e-07  -7.3396048158502404e-07  -7.6315189978306148e-07 
 -7.9350437255747503e-07  -8.2506408217509366e-07  -8.5787904803469425e-07  -8.9199919976023732e-07 
 -9.2747645320304612e-07  -9.6436478946874199e-07  -1.0027203370893981e-06  -1.0426014574661242e-06 
 -1.0840688337123300e-06  -1.1271855630330752e-06  -1.1720172527813338e-06  -1.2186321203375889e-06 
 -1.2671010969650410e-06  -1.3174979357987516e-06  -1.3698993241333762e-06  -1.4243850001807012e-06 
 -1.4810378744750250e-06  -1.5399441561115150e-06  -1.6011934840100612e-06  -1.6648790634048423e-06 
 -1.7310978077677566e-06  -1.7999504863822390e-06  -1.8715418777925429e-06  -1.9459809293626362e-06 
 -2.0233809231881094e-06  -2.1038596486142849e-06  -2.1875395816237399e-06  -2.2745480713670494e-06 
 -2.3650175341213926e-06  -2.4590856549730979e-06  -2.5568955975319685e-06  -2.6585962219975554e-06 
 -2.7643423119102862e-06  -2.8742948099337220e-06  -2.9886210630279499e-06  -3.1074950773885371e-06 
 -3.2310977835404845e-06  -3.3596173119920494e-06  -3.4932492798696030e-06  -3.6321970889714199e-06 
 -3.7766722356958684e-06  -3.9268946333176034e-06  -4.0830929471043882e-06  -4.2455049427867163e-06 
 -4.4143778489130445e-06  -4.5899687336446218e-06  -4.7725448965661186e-06  -4.9623842761113139e-06 
 -5.1597758732269957e-06  -5.3650201919232460e-06  -5.5784296973841602e-06  -5.8003292923400559e-06 
 -6.0310568124302794e-06  -6.2709635413148485e-06  -6.5204147463236727e-06  -6.7797902354634584e-06 
 -7.0494849366355555e-06  -7.3299094999517853e-06  -7.6214909240712612e-06  -7.9246732075178832e-06 
 -8.2399180259767570e-06  -8.5677054366079130e-06  -8.9085346104571271e-06  -9.2629245940871605e-06 
 -9.6314151015976684e-06  -1.0014567338248979e-05  -1.0412964856953629e-05  -1.0827214448950403e-05 
 -1.1257947070028308e-05  -1.1705818803722858e-05  -1.2171511862964333e-05  -1.2655735631716763e-05 
 -1.3159227748208758e-05  -1.3682755231421274e-05  -1.4227115652564458e-05  -1.4793138353345581e-05 
 -1.5381685712902330e-05  -1.5993654465351383e-05  -1.6629977069980580e-05  -1.7291623136194687e-05 
 -1.7979600905410000e-05  -1.8694958792181125e-05  -1.9438786986935596e-05  -2.0212219122788059e-05 
 -2.1016434009004489e-05  -2.1852657433792319e-05  -2.2722164039198427e-05  -2.3626279271011184e-05 
 -2.4566381406678343e-05  -2.5543903664375109e-05  -2.6560336396483491e-05  -2.7617229370875178e-05 
 -2.8716194143528786e-05  -2.9858906526154166e-05  -3.1047109152645828e-05  -3.2282614148342201e-05 
 -3.3567305906229336e-05  -3.4903143974394331e-05  -3.6292166059209932e-05  -3.7736491148912962e-05 
 -3.9238322762428505e-05  -4.0799952328490379e-05  -4.2423762700311507e-05  -4.4112231811274515e-05 
 -4.5867936477333383e-05  -4.7693556352049844e-05  -4.9591878040429935e-05  -5.1565799377977432e-05 
 -5.3618333881642393e-05  -5.5752615379617161e-05  -5.7971902827214699e-05  -6.0279585316362134e-05 
 -6.2679187286548385e-05  -6.5174373945388648e-05  -6.7768956907300447e-05  -7.0466900059136867e-05 
 -7.3272325661983802e-05  -7.6189520698708487e-05  -7.9222943477238374e-05  -8.2377230499963247e-05 
 -8.5657203610077661e-05  -8.9067877426132259e-05  -9.2614467076520477e-05  -9.6302396246119521e-05 
 -1.0013730554780163e-04  -1.0412506123206568e-04  -1.0827176424858054e-04  -1.1258375967400982e-04 
 -1.1706764652108035e-04  -1.2173028794447857e-04  -1.2657882185981002e-04  -1.3162067199252797e-04 
 -1.3686355937444952e-04  -1.4231551430620332e-04  -1.4798488880472718e-04  -1.5388036955573113e-04 
 -1.6001099139187228e-04  -1.6638615131826345e-04  -1.7301562310783884e-04  -1.7990957249005418e-04 
 -1.8707857295737783e-04  -1.9453362221506944e-04  -2.0228615930081040e-04  -2.1034808240188025e-04 
 -2.1873176739873750e-04  -2.2745008716509429e-04  -2.3651643165584384e-04  -2.4594472881554091e-04 
 -2.5574946634151455e-04  -2.6594571433716279e-04  -2.7654914889248125e-04  -2.8757607663047123e-04 
 -2.9904346025972327e-04  -3.1096894517520894e-04  -3.2337088715111138e-04  -3.3626838117141613e-04 
 -3.4968129144595902e-04  -3.6363028266168772e-04  -3.7813685252103711e-04  -3.9322336562159376e-04 
 -4.0891308873354987e-04  -4.2523022753392786e-04  -4.4219996485912337e-04  -4.5984850054000480e-04 
 -4.7820309288661324e-04  -4.9729210189246775e-04  -5.1714503423154034e-04  -5.3779259012419446e-04 
 -5.5926671215175542e-04  -5.8160063610289349e-04  -6.0482894393870483e-04  -6.2898761896723089e-04 
 -6.5411410332220411e-04  -6.8024735784503879e-04  -7.0742792447352394e-04  -7.3569799124531424e-04 
 -7.6510146002918089e-04  -7.9568401710207741e-04  -8.2749320669541491e-04  -8.6057850763953672e-04 
 -8.9499141324122990e-04  -9.3078551453528412e-04  -9.6801658705750985e-04  -1.0067426812934220e-03 
 -1.0470242169638381e-03  -1.0889240813160962e-03  -1.1325077315973682e-03  -1.1778433018947260e-03 
 -1.2250017145351863e-03  -1.2740567962479601e-03  -1.3250853993005795e-03  -1.3781675278304764e-03 
 -1.4333864696040146e-03  -1.4908289334458853e-03  -1.5505851925932581e-03  -1.6127492342411472e-03 
 -1.6774189155581121e-03  -1.7446961264646955e-03  -1.8146869594810324e-03  -1.8875018869647037e-03 
 -1.9632559460754347e-03  -2.0420689318193849e-03  -2.1240655985429679e-03  -2.2093758702640036e-03 
 -2.2981350602470046e-03  -2.3904841002491705e-03  -2.4865697798846921e-03  -2.5865449965769365e-03 
 -2.6905690165912330e-03  -2.7988077476654521e-03  -2.9114340237811950e-03  -3.0286279026455190e-03 
 -3.1505769764815514e-03  -3.2774766967565041e-03  -3.4095307135070243e-03  -3.5469512299553686e-03 
 -3.6899593731448471e-03  -3.8387855813601297e-03  -3.9936700091370118e-03  -4.1548629507073354e-03 
 -4.3226252827683479e-03  -4.4972289275114147e-03  -4.6789573368933883e-03  -4.8681059991849450e-03 
 -5.0649829688839227e-03  -5.2699094211385031e-03  -5.4832202318850767e-03  -5.7052645849688197e-03 
 -5.9364066075817895e-03  -6.1770260354241215e-03  -6.4275189090681282e-03  -6.6882983030840722e-03 
 -6.9597950895694096e-03  -7.2424587378112819e-03  -7.5367581519047901e-03  -7.8431825482478679e-03 
 -8.1622423749371890e-03  -8.4944702751993586e-03  -8.8404220971075483e-03  -9.2006779519562890e-03 
 -9.5758433237970349e-03  -9.9665502327740702e-03  -1.0373458455045476e-02  -1.0797256802227435e-02 
 -1.1238664463462666e-02  -1.1698432413385069e-02  -1.2177344889435324e-02  -1.2676220942173896e-02 
 -1.3195916062441901e-02  -1.3737323889436003e-02  -1.4301378003991116e-02  -1.4889053811607168e-02 
 -1.5501370520010943e-02  -1.6139393216315630e-02  -1.6804235049126873e-02  -1.7497059521247922e-02 
 -1.8219082898957881e-02  -1.8971576744177338e-02  -1.9755870576196599e-02  -2.0573354670022574e-02 
 -2.1425482998805697e-02  -2.2313776328235488e-02  -2.3239825471247446e-02  -2.4205294711863317e-02 
 -2.5211925407496033e-02  -2.6261539779588516e-02  -2.7356044903025813e-02  -2.8497436905363490e-02 
 -2.9687805387555305e-02  -3.0929338078538249e-02  -3.2224325736751457e-02  -3.3575167312421994e-02 
 -3.4984375385254507e-02  -3.6454581893010790e-02  -3.7988544167363490e-02  -3.9589151294360872e-02 
 -4.1259430817843668e-02  -4.3002555805220617e-02  -4.4821852296133634e-02  -4.6720807155733353e-02 
 -4.8703076355543308e-02  -5.0772493706219314e-02  -5.2933080067913987e-02  -5.5189053065439544e-02 
 -5.7544837336985739e-02  -6.0005075346802113e-02  -6.2574638793995913e-02  -6.5258640651434066e-02 
 -6.8062447870674503e-02  -7.0991694790892873e-02  -7.4052297291918021e-02  -7.7250467733752395e-02 
 -8.0592730727330295e-02  -8.4085939783767771e-02  -8.7737294891982870e-02  -9.1554361077321289e-02 
 -9.5545087996712283e-02  -9.9717830628907420e-02  -1.0408137112152679e-01  -1.0864494185994715e-01 
 -1.1341824982653496e-01  -1.1841150232233343e-01  -1.2363543412707928e-01  -1.2910133617733877e-01 
 -1.3482108584661828e-01  -1.4080717891552114e-01  -1.4707276332438718e-01  -1.5363167480535564e-01 
 -1.6049847449543547e-01  -1.6768848863694003e-01  -1.7521785047653032e-01  -1.8310354447910379e-01 
 -1.9136345297785076e-01  -2.0001640538694729e-01  -2.0908223010854926e-01  -2.1858180927096357e-01 
 -2.2853713644006476e-01  -2.3897137745116492e-01  -2.4990893451357829e-01  -2.6137551374500900e-01 
 -2.7339819629755402e-01  -2.8600551324150525e-01  -2.9922752437715489e-01  -3.1309590114838370e-01 
 -3.2764401383483632e-01  -3.4290702320183269e-01  -3.5892197678873722e-01  -3.7572791001710892e-01 
 -3.9336595229948534e-01  -4.1187943832786961e-01  -4.3131402471774172e-01  -4.5171781217844420e-01 
 -4.7314147337386891e-01  -4.9563838662820048e-01  -5.1926477561978734e-01  -5.4407985519163093e-01 
 -5.7014598338917599e-01  -5.9752881981465067e-01  -6.2629749036167948e-01  -6.5652475836383251e-01 
 -6.8828720215565053e-01  -7.2166539900393989e-01  -7.5674411532016617e-01  -7.9361250301097930e-01 
 -8.3236430176250931e-01  -8.7309804698446969e-01  -9.1591728306139097e-01  -9.6093078146978650e-01 
 -1.0082527632207721e+00  -1.0580031249768092e+00  -1.1103076680678559e+00  -1.1652983294953505e+00 
 -1.2231134138612414e+00  -1.2838978249925961e+00  -1.3478032958494592e+00  -1.4149886151034485e+00 
 -1.4856198485563727e+00  -1.5598705533310300e+00  -1.6379219825097227e+00  -1.7199632776191927e+00 
 -1.8061916460634091e+00  -1.8968125202876334e+00  -1.9920396951185682e+00  -2.0920954393666196e+00 
 -2.1972105773979362e+00  -2.3076245359874403e+00  -2.4235853513509342e+00  -2.5453496308270616e+00 
 -2.6731824632413130e+00  -2.8073572715381077e+00  -2.9481556008179526e+00  -3.0958668344700264e+00 
 -3.2507878306532980e+00  -3.4132224709586918e+00  -3.5834811126900772e+00  -3.7618799358432846e+00 
 -3.9487401755513161e+00  -4.1443872305137264e+00  -4.3491496377533254e+00  -4.5633579039595027e+00 
 -4.7873431837026619e+00  -5.0214357949562860e+00  -5.2659635626625940e+00  -5.5212499815448126e+00 
 -5.7876121900252544e+00  -6.0653587479749298e+00  -6.3547872121185645e+00  -6.6561815042682291e+00 
 -6.9698090691780692e+00  -7.2959178207162552e+00  -7.6347328772510039e+00  -7.9864530896510244e+00 
 -8.3512473681079431e+00  -8.7292508170923746e+00  -9.1205606911405077e+00  -9.5252321878097188e+00 
 -9.9432740980039434e+00  -1.0374644337906913e+01  -1.0819245390916777e+01  -1.1276919692183736e+01 
 -1.1747444992540608e+01  -1.2230529742706889e+01  -1.2725808542564705e+01  -1.3232837703977824e+01 
 -1.3751090978995911e+01  -1.4279955508314140e+01  -1.4818728047530158e+01  -1.5366611531071916e+01 
 -1.5922712035710500e+01  -1.6486036207403785e+01  -1.7055489216948200e+01  -1.7629873311670593e+01 
 -1.8207887032292270e+01  -1.8788125166238643e+01  -1.9369079511093883e+01  -1.9949140524565781e+01 
 -2.0526599940069492e+01  -2.1099654429541786e+01  -2.1666410396857870e+01  -2.2224889985529469e+01 
 -2.2773038382283424e+01  -2.3308732492514249e+01  -2.3829791053173661e+01  -2.4333986232059601e+01 
 -2.4819056738484910e+01  -2.5282722438139903e+01  -2.5722700424529670e+01  -2.6136722451644456e+01 
 -2.6522553579737139e+01  -2.6878011831708928e+01  -2.7200988605994720e+01  -2.7489469547546758e+01 
 -2.7741555545405795e+01  -2.7955483505766967e+01  -2.8129646543709040e+01  -2.8262613243155499e+01 
 -2.8353145649977833e+01  -2.8400215683598478e+01  -2.8403019674436116e+01  -2.8360990755489112e+01 
 -2.8273808855154336e+01  -2.8141408055614022e+01  -2.7963981099195902e+01  -2.7741980848333128e+01 
 -2.7476118539149066e+01  -2.7167358721387615e+01  -2.6816910855003179e+01  -2.6426217639721397e+01 
 -2.5996940285503655e+01  -2.5530941077516232e+01  -2.5030263728456308e+01  -2.4497112118233364e+01 
 -2.3933828072316704e+01  -2.3342868812011950e+01  -2.2726784624872810e+01  -2.2088197169759031e+01 
 -2.1429778688021361e+01  -2.0754232323482306e+01  -2.0064273329193419e+01  -1.9362610604165972e+01 
 -1.8651930682823362e+01  -1.7934881370698672e+01  -1.7214056440331724e+01  -1.6491981198682957e+01 
 -1.5771098952869668e+01  -1.5053758465497697e+01  -1.4342202503030000e+01  -1.3638557577855645e+01 
 -1.2944824969809462e+01  -1.2262873089737846e+01  -1.1594431220317144e+01  -1.0941084641177875e+01 
 -1.0304271119100170e+01  -9.6852787213428719e+00  -9.0852448919493334e+00  -8.5051567173863205e+00 
 -7.9458522988894176e+00  -7.4080231438799293e+00  -6.8922174870777040e+00  -6.3988444527016464e+00 
 -5.9281789716590216e+00  -5.4803673711905923e+00  -5.0554335584570609e+00  -4.6532857235418437e+00 
 -4.2737234909453043e+00  -3.9164454516195506e+00  -3.5810570098194918e+00  -3.2670784805106403e+00 
 -2.9739533738488597e+00  -2.7010568034766060e+00  -2.4477039552582589e+00  -2.2131585528289137e+00 
 -1.9966412561929594e+00  -1.7973379298104204e+00  -1.6144077173577709e+00  -1.4469908618321703e+00 
 -1.2942162113012496e+00  -1.1552083580824690e+00  -1.0290943525034069e+00  -9.1500995251846295e-01 
 -8.1210536497299446e-01  -7.1955044590346584e-01  -6.3653933393031126e-01  -5.6229449874393678e-01 
 -4.9607019490873627e-01  -4.3715531951738373e-01  -3.8487568041972298e-01  -3.3859568963507219e-01 
 -2.9771950395457869e-01  -2.6169164149072377e-01  -2.2999710889661704e-01  -2.0216107904712971e-01 
 -1.7774816306508542e-01  -1.5636132363602440e-01  -1.3764047856217909e-01  -1.2126084446721323e-01 
 -1.0693107051183062e-01  -9.4391210976496581e-02  -8.3410583692088758e-02  -7.3785558652596214e-02 
 -6.5337317840090225e-02  -5.7909623456026606e-02  -5.1366627515330068e-02  -4.5590751253233960e-02 
 -4.0480658149973342e-02  -3.5949339719513321e-02  -3.1922328650257709e-02  -2.8336049530733050e-02 
 -2.5136313329413098e-02  -2.2276958096531858e-02  -1.9718635071305259e-02  -1.7427736546999664e-02 
 -1.5375459488330620e-02  -1.3536997013881726e-02  -1.1890848439293769e-02  -1.0418237600578922e-02 
 -9.1026286062936643e-03  -7.9293279596757624e-03  -6.8851620985598289e-03  -5.9582197704066767e-03 
 -5.1376492393938695e-03  -4.4135010608664944e-03  -3.7766080068614531e-03  -3.2184946405961336e-03 
 -2.7313099785127213e-03  -2.3077776124950850e-03  -1.9411585649892838e-03  -1.6252229948141626e-03 
 -1.3542276462517177e-03  -1.1228966285122201e-03  -9.2640372157874078e-04  -7.6035492643316432e-04 
 -6.2077041460506641e-04  -5.0406538828095193e-04  -4.0702964403151431e-04  -3.2680584795630847e-04 
 -2.6086668577213532e-04  -2.0699115637544797e-04  -1.6324033989935870e-04  -1.2793299907349180e-04 
 -9.9621373082601353e-05  -7.7067502695369962e-05  -5.9220390087504662e-05  -4.5194251590558575e-05 
 -3.4248070901019913e-05  -2.5766607640094630e-05  -1.9242964444869785e-05  -1.4262767187575202e-05 
 -1.0489969075160969e-05  -7.6542513343442380e-06  -5.5399615437744120e-06  -3.9765056294333369e-06 
 -2.8300909660870045e-06  -1.9967055384763619e-06  -1.3962111282042271e-06  -9.6742630131641684e-07 
 -6.6407678806840214e-07  -4.5149586695594161e-07  -3.0396479676418789e-07  -2.0259244619582737e-07 
 -1.3364338681851088e-07  -8.7234268607424894e-08  -5.6328819384979399e-08  -3.5971928516417455e-08 
 -2.2712721988297195e-08  -1.4175127892939051e-08  -8.7420666435104938e-09  -5.3260412933188439e-09 
 -3.2045651394011370e-09  -1.9035993177230871e-09  -1.1160619575458769e-09  -6.4560746893412661e-10 
 -3.6836132073548303e-10  -2.0723304090691117e-10  -1.1491433250037936e-10  -6.2786558444585372e-11 
 -3.3789343896745813e-11  -1.7904117200762065e-11  -9.3373066452448727e-12  -4.7909036598900980e-12 
 -2.4175063924503922e-12  -1.1992103038331997e-12  -5.8454710929764984e-13  -2.7986850631140180e-13 
 -1.3155500243894712e-13  -6.0685602531280163e-14  -2.7459184778022908e-14  -1.2181713026566230e-14 
 -5.2959810820046750e-15  -2.2552502993964939e-15  -9.4015354565965304e-16  -3.8353505388515152e-16 
 -1.5293354157163519e-16  -5.9681536599624482e-17  -2.2717170481466725e-17  -8.4666940076248503e-18 
 -3.0814026638970542e-18  -1.0656035241933191e-18  -3.4815514288932659e-19  -1.1805071590601472e-19 
 -4.9928465698930461e-20  0.0000000000000000e+00  0.0000000000000000e+00  0.0000000000000000e+00 
 0.0000000000000000e+00  0.0000000000000000e+00  0.0000000000000000e+00  0.0000000000000000e+00 
 0.0000000000000000e+00  0.0000000000000000e+00  0.0000000000000000e+00  0.0000000000000000e+00 
 0.0000000000000000e+00  0.0000000000000000e+00  0.0000000000000000e+00  0.0000000000000000e+00 
 0.0000000000000000e+00  0.0000000000000000e+00  0.0000000000000000e+00  0.0000000000000000e+00 
 0.0000000000000000e+00  0.0000000000000000e+00  0.0000000000000000e+00  0.0000000000000000e+00 
 0.0000000000000000e+00  0.0000000000000000e+00  0.0000000000000000e+00  0.0000000000000000e+00 
 0.0000000000000000e+00  0.0000000000000000e+00  0.0000000000000000e+00  0.0000000000000000e+00 
 0.0000000000000000e+00  0.0000000000000000e+00  0.0000000000000000e+00  0.0000000000000000e+00 
 0.0000000000000000e+00  0.0000000000000000e+00  0.0000000000000000e+00  0.0000000000000000e+00 
 0.0000000000000000e+00  0.0000000000000000e+00  0.0000000000000000e+00  0.0000000000000000e+00 
 0.0000000000000000e+00  0.0000000000000000e+00  0.0000000000000000e+00  0.0000000000000000e+00 
 0.0000000000000000e+00  0.0000000000000000e+00  0.0000000000000000e+00  0.0000000000000000e+00 
 0.0000000000000000e+00  0.0000000000000000e+00  0.0000000000000000e+00  0.0000000000000000e+00 
 0.0000000000000000e+00  0.0000000000000000e+00  0.0000000000000000e+00  0.0000000000000000e+00 
 0.0000000000000000e+00  0.0000000000000000e+00  0.0000000000000000e+00  0.0000000000000000e+00 
 0.0000000000000000e+00  0.0000000000000000e+00  0.0000000000000000e+00  0.0000000000000000e+00 
 0.0000000000000000e+00  0.0000000000000000e+00  0.0000000000000000e+00  0.0000000000000000e+00 
 0.0000000000000000e+00  0.0000000000000000e+00  0.0000000000000000e+00  0.0000000000000000e+00 
 0.0000000000000000e+00  0.0000000000000000e+00  0.0000000000000000e+00  0.0000000000000000e+00 
 0.0000000000000000e+00  0.0000000000000000e+00  0.0000000000000000e+00  0.0000000000000000e+00 
 0.0000000000000000e+00  0.0000000000000000e+00  0.0000000000000000e+00  0.0000000000000000e+00 
 0.0000000000000000e+00  0.0000000000000000e+00  0.0000000000000000e+00  0.0000000000000000e+00 
 0.0000000000000000e+00  0.0000000000000000e+00  0.0000000000000000e+00  0.0000000000000000e+00 
 0.0000000000000000e+00  0.0000000000000000e+00  0.0000000000000000e+00  0.0000000000000000e+00 
 0.0000000000000000e+00  0.0000000000000000e+00  0.0000000000000000e+00  0.0000000000000000e+00 
 0.0000000000000000e+00  0.0000000000000000e+00  0.0000000000000000e+00  0.0000000000000000e+00 
 0.0000000000000000e+00  0.0000000000000000e+00  0.0000000000000000e+00  0.0000000000000000e+00 
 0.0000000000000000e+00  0.0000000000000000e+00  0.0000000000000000e+00  0.0000000000000000e+00 
 0.0000000000000000e+00  0.0000000000000000e+00  0.0000000000000000e+00  0.0000000000000000e+00 
 0.0000000000000000e+00  0.0000000000000000e+00  0.0000000000000000e+00  0.0000000000000000e+00 
 0.0000000000000000e+00  0.0000000000000000e+00  0.0000000000000000e+00  0.0000000000000000e+00 
 0.0000000000000000e+00  0.0000000000000000e+00  0.0000000000000000e+00  0.0000000000000000e+00 
 0.0000000000000000e+00  0.0000000000000000e+00  0.0000000000000000e+00  0.0000000000000000e+00 
 0.0000000000000000e+00  0.0000000000000000e+00  0.0000000000000000e+00  0.0000000000000000e+00 
 0.0000000000000000e+00  0.0000000000000000e+00  0.0000000000000000e+00  0.0000000000000000e+00 
 0.0000000000000000e+00  0.0000000000000000e+00  0.0000000000000000e+00  0.0000000000000000e+00 
 0.0000000000000000e+00  0.0000000000000000e+00  0.0000000000000000e+00  0.0000000000000000e+00 
 0.0000000000000000e+00  0.0000000000000000e+00  0.0000000000000000e+00  0.0000000000000000e+00 
 0.0000000000000000e+00  0.0000000000000000e+00  0.0000000000000000e+00  0.0000000000000000e+00 
 0.0000000000000000e+00  0.0000000000000000e+00  0.0000000000000000e+00  0.0000000000000000e+00 
 0.0000000000000000e+00  0.0000000000000000e+00  0.0000000000000000e+00  0.0000000000000000e+00 
 0.0000000000000000e+00  0.0000000000000000e+00  0.0000000000000000e+00  0.0000000000000000e+00 
 0.0000000000000000e+00  0.0000000000000000e+00  0.0000000000000000e+00  0.0000000000000000e+00 
 0.0000000000000000e+00  0.0000000000000000e+00  0.0000000000000000e+00  0.0000000000000000e+00 
 0.0000000000000000e+00  0.0000000000000000e+00  0.0000000000000000e+00  0.0000000000000000e+00 
 0.0000000000000000e+00  0.0000000000000000e+00  0.0000000000000000e+00  0.0000000000000000e+00 
 0.0000000000000000e+00  0.0000000000000000e+00  0.0000000000000000e+00  0.0000000000000000e+00 
 0.0000000000000000e+00  0.0000000000000000e+00  0.0000000000000000e+00  0.0000000000000000e+00 
 0.0000000000000000e+00  0.0000000000000000e+00  0.0000000000000000e+00  0.0000000000000000e+00 
 0.0000000000000000e+00  0.0000000000000000e+00  0.0000000000000000e+00  0.0000000000000000e+00 
 0.0000000000000000e+00  0.0000000000000000e+00  0.0000000000000000e+00  0.0000000000000000e+00 
 0.0000000000000000e+00 
  </PP_BETA>
  <PP_BETA>
  4  2      Beta    L
  1189  
 -6.7046182659668557e-13  -6.9712641782874631e-13  -7.2485147276190031e-13  -7.5367916655102122e-13 
 -7.8365335167732812e-13  -8.1481962465647240e-13  -8.4722539539963107e-13  -8.8091995933312633e-13 
 -9.1595457238627806e-13  -9.5238252896156089e-13  -9.9025924300567056e-13  -1.0296423323048233e-12 
 -1.0705917061325286e-12  -1.1131696563831488e-12  -1.1574409523298846e-12  -1.2034729391513419e-12 
 -1.2513356403765330e-12  -1.3011018644041749e-12  -1.3528473152583160e-12  -1.4066507077487516e-12 
 -1.4625938872114482e-12  -1.5207619540110816e-12  -1.5812433929951100e-12  -1.6441302080963078e-12 
 -1.7095180622884935e-12  -1.7775064231083691e-12  -1.8481987139648381e-12  -1.9217024714659670e-12 
 -1.9981295090029177e-12  -2.0775960868396862e-12  -2.1602230889674059e-12  -2.2461362069922241e-12 
 -2.3354661313364823e-12  -2.4283487500440824e-12  -2.5249253554924146e-12  -2.6253428593253396e-12 
 -2.7297540159341490e-12  -2.8383176548264727e-12  -2.9511989222366311e-12  -3.0685695323449073e-12 
 -3.1906080284879823e-12  -3.3175000547577930e-12  -3.4494386384020638e-12  -3.5866244834559658e-12 
 -3.7292662760517426e-12  -3.8775810018705679e-12  -4.0317942762196744e-12  -4.1921406872368087e-12 
 -4.3588641527440419e-12  -4.5322182912939051e-12  -4.7124668079721694e-12  -4.8998838955441862e-12 
 -5.0947546515550375e-12  -5.2973755120179666e-12  -5.5080547023507871e-12  -5.7271127062462732e-12 
 -5.9548827531897382e-12  -6.1917113253654693e-12  -6.4379586847230164e-12  -6.6939994210052403e-12 
 -6.9602230215716519e-12  -7.2370344638839185e-12  -7.5248548315548188e-12  -7.8241219548977848e-12 
 -8.1352910769514035e-12  -8.4588355459919842e-12  -8.7952475355878507e-12  -9.1450387932903254e-12 
 -9.5087414191007734e-12  -9.8869086748974271e-12  -1.0280115826053717e-11  -1.0688961016528030e-11 
 -1.1114066178756358e-11  -1.1556077979731677e-11  -1.2015668804709564e-11  -1.2493537780036064e-11 
 -1.2990411836654112e-11  -1.3507046815906037e-11  -1.4044228619314400e-11  -1.4602774404090245e-11 
 -1.5183533826187211e-11  -1.5787390332792564e-11  -1.6415262506221399e-11  -1.7068105461257885e-11 
 -1.7746912298069801e-11  -1.8452715612905923e-11  -1.9186589068874837e-11  -1.9949649029194274e-11 
 -2.0743056255395624e-11  -2.1568017673066992e-11  -2.2425788207820578e-11  -2.3317672694277591e-11 
 -2.4245027860974274e-11  -2.5209264394208903e-11  -2.6211849083968681e-11  -2.7254307055201583e-11 
 -2.8338224087826798e-11  -2.9465249029013231e-11  -3.0637096301395594e-11  -3.1855548511043416e-11 
 -3.3122459159150534e-11  -3.4439755461569535e-11  -3.5809441280480910e-11  -3.7233600172655878e-11 
 -3.8714398558950426e-11  -4.0254089019851603e-11  -4.1855013722089327e-11  -4.3519607981526732e-11 
 -4.5250403967747865e-11  -4.7050034555979466e-11  -4.8921237332205041e-11  -5.0866858757564863e-11 
 -5.2889858498376080e-11  -5.4993313928360093e-11  -5.7180424809925918e-11  -5.9454518161630610e-11 
 -6.1819053319220840e-11  -6.4277627197955568e-11  -6.6833979764213071e-11  -6.9491999724707405e-11 
 -7.2255730441967779e-11  -7.5129376085079563e-11  -7.8117308025044180e-11  -8.1224071484484476e-11 
 -8.4454392451814289e-11  -8.7813184870386836e-11  -9.1305558113559762e-11  -9.4936824757048142e-11 
 -9.8712508660387475e-11  -1.0263835336980112e-10  -1.0672033085525443e-10  -1.1096465059498599e-10 
 -1.1537776902133628e-10  -1.1996639934224124e-10  -1.2473752175333307e-10  -1.2969839405618081e-10 
 -1.3485656269882548e-10  -1.4021987425540217e-10  -1.4579648736231457e-10  -1.5159488512911606e-10 
 -1.5762388804298084e-10  -1.6389266738639047e-10  -1.7041075918845153e-10  -1.7718807873106491e-10 
 -1.8423493563201226e-10  -1.9156204952790692e-10  -1.9918056638086477e-10  -2.0710207543369961e-10 
 -2.1533862683943850e-10  -2.2390274999197081e-10  -2.3280747258571993e-10  -2.4206634043332922e-10 
 -2.5169343807150735e-10  -2.6170341018638207e-10  -2.7211148389095284e-10  -2.8293349188853017e-10 
 -2.9418589655740098e-10  -3.0588581499335323e-10  -3.1805104504815851e-10  -3.3070009240362080e-10 
 -3.4385219872237796e-10  -3.5752737091827525e-10  -3.7174641159084246e-10  -3.8653095067016917e-10 
 -4.0190347832031539e-10  -4.1788737915131249e-10  -4.3450696779179744e-10  -4.5178752587639309e-10 
 -4.6975534050410192e-10  -4.8843774422621297e-10  -5.0786315662455650e-10  -5.2806112754335258e-10 
 -5.4906238204041584e-10  -5.7089886712610737e-10  -5.9360380036111931e-10  -6.1721172038702725e-10 
 -6.4175853946648316e-10  -6.6728159811296030e-10  -6.9381972189316773e-10  -7.2141328048853217e-10 
 -7.5010424910560025e-10  -7.7993627232877463e-10  -8.1095473051251837e-10  -8.4320680881402957e-10 
 -8.7674156897138982e-10  -9.1161002393639114e-10  -9.4786521547555652e-10  -9.8556229485742285e-10 
 -1.0247586067488060e-09  -1.0655137764476942e-09  -1.1078898005854585e-09  -1.1519511414363624e-09 
 -1.1977648249778275e-09  -1.2454005428506503e-09  -1.2949307583742448e-09  -1.3464308167782002e-09 
 -1.3999790598178487e-09  -1.4556569449481751e-09  -1.5135491692373877e-09  -1.5737437982086258e-09 
 -1.6363323998058225e-09  -1.7014101836875048e-09  -1.7690761460604178e-09  -1.8394332202733408e-09 
 -1.9125884334001227e-09  -1.9886530690501956e-09  -2.0677428366541888e-09  -2.1499780474822213e-09 
 -2.2354837976625731e-09  -2.3243901584792177e-09  -2.4168323742376519e-09  -2.5129510680000627e-09 
 -2.6128924555027653e-09  -2.7168085675813784e-09  -2.8248574814420691e-09  -2.9372035611306896e-09 
 -3.0540177075656369e-09  -3.1754776185147840e-09  -3.3017680589119745e-09  -3.4330811419243129e-09 
 -3.5696166211977982e-09  -3.7115821947259245e-09  -3.8591938208034573e-09  -4.0126760465460919e-09 
 -4.1722623494757141e-09  -4.3381954926909072e-09  -4.5107278941630595e-09  -4.6901220107198167e-09 
 -4.8766507373000164e-09  -5.0705978220875872e-09  -5.2722582981557434e-09  -5.4819389322783670e-09 
 -5.6999586915911208e-09  -5.9266492288123639e-09  -6.1623553867619669e-09  -6.4074357229455599e-09 
 -6.6622630550022141e-09  -6.9272250278453689e-09  -7.2027247033598645e-09  -7.4891811735519934e-09 
 -7.7870301980855420e-09  -8.0967248671735802e-09  -8.4187362908345190e-09  -8.7535543155609402e-09 
 -9.1016882694915136e-09  -9.4636677372196596e-09  -9.8400433654175189e-09  -1.0231387700501038e-08 
 -1.0638296059610437e-08  -1.1061387436230933e-08  -1.1501305441831759e-08  -1.1958719284955707e-08 
 -1.2434324789248938e-08  -1.2928845451979581e-08  -1.3443033544655775e-08  -1.3977671257417163e-08 
 -1.4533571888941261e-08  -1.5111581083674648e-08  -1.5712578118271390e-08  -1.6337477239195688e-08 
 -1.6987229053524047e-08  -1.7662821975062414e-08  -1.8365283727978850e-08  -1.9095682910239114e-08 
 -1.9855130619223701e-08  -2.0644782141999889e-08  -2.1465838712820113e-08  -2.2319549340520820e-08 
 -2.3207212708601911e-08  -2.4130179150878087e-08  -2.5089852705707426e-08  -2.6087693251923447e-08 
 -2.7125218729719797e-08  -2.8204007449867432e-08  -2.9325700494777069e-08  -3.0492004215061163e-08 
 -3.1704692825393320e-08  -3.2965611103615334e-08  -3.4276677197198689e-08  -3.5639885541330524e-08 
 -3.7057309893064537e-08  -3.8531106486152936e-08  -4.0063517311359983e-08  -4.1656873527248181e-08 
 -4.3313599006626419e-08  -4.5036214024055745e-08  -4.6827339090023765e-08  -4.8689698937620379e-08 
 -5.0626126667780420e-08  -5.2639568059399577e-08  -5.4733086050881361e-08  -5.6909865399919993e-08 
 -5.9173217528528339e-08  -6.1526585560811762e-08  -6.3973549561168876e-08  -6.6517831980846309e-08 
 -6.9163303321129840e-08  -7.1913988021790294e-08  -7.4774070583744317e-08  -7.7747901935246122e-08 
 -8.0840006051299065e-08  -8.4055086836358415e-08  -8.7398035280799264e-08  -9.0873936902041070e-08 
 -9.4488079481650225e-08  -9.8245961110196335e-08  -1.0215329855210471e-07  -1.0621603594323361e-07 
 -1.1044035383441332e-07  -1.1483267859470918e-07  -1.1939969218871941e-07  -1.2414834234278706e-07 
 -1.2908585311559799e-07  -1.3421973588925257e-07  -1.3955780079753750e-07  -1.4510816860879271e-07 
 -1.5087928308145699e-07  -1.5687992381109723e-07  -1.6311921958847621e-07  -1.6960666228898798e-07 
 -1.7635212131460157e-07  -1.8336585861029676e-07  -1.9065854427784404e-07  -1.9824127281070001e-07 
 -2.0612557997472434e-07  -2.1432346036041734e-07  -2.2284738563339454e-07  -2.3171032351087922e-07 
 -2.4092575749309979e-07  -2.5050770737962765e-07  -2.6047075060189025e-07  -2.7083004440432900e-07 
 -2.8160134890797591e-07  -2.9280105109155476e-07  -3.0444618972662001e-07  -3.1655448130469312e-07 
 -3.2914434699587314e-07  -3.4223494067996050e-07  -3.5584617809277939e-07  -3.6999876713207327e-07 
 -3.8471423936911449e-07  -4.0001498281401837e-07  -4.1592427598464184e-07  -4.3246632333095389e-07 
 -4.4966629206881806e-07  -4.6755035047927334e-07  -4.8614570773164852e-07  -5.0548065529114406e-07 
 -5.2558460997395328e-07  -5.4648815871549128e-07  -5.6822310511991316e-07  -5.9082251786182687e-07 
 -6.1432078101391748e-07  -6.3875364637714313e-07  -6.6415828789321680e-07  -6.9057335822225597e-07 
 -7.1803904757179301e-07  -7.4659714486676351e-07  -7.7629110135366060e-07  -8.0716609673576503e-07 
 -8.3926910794020997e-07  -8.7264898062165477e-07  -9.0735650351152612e-07  -9.4344448572611068e-07 
 -9.8096783715131599e-07  -1.0199836520265811e-06  -1.0605512958553452e-06  -1.1027324957745067e-06 
 -1.1465914345206231e-06  -1.1921948481360686e-06  -1.2396121275640958e-06  -1.2889154242876500e-06 
 -1.3401797601730028e-06  -1.3934831416856522e-06  -1.4489066786526259e-06  -1.5065347077522827e-06 
 -1.5664549209198950e-06  -1.6287584988648399e-06  -1.6935402499029854e-06  -1.7608987543160507e-06 
 -1.8309365144580737e-06  -1.9037601108379888e-06  -1.9794803644163681e-06  -2.0582125053639645e-06 
 -2.1400763485394802e-06  -2.2251964759543384e-06  -2.3137024265028450e-06  -2.4057288932473059e-06 
 -2.5014159285591731e-06  -2.6009091574293204e-06  -2.7043599992730472e-06  -2.8119258985684263e-06 
 -2.9237705646800758e-06  -3.0400642212345629e-06  -3.1609838654282244e-06  -3.2867135376633612e-06 
 -3.4174446019246991e-06  -3.5533760373243039e-06  -3.6947147412603728e-06  -3.8416758446530319e-06 
 -3.9944830397388232e-06  -4.1533689209247921e-06  -4.3185753392231339e-06  -4.4903537708081084e-06 
 -4.6689657002586891e-06  -4.8546830190728421e-06  -5.0477884400628369e-06  -5.2485759282653127e-06 
 -5.4573511490251994e-06  -5.6744319339389148e-06  -5.9001487653697564e-06  -6.1348452802768655e-06 
 -6.3788787941288726e-06  -6.6326208457040995e-06  -6.8964577636114428e-06  -7.1707912553993279e-06 
 -7.4560390201549799e-06  -7.7526353855322484e-06  -8.0610319701839935e-06  -8.3816983726140245e-06 
 -8.7151228875042501e-06  -9.0618132506152049e-06  -9.4222974134017937e-06  -9.7971243485323623e-06 
 -1.0186864887546373e-05  -1.0592112591935937e-05  -1.1013484658987732e-05  -1.1451622863775669e-05 
 -1.1907194538750446e-05  -1.2380893592430101e-05  -1.2873441568756363e-05  -1.3385588748744040e-05 
 -1.3918115296116609e-05  -1.4471832448688845e-05  -1.5047583757328187e-05  -1.5646246374400515e-05 
 -1.6268732393682252e-05  -1.6915990243800858e-05  -1.7589006137348541e-05  -1.8288805577900501e-05 
 -1.9016454927259040e-05  -1.9773063035338066e-05  -2.0559782935200210e-05  -2.1377813605860105e-05 
 -2.2228401805572106e-05  -2.3112843978431960e-05  -2.4032488237234024e-05  -2.4988736425646652e-05 
 -2.5983046262890408e-05  -2.7016933574233365e-05  -2.8091974610751708e-05  -2.9209808461942663e-05 
 -3.0372139564923285e-05  -3.1580740314098157e-05  -3.2837453775337839e-05  -3.4144196508872458e-05 
 -3.5502961505276622e-05  -3.6915821239097778e-05  -3.8384930844866441e-05  -3.9912531420418114e-05 
 -4.1500953462657086e-05  -4.3152620441102049e-05  -4.4870052514768056e-05  -4.6655870398168728e-05 
 -4.8512799382455255e-05  -5.0443673517955496e-05  -5.2451439964631238e-05  -5.4539163517237850e-05 
 -5.6710031312246989e-05  -5.8967357723882261e-05  -6.1314589456916725e-05  -6.3755310844196400e-05 
 -6.6293249357176275e-05  -6.8932281338099027e-05  -7.1676437962796342e-05  -7.4529911443464218e-05 
 -7.7497061481145174e-05  -8.0582421978052187e-05  -8.3790708020283375e-05  -8.7126823141914011e-05 
 -9.0595866881900325e-05  -9.4203142645706247e-05  -9.7954165884049746e-05  -1.0185467260168350e-04 
 -1.0591062820965172e-04  -1.1012823673502835e-04  -1.1451395040271381e-04  -1.1907447960447905e-04 
 -1.2381680327107106e-04  -1.2874817966385186e-04  -1.3387615760312953e-04  -1.3920858815104990e-04 
 -1.4475363676766910e-04  -1.5051979595959476e-04  -1.5651589844140008e-04  -1.6275113083085826e-04 
 -1.6923504789992250e-04  -1.7597758740430072e-04  -1.8298908551542682e-04  -1.9028029287963808e-04 
 -1.9786239133040163e-04  -2.0574701128053268e-04  -2.1394624982247422e-04  -2.2247268956589891e-04 
 -2.3133941824312864e-04  -2.4056004911416167e-04  -2.5014874220444033e-04  -2.6012022640990891e-04 
 -2.7048982250536775e-04  -2.8127346709367755e-04  -2.9248773753496227e-04  -3.0414987789663297e-04 
 -3.1627782596680294e-04  -3.2889024137549677e-04  -3.4200653486994847e-04  -3.5564689879229188e-04 
 -3.6983233881001645e-04  -3.8458470695174811e-04  -3.9992673600317019e-04  -4.1588207532030258e-04 
 -4.3247532811981103e-04  -4.4973209030863871e-04  -4.6767899091795388e-04  -4.8634373420925272e-04 
 -5.0575514352341764e-04  -5.2594320694664620e-04  -5.4693912487040533e-04  -5.6877535952596389e-04 
 -5.9148568657761875e-04  -6.1510524886244000e-04  -6.3967061236825718e-04  -6.6521982454568443e-04 
 -6.9179247505424691e-04  -7.1942975904713520e-04  -7.4817454310378850e-04  -7.7807143392440690e-04 
 -8.0916684990561957e-04  -8.4150909572190560e-04  -8.7514844004299300e-04  -9.1013719652336355e-04 
 -9.4652980820615087e-04  -9.8438293549022978e-04  -1.0237555478160366e-03  -1.0647090192328307e-03 
 -1.1073072280175149e-03  -1.1516166605230061e-03  -1.1977065194423233e-03  -1.2456488366831837e-03 
 -1.2955185910569283e-03  -1.3473938309950732e-03  -1.4013558025167481e-03  -1.4574890826806904e-03 
 -1.5158817187664701e-03  -1.5766253734410881e-03  -1.6398154761791998e-03  -1.7055513812179149e-03 
 -1.7739365323404413e-03  -1.8450786347968579e-03  -1.9190898346850413e-03  -1.9960869061301984e-03 
 -2.0761914466177925e-03  -2.1595300808516563e-03  -2.2462346735271535e-03  -2.3364425514280961e-03 
 -2.4302967352760377e-03  -2.5279461817814698e-03  -2.6295460363684664e-03  -2.7352578970675097e-03 
 -2.8452500900955418e-03  -2.9596979576680224e-03  -3.0787841586147695e-03  -3.2026989823997773e-03 
 -3.3316406771752042e-03  -3.4658157925313354e-03  -3.6054395376374287e-03  -3.7507361555035746e-03 
 -3.9019393141304839e-03  -4.0592925153531308e-03  -4.2230495222251620e-03  -4.3934748058342011e-03 
 -4.5708440124839428e-03  -4.7554444522268828e-03  -4.9475756097823575e-03  -5.1475496789281259e-03 
 -5.3556921215102103e-03  -5.5723422522752624e-03  -5.7978538507928307e-03  -6.0325958018011671e-03 
 -6.2769527653803473e-03  -6.5313258784308126e-03  -6.7961334890131869e-03  -7.0718119251883642e-03 
 -7.3588163000836522e-03  -7.6576213550033963e-03  -7.9687223424995453e-03  -8.2926359514209035e-03 
 -8.6299012760684204e-03  -8.9810808316990020e-03  -9.3467616187419694e-03  -9.7275562382206863e-03 
 -1.0124104061008124e-02  -1.0537072453688699e-02  -1.0967158063950724e-02  -1.1415088168595020e-02 
 -1.1881622087415132e-02  -1.2367552666384446e-02  -1.2873707833776581e-02  -1.3400952233046324e-02 
 -1.3950188936512120e-02  -1.4522361244106795e-02  -1.5118454571701750e-02  -1.5739498433763526e-02 
 -1.6386568525368357e-02  -1.7060788908884662e-02  -1.7763334310932723e-02  -1.8495432535548809e-02 
 -1.9258366999817162e-02  -2.0053479398589192e-02  -2.0882172505286543e-02  -2.1745913116183357e-02 
 -2.2646235145986182e-02  -2.3584742882976999e-02  -2.4563114412459369e-02  -2.5583105217748356e-02 
 -2.6646551968477233e-02  -2.7755376506555563e-02  -2.8911590040709187e-02  -3.0117297561162305e-02 
 -3.1374702486690755e-02  -3.2686111556979494e-02  -3.4053939983967628e-02  -3.5480716876653343e-02 
 -3.6969090954670020e-02  -3.8521836566830003e-02  -4.0141860031769561e-02  -4.1832206318821390e-02 
 -4.3596066088287456e-02  -4.5436783111396206e-02  -4.7357862091398022e-02  -4.9362976908493679e-02 
 -5.1455979312598578e-02  -5.3640908089329115e-02  -5.5921998726057902e-02  -5.8303693606427433e-02 
 -6.0790652763338643e-02  -6.3387765222148645e-02  -6.6100160967622973e-02  -6.8933223570097096e-02 
 -7.1892603508312947e-02  -7.4984232228516828e-02  -7.8214336981633492e-02  -8.1589456482678721e-02 
 -8.5116457439039714e-02  -8.8802551996843906e-02  -9.2655316157358641e-02  -9.6682709218219323e-02 
 -1.0089309429727515e-01  -1.0529525999997676e-01  -1.0989844329450958e-01  -1.1471235366229980e-01 
 -1.1974719859510304e-01  -1.2501371051360971e-01  -1.3052317518638773e-01  -1.3628746173201900e-01 
 -1.4231905429147532e-01  -1.4863108546212067e-01  -1.5523737158921538e-01  -1.6215245001542766e-01 
 -1.6939161839362371e-01  -1.7697097617310051e-01  -1.8490746837443250e-01  -1.9321893177320601e-01 
 -2.0192414361810881e-01  -2.1104287301408622e-01  -2.2059593510655984e-01  -2.3060524820799211e-01 
 -2.4109389401333481e-01  -2.5208618105608155e-01  -2.6360771156170215e-01  -2.7568545186012350e-01 
 -2.8834780652355524e-01  -3.0162469640028716e-01  -3.1554764071901187e-01  -3.3014984344165194e-01 
 -3.4546628404551011e-01  -3.6153381291765696e-01  -3.7839125154573289e-01  -3.9607949768956313e-01 
 -4.1464163571705159e-01  -4.3412305228548648e-01  -4.5457155754549117e-01  -4.7603751203911876e-01 
 -4.9857395945577609e-01  -5.2223676539947261e-01  -5.4708476230801417e-01  -5.7317990064884417e-01 
 -6.0058740649688214e-01  -6.2937594557654697e-01  -6.5961779382264429e-01  -6.9138901448255308e-01 
 -7.2476964174451775e-01  -7.5984387083335669e-01  -7.9670025446483728e-01  -8.3543190549275514e-01 
 -8.7613670551754741e-01  -9.1891751915149855e-01  -9.6388241355225202e-01  -1.0111448827427549e+00 
 -1.0608240761309362e+00  -1.1130450305255091e+00  -1.1679389048142992e+00  -1.2256432163274968e+00 
 -1.2863020777492629e+00  -1.3500664332661023e+00  -1.4170942924485717e+00  -1.4875509601531065e+00 
 -1.5616092605023002e+00  -1.6394497527539551e+00  -1.7212609366010843e+00  -1.8072394441561050e+00 
 -1.8975902155624891e+00  -1.9925266548459268e+00  -2.0922707622647772e+00  -2.1970532390467632e+00 
 -2.3071135600062314e+00  -2.4227000091254176e+00  -2.5440696727556729e+00  -2.6714883846531703e+00 
 -2.8052306166113476e+00  -2.9455793079932566e+00  -3.0928256270061047e+00  -3.2472686561030835e+00 
 -3.4092149934517240e+00  -3.5789782619809420e+00  -3.7568785171205654e+00  -3.9432415439881643e+00 
 -4.1383980344705416e+00  -4.3426826344051461e+00  -4.5564328509052130e+00  -4.7799878098079738e+00 
 -5.0136868532766412e+00  -5.2578679677725839e+00  -5.5128660329557260e+00  -5.7790108825894810e+00 
 -6.0566251692439304e+00  -6.3460220255293276e+00  -6.6475025157732635e+00  -6.9613528734989387e+00 
 -7.2878415217881987e+00  -7.6272158756357076e+00  -7.9796989277323958e+00  -8.3454856217625579e+00 
 -8.7247390202596247e+00  -9.1175862773327214e+00  -9.5241144301321441e+00  -9.9443660267403260e+00 
 -1.0378334612216529e+01  -1.0825960098740831e+01  -1.1287124050134231e+01  -1.1761644915408848e+01 
 -1.2249273250347059e+01  -1.2749686970340704e+01  -1.3262486681760326e+01  -1.3787191142895052e+01 
 -1.4323232908945858e+01  -1.4869954218625223e+01  -1.5426603182601003e+01  -1.5992330336337128e+01 
 -1.6566185621880681e+01  -1.7147115864907626e+01  -1.7733962814981727e+01  -1.8325461818629602e+01 
 -1.8920241196615869e+01  -1.9516822398813826e+01  -2.0113621012351963e+01  -2.0708948701226984e+01 
 -2.1301016158138406e+01  -2.1887937151586481e+01  -2.2467733752762566e+01  -2.3038342826710316e+01 
 -2.3597623869684394e+01  -2.4143368268403005e+01  -2.4673310045647117e+01  -2.5185138139023174e+01 
 -2.5676510234444535e+01  -2.6145068142197324e+01  -2.6588454661284846e+01  -2.7004331828140732e+01 
 -2.7390400391103853e+01  -2.7744420295879156e+01  -2.8064231914086715e+01  -2.8347777701634680e+01 
 -2.8593123940022064e+01  -2.8798482194176835e+01  -2.8962230115349609e+01  -2.9082931225116280e+01 
 -2.9159353333357942e+01  -2.9190485265207389e+01  -2.9175551595690212e+01  -2.9114025113502755e+01 
 -2.9005636755922044e+01  -2.8850382775853909e+01  -2.8648528921984223e+01  -2.8400611438332358e+01 
 -2.8107434726378063e+01  -2.7770065568575308e+01  -2.7389823893113540e+01  -2.6968270169637570e+01 
 -2.6507189661207423e+01  -2.6008573906980466e+01  -2.5474599951831788e+01  -2.4907607947113277e+01 
 -2.4310077796915888e+01  -2.3684605503095561e+01  -2.3033879772826118e+01  -2.2360659313763403e+01 
 -2.1667751094368423e+01  -2.0957989775276456e+01  -2.0234218087128969e+01  -1.9499267594530806e+01 
 -1.8755941988439702e+01  -1.8007000074505861e+01  -1.7255139887945791e+01  -1.6502983746538231e+01 
 -1.5753064271218310e+01  -1.5007811468458707e+01  -1.4269540980236185e+01  -1.3540443603726629e+01 
 -1.2822576166905787e+01  -1.2117853821981630e+01  -1.1428043790156138e+01  -1.0754760562143174e+01 
 -1.0099462531813984e+01  -9.4634500170255578e+00  -8.8478646029919172e+00  -8.2536897297089009e+00 
 -7.6817524356815650e+00  -7.1327261649740112e+00  -6.6071345426768344e+00  -6.1053560244923446e+00 
 -5.6276293284993928e+00  -5.1740595605926636e+00  -4.7446249489973598e+00  -4.3391841071694346e+00 
 -3.9574837479573430e+00  -3.5991667749033902e+00  -3.2637806788954675e+00  -2.9507861700432829e+00 
 -2.6595659757297638e+00  -2.3894337364293023e+00  -2.1396429312853966e+00  -1.9093957658216423e+00 
 -1.6978519547481505e+00  -1.5041373338339294e+00  -1.3273522364314625e+00  -1.1665795720175347e+00 
 -1.0208925510951437e+00  -8.8936199523749826e-01  -7.7106318952849939e-01  -6.6508223020541402e-01 
 -5.7052183131540701e-01  -4.8650656083004917e-01  -4.1218748452968457e-01  -3.4674620414617102e-01 
 -2.8939828455279587e-01  -2.3939607301806853e-01  -1.9603092150557316e-01  -1.5863483052664681e-01 
 -1.2658153997612817e-01  -9.9287098565873241e-02  -7.6209948804862787e-02  -5.6850568874719322e-02 
 -4.0750716161774829e-02  -2.7492319606223652e-02  -1.6696069418665888e-02  -8.0197531242554142e-03 
 -1.1563863771654644e-03  4.1678143823557614e-03  8.1955724893877785e-03  1.1140762686725645e-02 
 1.3190655017053139e-02  1.4508155925263113e-02  1.5234015586771487e-02  1.5488974727624160e-02 
 1.5375828521739025e-02  1.4981389433030779e-02  1.4378335019030249e-02  1.3626930643794371e-02 
 1.2776620691280946e-02  1.1867485170670527e-02  1.0931561522210666e-02  9.9940339410786172e-03 
 9.0742946270660745e-03  8.1868830424096217e-03  7.3423105336522720e-03  6.5477785709699716e-03 
 5.8077994130176797e-03  5.1247282561395673e-03  4.4992159168998833e-03  3.9305908711805976e-03 
 3.4171790765682619e-03  2.9565694806167188e-03  2.5458325060826806e-03  2.1816981413876968e-03 
 1.8606995815180565e-03  1.5792876872249284e-03  1.3339208790833965e-03  1.1211344727920559e-03 
 9.3759290325879133e-04  7.8012778326461986e-04  6.4576429990401900e-04  5.3173806754596082e-04 
 4.3550422655010991e-04  3.5474029751220040e-04  2.8734406565486434e-04  2.3142757292402585e-04 
 1.8530813026928103e-04  1.4749712373932861e-04  1.1668727027936661e-04  9.1738878122994303e-05 
 7.1665578855157410e-05  5.5619920832160323e-05  4.2879144632231085e-05  3.2831399172264170e-05 
 2.4962601149310811e-05  1.8844090038006051e-05  1.4121185734772278e-05  1.0502715994941757e-05 
 7.7515460262369144e-06  5.6761129631090566e-06  4.1229433658749203e-06  2.9701122193359364e-06 
 2.1215868992827576e-06  1.5023888926257972e-06  1.0544992875508279e-06  7.3343070572518274e-07 
 5.0538792098361052e-07  3.4494135654003391e-07  2.3314145113490522e-07  1.5600703463176690e-07 
 1.0332689285267334e-07  6.7720234120254183e-08  4.3908450081393060e-08  2.8157121450181948e-08 
 1.7853442879739122e-08  1.1189984308584937e-08  6.9308738502359066e-09  4.2410339813393925e-09 
 2.5630193557760913e-09  1.5293129585946995e-09  9.0067880891563468e-10  5.2340038800938908e-10 
 3.0001757921128457e-10  1.6957526298214141e-10  9.4478381123504730e-11  5.1868524180362847e-11 
 2.8049199158179453e-11  1.4935575609751924e-11  7.8278823553350865e-12  4.0366318263250349e-12 
 2.0472666823456378e-12  1.0207821402615132e-12  5.0016616399892830e-13  2.4073176293459378e-13 
 1.1376271821421776e-13  5.2761665130519376e-14  2.4004513398312071e-14  1.0707856586419651e-14 
 4.6811416384310904e-15  2.0045317816016668e-15  8.4042364642223771e-16  3.4479054929099640e-16 
 1.3824824320069951e-16  5.4303316163937811e-17  2.0854830576932386e-17  7.7972717458892016e-18 
 2.8106508876907053e-18  1.0317761577896565e-18  3.9200170286591276e-19  8.3604878611402755e-20 
 7.1177524007526477e-20  0.0000000000000000e+00  0.0000000000000000e+00  0.0000000000000000e+00 
 0.0000000000000000e+00  0.0000000000000000e+00  0.0000000000000000e+00  0.0000000000000000e+00 
 0.0000000000000000e+00  0.0000000000000000e+00  0.0000000000000000e+00  0.0000000000000000e+00 
 0.0000000000000000e+00  0.0000000000000000e+00  0.0000000000000000e+00  0.0000000000000000e+00 
 0.0000000000000000e+00  0.0000000000000000e+00  0.0000000000000000e+00  0.0000000000000000e+00 
 0.0000000000000000e+00  0.0000000000000000e+00  0.0000000000000000e+00  0.0000000000000000e+00 
 0.0000000000000000e+00  0.0000000000000000e+00  0.0000000000000000e+00  0.0000000000000000e+00 
 0.0000000000000000e+00  0.0000000000000000e+00  0.0000000000000000e+00  0.0000000000000000e+00 
 0.0000000000000000e+00  0.0000000000000000e+00  0.0000000000000000e+00  0.0000000000000000e+00 
 0.0000000000000000e+00  0.0000000000000000e+00  0.0000000000000000e+00  0.0000000000000000e+00 
 0.0000000000000000e+00  0.0000000000000000e+00  0.0000000000000000e+00  0.0000000000000000e+00 
 0.0000000000000000e+00  0.0000000000000000e+00  0.0000000000000000e+00  0.0000000000000000e+00 
 0.0000000000000000e+00  0.0000000000000000e+00  0.0000000000000000e+00  0.0000000000000000e+00 
 0.0000000000000000e+00  0.0000000000000000e+00  0.0000000000000000e+00  0.0000000000000000e+00 
 0.0000000000000000e+00  0.0000000000000000e+00  0.0000000000000000e+00  0.0000000000000000e+00 
 0.0000000000000000e+00  0.0000000000000000e+00  0.0000000000000000e+00  0.0000000000000000e+00 
 0.0000000000000000e+00  0.0000000000000000e+00  0.0000000000000000e+00  0.0000000000000000e+00 
 0.0000000000000000e+00  0.0000000000000000e+00  0.0000000000000000e+00  0.0000000000000000e+00 
 0.0000000000000000e+00  0.0000000000000000e+00  0.0000000000000000e+00  0.0000000000000000e+00 
 0.0000000000000000e+00  0.0000000000000000e+00  0.0000000000000000e+00  0.0000000000000000e+00 
 0.0000000000000000e+00  0.0000000000000000e+00  0.0000000000000000e+00  0.0000000000000000e+00 
 0.0000000000000000e+00  0.0000000000000000e+00  0.0000000000000000e+00  0.0000000000000000e+00 
 0.0000000000000000e+00  0.0000000000000000e+00  0.0000000000000000e+00  0.0000000000000000e+00 
 0.0000000000000000e+00  0.0000000000000000e+00  0.0000000000000000e+00  0.0000000000000000e+00 
 0.0000000000000000e+00  0.0000000000000000e+00  0.0000000000000000e+00  0.0000000000000000e+00 
 0.0000000000000000e+00  0.0000000000000000e+00  0.0000000000000000e+00  0.0000000000000000e+00 
 0.0000000000000000e+00  0.0000000000000000e+00  0.0000000000000000e+00  0.0000000000000000e+00 
 0.0000000000000000e+00  0.0000000000000000e+00  0.0000000000000000e+00  0.0000000000000000e+00 
 0.0000000000000000e+00  0.0000000000000000e+00  0.0000000000000000e+00  0.0000000000000000e+00 
 0.0000000000000000e+00  0.0000000000000000e+00  0.0000000000000000e+00  0.0000000000000000e+00 
 0.0000000000000000e+00  0.0000000000000000e+00  0.0000000000000000e+00  0.0000000000000000e+00 
 0.0000000000000000e+00  0.0000000000000000e+00  0.0000000000000000e+00  0.0000000000000000e+00 
 0.0000000000000000e+00  0.0000000000000000e+00  0.0000000000000000e+00  0.0000000000000000e+00 
 0.0000000000000000e+00  0.0000000000000000e+00  0.0000000000000000e+00  0.0000000000000000e+00 
 0.0000000000000000e+00  0.0000000000000000e+00  0.0000000000000000e+00  0.0000000000000000e+00 
 0.0000000000000000e+00  0.0000000000000000e+00  0.0000000000000000e+00  0.0000000000000000e+00 
 0.0000000000000000e+00  0.0000000000000000e+00  0.0000000000000000e+00  0.0000000000000000e+00 
 0.0000000000000000e+00  0.0000000000000000e+00  0.0000000000000000e+00  0.0000000000000000e+00 
 0.0000000000000000e+00  0.0000000000000000e+00  0.0000000000000000e+00  0.0000000000000000e+00 
 0.0000000000000000e+00  0.0000000000000000e+00  0.0000000000000000e+00  0.0000000000000000e+00 
 0.0000000000000000e+00  0.0000000000000000e+00  0.0000000000000000e+00  0.0000000000000000e+00 
 0.0000000000000000e+00  0.0000000000000000e+00  0.0000000000000000e+00  0.0000000000000000e+00 
 0.0000000000000000e+00  0.0000000000000000e+00  0.0000000000000000e+00  0.0000000000000000e+00 
 0.0000000000000000e+00  0.0000000000000000e+00  0.0000000000000000e+00  0.0000000000000000e+00 
 0.0000000000000000e+00  0.0000000000000000e+00  0.0000000000000000e+00  0.0000000000000000e+00 
 0.0000000000000000e+00  0.0000000000000000e+00  0.0000000000000000e+00  0.0000000000000000e+00 
 0.0000000000000000e+00  0.0000000000000000e+00  0.0000000000000000e+00  0.0000000000000000e+00 
 0.0000000000000000e+00  0.0000000000000000e+00  0.0000000000000000e+00  0.0000000000000000e+00 
 0.0000000000000000e+00  0.0000000000000000e+00  0.0000000000000000e+00  0.0000000000000000e+00 
 0.0000000000000000e+00  0.0000000000000000e+00  0.0000000000000000e+00  0.0000000000000000e+00 
 0.0000000000000000e+00  0.0000000000000000e+00  0.0000000000000000e+00  0.0000000000000000e+00 
 0.0000000000000000e+00  0.0000000000000000e+00  0.0000000000000000e+00  0.0000000000000000e+00 
 0.0000000000000000e+00 
  </PP_BETA>
  <PP_DIJ>
 4   Number of nonzero Dij
 1 1 9.4723421439162347e+00 
 2 2 6.3385899416227787e+00 
 3 3 -8.5361106846189583e-02 
 4 4 -8.4269509774815871e-02 
  </PP_DIJ>
</PP_NONLOCAL>
<PP_PSWFC>
S    0   1.50          Wavefunction
 1.1045702369319560e-08  1.1190233924351254e-08  1.1336656655794112e-08  1.1484995309447956e-08 
 1.1635274954908416e-08  1.1787520989803739e-08  1.1941759144087102e-08  1.2098015484385032e-08 
 1.2256316418402734e-08  1.2416688699387105e-08  1.2579159430648085e-08  1.2743756070139216e-08 
 1.2910506435098121e-08  1.3079438706747691e-08  1.3250581435058829e-08  1.3423963543575453e-08 
 1.3599614334302687e-08  1.3777563492658990e-08  1.3957841092493087e-08  1.4140477601166548e-08 
 1.4325503884702871e-08  1.4512951213003944e-08  1.4702851265134757e-08  1.4895236134677289e-08 
 1.5090138335154399e-08  1.5287590805524755e-08  1.5487626915749609e-08  1.5690280472432451e-08 
 1.5895585724532434e-08  1.6103577369152570e-08  1.6314290557403662e-08  1.6527760900344980e-08 
 1.6744024475002645e-08  1.6963117830466785e-08  1.7185077994068456e-08  1.7409942477637419e-08 
 1.7637749283841751e-08  1.7868536912610463e-08  1.8102344367640135e-08  1.8339211162986676e-08 
 1.8579177329743359e-08  1.8822283422806242e-08  1.9068570527728107e-08  1.9318080267662071e-08 
 1.9570854810396076e-08  1.9826936875479419e-08  2.0086369741442539e-08  2.0349197253111251e-08 
 2.0615463829016733e-08  2.0885214468902441e-08  2.1158494761329239e-08  2.1435350891380104e-08 
 2.1715829648465580e-08  2.1999978434231429e-08  2.2287845270569691e-08  2.2579478807734622e-08 
 2.2874928332564840e-08  2.3174243776812990e-08  2.3477475725584472e-08  2.3784675425886581e-08 
 2.4095894795289490e-08  2.4411186430700573e-08  2.4730603617253586e-08  2.5054200337314068e-08 
 2.5382031279602706e-08  2.5714151848437960e-08  2.6050618173099752e-08  2.6391487117315566e-08 
 2.6736816288870751e-08  2.7086664049344574e-08  2.7441089523973657e-08  2.7800152611644456e-08 
 2.8163913995016560e-08  2.8532435150778399e-08  2.8905778360037187e-08  2.9284006718844822e-08 
 2.9667184148861487e-08  3.0055375408158844e-08  3.0448646102164551e-08  3.0847062694750014e-08 
 3.1250692519463245e-08  3.1659603790908626e-08  3.2073865616275768e-08  3.2493548007018973e-08 
 3.2918721890689779e-08  3.3349459122924175e-08  3.3785832499586744e-08  3.4227915769073725e-08 
 3.4675783644777050e-08  3.5129511817711536e-08  3.5589176969307154e-08  3.6054856784368948e-08 
 3.6526629964206315e-08  3.7004576239934262e-08  3.7488776385948571e-08  3.7979312233577434e-08 
 3.8476266684911660e-08  3.8979723726815854e-08  3.9489768445123024e-08  4.0006487039014861e-08 
 4.0529966835590236e-08  4.1060296304624309e-08  4.1597565073520848e-08  4.2141863942460189e-08 
 4.2693284899745318e-08  4.3251921137349013e-08  4.3817867066664136e-08  4.4391218334460363e-08 
 4.4972071839049437e-08  4.5560525746662194e-08  4.6156679508039762e-08  4.6760633875241933e-08 
 4.7372490918675523e-08  4.7992354044345514e-08  4.8620328011332063e-08  4.9256518949496022e-08 
 4.9901034377416489e-08  5.0553983220562729e-08  5.1215475829704236e-08  5.1885623999561487e-08 
 5.2564540987700966e-08  5.3252341533677296e-08  5.3949141878426037e-08  5.4655059783910150e-08 
 5.5370214553023683e-08  5.6094727049755903e-08  5.6828719719619272e-08  5.7572316610344852e-08 
 5.8325643392848571e-08  5.9088827382471720e-08  5.9861997560499740e-08  6.0645284595962253e-08 
 6.1438820867718743e-08  6.2242740486833159e-08  6.3057179319241273e-08  6.3882275008714878e-08 
 6.4718167000126427e-08  6.5564996563018132e-08  6.6422906815479701e-08  6.7292042748338440e-08 
 6.8172551249665989e-08  6.9064581129605906e-08  6.9968283145526073e-08  7.0883810027500487e-08 
 7.1811316504124379e-08  7.2750959328667416e-08  7.3702897305569033e-08  7.4667291317280767e-08 
 7.5644304351459741e-08  7.6634101528518230e-08  7.7636850129533791e-08  7.8652719624524747e-08 
 7.9681881701095699e-08  8.0724510293458111e-08  8.1780781611830780e-08  8.2850874172225063e-08 
 8.3934968826619989e-08  8.5033248793532577e-08  8.6145899688988101e-08  8.7273109557895897e-08 
 8.8415068905835916e-08  8.9571970731261238e-08  9.0744010558122455e-08  9.1931386468918805e-08 
 9.3134299138182313e-08  9.4352951866399951e-08  9.5587550614380291e-08  9.6838304038069725e-08 
 9.8105423523824752e-08  9.9389123224146067e-08  1.0068962009388015e-07  1.0200713392689540e-07 
 1.0334188739323801e-07  1.0469410607677454e-07  1.0606401851332722e-07  1.0745185622930887e-07 
 1.0885785378086337e-07  1.1028224879351878e-07  1.1172528200235981e-07  1.1318719729272615e-07 
 1.1466824174144372e-07  1.1616866565859615e-07  1.1768872262984293e-07  1.1922866955929186e-07 
 1.2078876671293316e-07  1.2236927776264205e-07  1.2397046983075784e-07  1.2559261353524693e-07 
 1.2723598303545702e-07  1.2890085607847099e-07  1.3058751404606765e-07  1.3229624200229756e-07 
 1.3402732874168226e-07  1.3578106683804467e-07  1.3755775269397920e-07  1.3935768659096977e-07 
 1.4118117274016496e-07  1.4302851933381717e-07  1.4490003859739700e-07  1.4679604684238967e-07 
 1.4871686451978320e-07  1.5066281627425746e-07  1.5263423099908357e-07  1.5463144189174198e-07 
 1.5665478651027021e-07  1.5870460683034819e-07  1.6078124930313204e-07  1.6288506491384599e-07 
 1.6501640924114176e-07  1.6717564251723623e-07  1.6936312968883705e-07  1.7157924047886717e-07 
 1.7382434944899822e-07  1.7609883606300370e-07  1.7840308475094267e-07  1.8073748497418471e-07 
 1.8310243129128793e-07  1.8549832342473987e-07  1.8792556632857435e-07  1.9038457025687438e-07 
 1.9287575083317359e-07  1.9539952912076771e-07  1.9795633169394822e-07  2.0054659071017026e-07 
 2.0317074398316682e-07  2.0582923505702254e-07  2.0852251328121843e-07  2.1125103388666163e-07 
 2.1401525806271221e-07  2.1681565303522097e-07  2.1965269214559047e-07  2.2252685493087398e-07 
 2.2543862720492534e-07  2.2838850114061320e-07  2.3137697535311502e-07  2.3440455498430343e-07 
 2.3747175178824052e-07  2.4057908421779336e-07  2.4372707751238824e-07  2.4691626378691445e-07 
 2.5014718212179672e-07  2.5342037865424915e-07  2.5673640667072706e-07  2.6009582670059297e-07 
 2.6349920661101185e-07  2.6694712170309206e-07  2.7044015480928853e-07  2.7397889639208513e-07 
 2.7756394464397233e-07  2.8119590558873732e-07  2.8487539318408473e-07  2.8860302942560452e-07 
 2.9237944445210534e-07  2.9620527665233146e-07  3.0008117277308161e-07  3.0400778802874735e-07 
 3.0798578621229230e-07  3.1201583980768891e-07  3.1609863010383357e-07  3.2023484730996039e-07 
 3.2442519067257203e-07  3.2867036859391139e-07  3.3297109875199173e-07  3.3732810822220875e-07 
 3.4174213360055604e-07  3.4621392112846622e-07  3.5074422681929951e-07  3.5533381658650464e-07 
 3.5998346637347339e-07  3.6469396228511520e-07  3.6946610072117383e-07  3.7430068851131294e-07 
 3.7919854305199450e-07  3.8416049244517485e-07  3.8918737563884714e-07  3.9428004256945205e-07 
 3.9943935430618644e-07  4.0466618319723380e-07  4.0996141301794380e-07  4.1532593912098753e-07 
 4.2076066858851225e-07  4.2626652038632442e-07  4.3184442552012259e-07  4.3749532719380859e-07 
 4.4322018096989845e-07  4.4901995493205883e-07  4.5489562984979174e-07  4.6084819934529010e-07 
 4.6687867006248912e-07  4.7298806183833536e-07  4.7917740787629550e-07  4.8544775492202972e-07 
 4.9180016344056561e-07  4.9823570779618861e-07  5.0475547643516643e-07  5.1136057207093891e-07 
 5.1805211187176471e-07  5.2483122765086607e-07  5.3169906605910069e-07  5.3865678878019726e-07 
 5.4570557272858959e-07  5.5284661024988808e-07  5.6008110932401861e-07  5.6741029377107328e-07 
 5.7483540345990361e-07  5.8235769451949842e-07  5.8997843955318504e-07  5.9769892785569051e-07 
 6.0552046563310332e-07  6.1344437622577733e-07  6.2147200033421958e-07  6.2960469624799755e-07 
 6.3784384007771840e-07  6.4619082599011345e-07  6.5464706644627614e-07  6.6321399244309818e-07 
 6.7189305375794581e-07  6.8068571919662491e-07  6.8959347684468050e-07  6.9861783432207610e-07 
 7.0776031904130225e-07  7.1702247846896433e-07  7.2640588039089532e-07  7.3591211318084812e-07 
 7.4554278607281433e-07  7.5529952943702483e-07  7.6518399505968296e-07  7.7519785642648454e-07 
 7.8534280900998068e-07  7.9562057056083325e-07  8.0603288140302976e-07  8.1658150473310381e-07 
 8.2726822692342647e-07  8.3809485782962520e-07  8.4906323110219302e-07  8.6017520450234452e-07 
 8.7143266022218799e-07  8.8283750520927012e-07  8.9439167149556290e-07  9.0609711653095754e-07 
 9.1795582352133034e-07  9.2996980177125053e-07  9.4214108703139932e-07  9.5447174185076986e-07 
 9.6696385593372177e-07  9.7961954650196112e-07  9.9244095866152272e-07  1.0054302657748263e-06 
 1.0185896698378947e-06  1.0319214018627973e-06  1.0454277222654129e-06  1.0591109212585836e-06 
 1.0729733192507518e-06  1.0870172672501595e-06  1.1012451472746971e-06  1.1156593727674921e-06 
 1.1302623890183275e-06  1.1450566735909805e-06  1.1600447367565743e-06  1.1752291219330416e-06 
 1.1906124061307965e-06  1.2061972004047089e-06  1.2219861503124915e-06  1.2379819363795973e-06 
 1.2541872745707348e-06  1.2706049167681056e-06  1.2872376512564827e-06  1.3040883032152331e-06 
 1.3211597352174038e-06  1.3384548477359871e-06  1.3559765796574887e-06  1.3737279088029128e-06 
 1.3917118524563006e-06  1.4099314679009389e-06  1.4283898529633765e-06  1.4470901465653809e-06 
 1.4660355292839700e-06  1.4852292239196580e-06  1.5046744960730629e-06  1.5243746547300155e-06 
 1.5443330528553241e-06  1.5645530879953469e-06  1.5850382028895266e-06  1.6057918860910475e-06 
 1.6268176725967866e-06  1.6481191444867142e-06  1.6696999315729254e-06  1.6915637120584752e-06 
 1.7137142132062006e-06  1.7361552120177087e-06  1.7588905359227279e-06  1.7819240634790121e-06 
 1.8052597250829925e-06  1.8289015036913977e-06  1.8528534355540293e-06  1.8771196109579254e-06 
 1.9017041749831245e-06  1.9266113282702564e-06  1.9518453278001923e-06  1.9774104876859996e-06 
 2.0033111799774302e-06  2.0295518354782059e-06  2.0561369445763617e-06  2.0830710580878935e-06 
 2.1103587881140057e-06  2.1380048089122183e-06  2.1660138577816300e-06  2.1943907359626386e-06 
 2.2231403095514036e-06  2.2522675104293836e-06  2.2817773372082508e-06  2.3116748561905317e-06 
 2.3419652023462958e-06  2.3726535803062485e-06  2.4037452653715922e-06  2.4352456045410159e-06 
 2.4671600175552042e-06  2.4994939979592454e-06  2.5322531141833571e-06  2.5654430106423258e-06 
 2.5990694088541101e-06  2.6331381085780335e-06  2.6676549889730216e-06  2.7026260097763590e-06 
 2.7380572125034458e-06  2.7739547216690451e-06  2.8103247460305484e-06  2.8471735798537673e-06 
 2.8845076042018146e-06  2.9223332882476356e-06  2.9606571906107559e-06  2.9994859607188596e-06 
 3.0388263401948115e-06  3.0786851642697531e-06  3.1190693632229478e-06  3.1599859638490347e-06 
 3.2014420909534135e-06  3.2434449688764578e-06  3.2860019230473490e-06  3.3291203815682508e-06 
 3.3728078768296683e-06  3.4170720471577868e-06  3.4619206384946680e-06  3.5073615061121603e-06 
 3.5534026163604582e-06  3.6000520484522357e-06  3.6473179962833336e-06  3.6952087702910224e-06 
 3.7437327993508520e-06  3.7928986327131973e-06  3.8427149419805969e-06  3.8931905231270362e-06 
 3.9443342985603947e-06  3.9961553192292539e-06  4.0486627667753779e-06  4.1018659557331628e-06 
 4.1557743357774617e-06  4.2103974940211605e-06  4.2657451573639962e-06  4.3218271948941560e-06 
 4.3786536203441884e-06  4.4362345946029019e-06  4.4945804282849172e-06  4.5537015843596298e-06 
 4.6136086808413971e-06  4.6743124935428429e-06  4.7358239588932076e-06  4.7981541768237741e-06 
 4.8613144137224759e-06  4.9253161054598275e-06  4.9901708604884677e-06  5.0558904630186051e-06 
 5.1224868762718365e-06  5.1899722458157845e-06  5.2583589029822335e-06  5.3276593683713933e-06 
 5.3978863554451304e-06  5.4690527742120690e-06  5.5411717350075691e-06  5.6142565523717083e-06 
 5.6883207490285238e-06  5.7633780599698822e-06  5.8394424366474548e-06  5.9165280512764676e-06 
 5.9946493012549562e-06  6.0738208137024633e-06  6.1540574501222206e-06  6.2353743111910560e-06 
 6.3177867416813939e-06  6.4013103355198927e-06  6.4859609409874621e-06  6.5717546660655349e-06 
 6.6587078839337592e-06  6.7468372386243176e-06  6.8361596508384481e-06  6.9266923239308548e-06 
 7.0184527500679572e-06  7.1114587165661451e-06  7.2057283124164773e-06  7.3012799350024755e-06 
 7.3981322970179403e-06  7.4963044335920532e-06  7.5958157096291696e-06  7.6966858273711807e-06 
 7.7989348341904799e-06  7.9025831306220313e-06  8.0076514786432080e-06  8.1141610102106206e-06 
 8.2221332360633279e-06  8.3315900548023262e-06  8.4425537622566087e-06  8.5550470611463959e-06 
 8.6690930710546926e-06  8.7847153387187264e-06  8.9019378486532787e-06  9.0207850341184099e-06 
 9.1412817884446555e-06  9.2634534767291960e-06  9.3873259479171166e-06  9.5129255472825529e-06 
 9.6402791293248607e-06  9.7694140710958696e-06  9.9003582859747650e-06  1.0033140237907887e-05 
 1.0167788956131411e-05  1.0304334050395704e-05  1.0442805726710868e-05  1.0583234803633769e-05 
 1.0725652729117865e-05  1.0870091597947754e-05  1.1016584169781635e-05  1.1165163887825534e-05 
 1.1315864898164387e-05  1.1468722069776014e-05  1.1623771015255141e-05  1.1781048112275846e-05 
 1.1940590525821917e-05  1.2102436231216003e-05  1.2266624037979605e-05  1.2433193614557496e-05 
 1.2602185513941449e-05  1.2773641200229866e-05  1.2947603076161223e-05  1.3124114511661141e-05 
 1.3303219873444511e-05  1.3484964555715835e-05  1.3669395012013136e-05  1.3856558788242322e-05 
 1.4046504556951418e-05  1.4239282152895951e-05  1.4434942609949204e-05  1.4633538199413359e-05 
 1.4835122469790141e-05  1.5039750288072069e-05  1.5247477882618266e-05  1.5458362887681672e-05 
 1.5672464389657386e-05  1.5889842975125145e-05  1.6110560780762250e-05  1.6334681545206688e-05 
 1.6562270662953809e-05  1.6793395240373880e-05  1.7028124153941671e-05  1.7266528110773588e-05 
 1.7508679711572202e-05  1.7754653516082697e-05  1.8004526111170619e-05  1.8258376181635420e-05 
 1.8516284583879713e-05  1.8778334422559725e-05  1.9044611130348434e-05  1.9315202550949060e-05 
 1.9590199025503144e-05  1.9869693482544463e-05  2.0153781531657029e-05  2.0442561561003250e-05 
 2.0736134838896341e-05  2.1034605619599316e-05  2.1338081253542131e-05  2.1646672302157405e-05 
 2.1960492657545554e-05  2.2279659667190005e-05  2.2604294263954565e-05  2.2934521101606050e-05 
 2.3270468696117835e-05  2.3612269573022427e-05  2.3960060421094903e-05  2.4313982252663018e-05 
 2.4674180570854996e-05  2.5040805544111644e-05  2.5414012188306189e-05  2.5793960556832881e-05 
 2.6180815939043906e-05  2.6574749067433759e-05  2.6975936333991070e-05  2.7384560016159667e-05 
 2.7800808512873786e-05  2.8224876591156836e-05  2.8656965643798933e-05  2.9097283958655637e-05 
 2.9546047000139588e-05  3.0003477703506713e-05  3.0469806782571494e-05  3.0945273051519955e-05 
 3.1430123761524848e-05  3.1924614952906605e-05  3.2429011823623356e-05  3.2943589114917269e-05 
 3.3468631514989200e-05  3.4004434081622841e-05  3.4551302684729896e-05  3.5109554469842807e-05 
 3.5679518343638975e-05  3.6261535482641366e-05  3.6855959866305402e-05  3.7463158835770956e-05 
 3.8083513679631147e-05  3.8717420248147278e-05  3.9365289597421815e-05  4.0027548665128753e-05 
 4.0704640979493714e-05  4.1397027403314952e-05  4.2105186914922116e-05  4.2829617428080484e-05 
 4.3570836652968204e-05  4.4329383000480047e-05  4.5105816532246178e-05  4.5900719958897503e-05 
 4.6714699689261886e-05  4.7548386933338173e-05  4.8402438862067728e-05  4.9277539827108127e-05 
 5.0174402644009671e-05  5.1093769942405602e-05  5.2036415587049665e-05  5.3003146173773383e-05 
 5.3994802604689637e-05  5.5012261747240243e-05  5.6056438181974646e-05  5.7128286044256077e-05 
 5.8228800965421896e-05  5.9359022119276299e-05  6.0520034380171151e-05  6.1712970599332631e-05 
 6.2939014006521395e-05  6.4199400744573986e-05  6.5495422544864450e-05  6.6828429552251575e-05 
 6.8199833308638959e-05  6.9611109904877931e-05  7.1063803311386900e-05  7.2559528898551197e-05 
 7.4099977158705550e-05  7.5686917642292726e-05  7.7322203121639479e-05  7.9007773996699087e-05 
 8.0745662958083030e-05  8.2537999923747453e-05  8.4387017266820993e-05  8.6295055353256985e-05 
 8.8264568409283895e-05  9.0298130740007032e-05  9.2398443321997864e-05  9.4568340794297574e-05 
 9.6810798873971129e-05  9.9128942224181087e-05  1.0152605280472267e-04  1.0400557873707689e-04 
 1.0657114371831402e-04  1.0922655702062426e-04  1.1197582411587996e-04  1.1482315796745901e-04 
 1.1777299103459687e-04  1.2082998803780277e-04  1.2399905953738949e-04  1.2728537638094796e-04 
 1.3069438507966810e-04  1.3423182417778484e-04  1.3790374168414418e-04  1.4171651363995800e-04 
 1.4567686390228176e-04  1.4979188522863305e-04  1.5406906175450671e-04  1.5851629296237011e-04 
 1.6314191924807553e-04  1.6795474919855026e-04  1.7296408870316445e-04  1.7817977203037432e-04 
 1.8361219501115820e-04  1.8927235048144509e-04  1.9517186614725831e-04  2.0132304504871123e-04 
 2.0773890881237869e-04  2.1443324389599459e-04  2.2142065104498607e-04  2.2871659819711799e-04 
 2.3633747708960560e-04  2.4430066384254005e-04  2.5262458381348189e-04  2.6132878104072603e-04 
 2.7043399261715253e-04  2.7996222836289275e-04  2.8993685619339388e-04  3.0038269361002626e-04 
 3.1132610577330012e-04  3.2279511065423156e-04  3.3481949179760224e-04  3.4743091927200186e-04 
 3.6066307942584519e-04  3.7455181411624044e-04  3.8913527012890349e-04  4.0445405956252277e-04 
 4.2055143201036262e-04  4.3747345943572201e-04  4.5526923470648857e-04  4.7399108482772291e-04 
 4.9369479999036587e-04  5.1443987963909897e-04  5.3628979685352806e-04  5.5931228243455444e-04 
 5.8357963019249409e-04  6.0916902504561153e-04  6.3616289565769809e-04  6.6464929347161031e-04 
 6.9472230013274780e-04  7.2648246544278368e-04  7.6003727814004320e-04  7.9550167196925606e-04 
 8.3299856968046670e-04  8.7265946778517336e-04  9.1462506509776829e-04  9.5904593830248449e-04 
 1.0060832680108538e-03  1.0559096190124516e-03  1.1087097786728894e-03  1.1646816576979181e-03 
 1.2240372577613423e-03  1.2870037107874396e-03  1.3538243949857388e-03  1.4247601330572978e-03 
 1.5000904783268219e-03  1.5801150949036197e-03  1.6651552383358682e-03  1.7555553435959935e-03 
 1.8516847276188063e-03  1.9539394140065842e-03  2.0627440879142024e-03  2.1785541895295189e-03 
 2.3018581549656704e-03  2.4331798137773850e-03  2.5730809526966587e-03  2.7221640555456766e-03 
 2.8810752296165418e-03  3.0505073290951956e-03  3.2312032863349239e-03  3.4239596619332980e-03 
 3.6296304246113335e-03  3.8491309718060853e-03  4.0834424016333547e-03  4.3336160464152356e-03 
 4.6007782772511411e-03  4.8861355880879809e-03  5.1909799663570951e-03  5.5166945554299207e-03 
 5.8647596118369585e-03  6.2367587573321018e-03  6.6343855224094183e-03  7.0594501737448207e-03 
 7.5138868132123065e-03  7.9997607306083341e-03  8.5192759860374268e-03  9.0747831911358635e-03 
 9.6687874510552035e-03  1.0303956421563417e-02  1.0983128427975598e-02  1.1709320585180568e-02 
 1.2485736851116074e-02  1.3315775940028465e-02  1.4203039017105512e-02  1.5151337092931556e-02 
 1.6164698034926501e-02  1.7247373113569532e-02  1.8403843003593181e-02  1.9638823163947380e-02 
 2.0957268524283562e-02  2.2364377408757592e-02  2.3865594628666061e-02  2.5466613672464351e-02 
 2.7173377914194299e-02  2.8992080749284336e-02  3.0929164551262739e-02  3.2991318326526707e-02 
 3.5185473930168298e-02  3.7518800697359460e-02  3.9998698344608306e-02  4.2632788004438094e-02 
 4.5428901274723398e-02  4.8395067186756333e-02  5.1539497018622440e-02  5.4870566895276508e-02 
 5.8396798115058705e-02  6.2126835114933165e-02  6.6069420925000427e-02  7.0233369861810294e-02 
 7.4627537071882397e-02  7.9260784375500923e-02  8.4141941705372106e-02  8.9279763329323122e-02 
 9.4682878043677227e-02  1.0035973267156963e-01  1.0631852852113390e-01  1.1256715093397160e-01 
 1.1911309262008958e-01  1.2596337203273630e-01  1.3312444847924076e-01  1.4060213591044976e-01 
 1.4840151742067403e-01  1.5652686287255452e-01  1.6498154961017297e-01  1.7376798256174242e-01 
 1.8288753184902304e-01  1.9234046737792965e-01  2.0212590089084975e-01  2.1224173396425039e-01 
 2.2268461158450459e-01  2.3344988126773816e-01  2.4453155778444813e-01  2.5592229365627850e-01 
 2.6761335568867822e-01  2.7959460787508844e-01  2.9185450104916594e-01  3.0438006967055109e-01 
 3.1715693610993084e-01  3.3016932275579514e-01  3.4340007220418162e-01  3.5683067571943938e-01 
 3.7044131007347841e-01  3.8421088278701993e-01  3.9811708571203747e-01  4.1213645681200051e-01 
 4.2624444991723348e-01  4.4041551215757491e-01  4.5462316870411529e-01  4.6884011438634426e-01 
 4.8303831169055733e-01  4.9718909458977156e-01  5.1126327760449863e-01  5.2523126944733267e-01 
 5.3906319056227547e-01  5.5272899383192975e-01  5.6619858769217746e-01  5.7944196086479149e-01 
 5.9242930789391768e-01  6.0513115465273937e-01  6.1751848297193468e-01  6.2956285353685593e-01 
 6.4123652619874216e-01  6.5251257684403485e-01  6.6336500998794978e-01  6.7376886628824539e-01 
 6.8370032420122362e-01  6.9313679504658343e-01  7.0205701080525029e-01  7.1044110403905381e-01 
 7.1827067939659051e-01  7.2552887625470286e-01  7.3220042213861458e-01  7.3827167666453797e-01 
 7.4373066585484104e-01  7.4856710678562211e-01  7.5277242263759669e-01  7.5633974833124185e-01 
 7.5926392703350865e-01  7.6154149792378945e-01  7.6317067569878116e-01  7.6415132237717898e-01 
 7.6448491203390234e-01  7.6417448914816821e-01  7.6322462128907653e-01  7.6164134688576890e-01 
 7.5943211883648898e-01  7.5660574470233288e-01  7.5317232420796176e-01  7.4914318473432073e-01 
 7.4453081543914912e-01  7.3934880058175390e-01  7.3361175256143407e-01  7.2733524510641923e-01 
 7.2053574697471889e-01  7.1323055645224587e-01  7.0543773685927957e-01  6.9717605320586462e-01 
 6.8846491007195409e-01  6.7932429073050782e-01  6.6977469748264862e-01  6.5983709313416017e-01 
 6.4953284351271590e-01  6.3888366090536908e-01  6.2791154828613882e-01  6.1663874420344322e-01 
 6.0508766820618098e-01  5.9328086670454072e-01  5.8124095918598884e-01  5.6899058415374504e-01 
 5.5655234769395112e-01  5.4394876886882582e-01  5.3120222781720039e-01  5.1833491376951801e-01 
 5.0536877370125655e-01  4.9232546180740605e-01  4.7922629001223338e-01  4.6609217975451639e-01 
 4.5294361530753485e-01  4.3980059890443057e-01  4.2668260794266960e-01  4.1360855453597051e-01 
 4.0059674766852504e-01  3.8766485818518304e-01  3.7482988682227236e-01  3.6210813545010873e-01 
 3.4951518166166895e-01  3.3706585679770362e-01  3.2477422745528578e-01  3.1265358048571357e-01 
 3.0071641144425304e-01  2.8897441641494009e-01  2.7743848709816199e-01  2.6611870901506673e-01 
 2.5502436265811135e-01  2.4416392739996226e-01  2.3354508795132739e-01  2.2317474314996480e-01 
 2.1305901686378034e-01  2.0320327078970327e-01  1.9361211893726932e-01  1.8428944359706903e-01 
 1.7523841260910114e-01  1.6646149776394281e-01  1.5796049418970268e-01  1.4973654059909244e-01 
 1.4179014029278400e-01  1.3412118283662083e-01  1.2672896635041184e-01  1.1961222036417690e-01 
 1.1276912921317291e-01  1.0619735595526737e-01  9.9894066802858145e-02  9.3855956066336704e-02 
 8.8079271607033244e-02  8.2559840794794268e-02  7.7293096959138982e-02  7.2274106313780798e-02 
 6.7497595322753873e-02  6.2957978463118236e-02  5.8649386324930358e-02  5.4565693974589886e-02 
 5.0700549493477340e-02  4.7047402590630269e-02  4.3599533176604928e-02  4.0350079776078969e-02 
 3.7292067649520873e-02  3.4418436489570492e-02  3.1722067555778617e-02  2.9195810112024913e-02 
 2.6832507034191353e-02  2.4625019461330670e-02  2.2566250371439136e-02  2.0649166972694144e-02 
 1.8866821812391819e-02  1.7212372518469472e-02  1.5679100102103848e-02  1.4260425764119936e-02 
 1.2949926162521577e-02  1.1741347113081732e-02  1.0628615709350340e-02  9.6058508624228354e-03 
 8.6673722741660315e-03  7.8077078701532486e-03  7.0215997301820701e-03  6.3040085648296195e-03 
 5.6501167959635739e-03  5.0553303074197739e-03  4.5152789391506324e-03  4.0258158040348329e-03 
 3.5830155112300602e-03  3.1831713834740739e-03  2.8227917581382053e-03  2.4985954631653170e-03 
 2.2075065593459000e-03  1.9466484397735681e-03  1.7133373758535992e-03  1.5050755969996338e-03 
 1.3195439882104996e-03  1.1545944862272771e-03  1.0082422508973195e-03  8.7865768392468211e-04 
 7.6415836238034993e-04  6.6320094928254208e-04  5.7437313831390339e-04  4.9638568439185201e-04 
 4.2806456641939649e-04  3.6834332317961028e-04  3.1625559805527353e-04  2.7092792310737056e-04 
 2.3157276807761937e-04  1.9748187513010193e-04  1.6801989564834547e-04  1.4261834118373657e-04 
 1.2076985672991005e-04  1.0202282089107810e-04  8.5976274230188557e-05  7.2275174128842850e-05 
 6.0605971870403775e-05  5.0692505357935330e-05  4.2292198900876341e-05  3.5192559832550588e-05 
 2.9207960342523684e-05  2.4176691807231354e-05  1.9958278061215743e-05  1.6431033450303778e-05 
 1.3489851126040334e-05  1.1044206858784979e-05  9.0163636397693733e-06  7.3397624928327150e-06 
 5.9575852012738376e-06  4.8214750547090384e-06  3.8904022155820922e-06  3.1296608767129157e-06 
 2.5099860129068392e-06  2.0067782051668244e-06  1.5994257219310753e-06  1.2707137635979907e-06 
 1.0063115044788445e-06  7.9432828938025118e-07  6.2493105198078053e-07  4.9001571184821159e-07 
 3.8292597048371685e-07  2.9821355954305851e-07  2.3143459286687682e-07  1.7897723567283661e-07 
 1.3791642766149132e-07  1.0589188111596580e-07  8.1006020286609755e-08  6.1738934996865287e-08 
 4.6877790533398078e-08  3.5458468940828442e-08  2.6717515590534386e-08  2.0052731327021555e-08 
 1.4990986766290181e-08  1.1162043680805750e-08  8.2773511240363777e-09  6.1129433356977958e-09 
 4.4957047265508023e-09  3.2923865386931365e-09  2.4008624054303632e-09  1.7431985868356659e-09 
 1.2601792123845804e-09  9.0701225734287749e-10  6.4996979246912428e-10  4.6377297757587068e-10 
 3.2956684560889384e-10  2.3335990342036270e-10  1.6482861210499713e-10  0.0000000000000000e+00 
 0.0000000000000000e+00  0.0000000000000000e+00  0.0000000000000000e+00  0.0000000000000000e+00 
 0.0000000000000000e+00  0.0000000000000000e+00  0.0000000000000000e+00  0.0000000000000000e+00 
 0.0000000000000000e+00  0.0000000000000000e+00  0.0000000000000000e+00  0.0000000000000000e+00 
 0.0000000000000000e+00  0.0000000000000000e+00  0.0000000000000000e+00  0.0000000000000000e+00 
 0.0000000000000000e+00  0.0000000000000000e+00  0.0000000000000000e+00  0.0000000000000000e+00 
 0.0000000000000000e+00  0.0000000000000000e+00  0.0000000000000000e+00  0.0000000000000000e+00 
 0.0000000000000000e+00  0.0000000000000000e+00  0.0000000000000000e+00  0.0000000000000000e+00 
 0.0000000000000000e+00  0.0000000000000000e+00  0.0000000000000000e+00  0.0000000000000000e+00 
 0.0000000000000000e+00  0.0000000000000000e+00  0.0000000000000000e+00  0.0000000000000000e+00 
 0.0000000000000000e+00  0.0000000000000000e+00  0.0000000000000000e+00  0.0000000000000000e+00 
 0.0000000000000000e+00  0.0000000000000000e+00  0.0000000000000000e+00  0.0000000000000000e+00 
 0.0000000000000000e+00  0.0000000000000000e+00  0.0000000000000000e+00  0.0000000000000000e+00 
 0.0000000000000000e+00  0.0000000000000000e+00  0.0000000000000000e+00  0.0000000000000000e+00 
 0.0000000000000000e+00  0.0000000000000000e+00  0.0000000000000000e+00  0.0000000000000000e+00 
 0.0000000000000000e+00  0.0000000000000000e+00  0.0000000000000000e+00  0.0000000000000000e+00 
 0.0000000000000000e+00  0.0000000000000000e+00  0.0000000000000000e+00  0.0000000000000000e+00 
 0.0000000000000000e+00  0.0000000000000000e+00  0.0000000000000000e+00  0.0000000000000000e+00 
 0.0000000000000000e+00  0.0000000000000000e+00  0.0000000000000000e+00  0.0000000000000000e+00 
 0.0000000000000000e+00  0.0000000000000000e+00  0.0000000000000000e+00  0.0000000000000000e+00 
 0.0000000000000000e+00  0.0000000000000000e+00  0.0000000000000000e+00  0.0000000000000000e+00 
 0.0000000000000000e+00  0.0000000000000000e+00  0.0000000000000000e+00  0.0000000000000000e+00 
 0.0000000000000000e+00  0.0000000000000000e+00  0.0000000000000000e+00  0.0000000000000000e+00 
 0.0000000000000000e+00  0.0000000000000000e+00  0.0000000000000000e+00  0.0000000000000000e+00 
 0.0000000000000000e+00  0.0000000000000000e+00  0.0000000000000000e+00  0.0000000000000000e+00 
 0.0000000000000000e+00  0.0000000000000000e+00  0.0000000000000000e+00  0.0000000000000000e+00 
 0.0000000000000000e+00  0.0000000000000000e+00  0.0000000000000000e+00  0.0000000000000000e+00 
 0.0000000000000000e+00  0.0000000000000000e+00  0.0000000000000000e+00  0.0000000000000000e+00 
 0.0000000000000000e+00  0.0000000000000000e+00  0.0000000000000000e+00  0.0000000000000000e+00 
 0.0000000000000000e+00  0.0000000000000000e+00  0.0000000000000000e+00  0.0000000000000000e+00 
 0.0000000000000000e+00  0.0000000000000000e+00  0.0000000000000000e+00  0.0000000000000000e+00 
 0.0000000000000000e+00  0.0000000000000000e+00  0.0000000000000000e+00  0.0000000000000000e+00 
 0.0000000000000000e+00 
P    1   0.17          Wavefunction
 1.3914971965957175e-12  1.4281505527913519e-12  1.4657693931670091e-12  1.5043791494924134e-12 
 1.5440059234342607e-12  1.5846765042019427e-12  1.6264183866580767e-12  1.6692597899060816e-12 
 1.7132296763673699e-12  1.7583577713610539e-12  1.8046745831993917e-12  1.8522114238125772e-12 
 1.9010004299167986e-12  1.9510745847398884e-12  2.0024677403192443e-12  2.0552146403871026e-12 
 2.1093509438586273e-12  2.1649132489387016e-12  2.2219391178637138e-12  2.2804671022950641e-12 
 2.3405367693815629e-12  2.4021887285083379e-12  2.4654646587503302e-12  2.5304073370489446e-12 
 2.5970606671308990e-12  2.6654697091888220e-12  2.7356807103436701e-12  2.8077411359095495e-12 
 2.8816997014820879e-12  2.9576064058720391e-12  3.0355125649063974e-12  3.1154708461198585e-12 
 3.1975353043600943e-12  3.2817614183308967e-12  3.3682061280979094e-12  3.4569278735822951e-12 
 3.5479866340683598e-12  3.6414439687518490e-12  3.7373630583563283e-12  3.8358087478457661e-12 
 3.9368475902622270e-12  4.0405478917182760e-12  4.1469797575745313e-12  4.2562151398335814e-12 
 4.3683278857822971e-12  4.4833937879154362e-12  4.6014906351742795e-12  4.7226982655349393e-12 
 4.8470986199819050e-12  4.9747757979032942e-12  5.1058161139452715e-12  5.2403081563640680e-12 
 5.3783428469150468e-12  5.5200135023193139e-12  5.6654158973494063e-12  5.8146483295767228e-12 
 5.9678116858244733e-12  6.1250095103710521e-12  6.2863480749499558e-12  6.4519364505935773e-12 
 6.6218865813694206e-12  6.7963133600586080e-12  6.9753347058278370e-12  7.1590716439472762e-12 
 7.3476483876083275e-12  7.5411924218965313e-12  7.7398345899764196e-12  7.9437091815465386e-12 
 8.1529540236244752e-12  8.3677105737232597e-12  8.5881240154821108e-12  8.8143433568161893e-12 
 9.0465215306517226e-12  9.2848154983145826e-12  9.5293863556422292e-12  9.7803994418907303e-12 
 1.0038024451510522e-11  1.0302435548866429e-11  1.0573811485979552e-11  1.0852335723370559e-11 
 1.1138196554086142e-11  1.1431587230992410e-11  1.1732706097421390e-11  1.2041756721258782e-11 
 1.2358948032563829e-11  1.2684494464814146e-11  1.3018616099871113e-11  1.3361538816763815e-11 
 1.3713494444392069e-11  1.4074720918251830e-11  1.4445462441288856e-11  1.4825969648989493e-11 
 1.5216499778820030e-11  1.5617316844129351e-11  1.6028691812632262e-11  1.6450902789594313e-11 
 1.6884235205841885e-11  1.7328982010724620e-11  1.7785443870160717e-11  1.8253929369898928e-11 
 1.8734755224134653e-11  1.9228246489621252e-11  1.9734736785421200e-11  2.0254568518445790e-11 
 2.0788093114935703e-11  2.1335671258039076e-11  2.1897673131647560e-11  2.2474478670655362e-11 
 2.3066477817810246e-11  2.3674070787330380e-11  2.4297668335465037e-11  2.4937692038182162e-11 
 2.5594574576170561e-11  2.6268760027349300e-11  2.6960704167082124e-11  2.7670874776299806e-11 
 2.8399751957738851e-11  2.9147828460510153e-11  2.9915610013217226e-11  3.0703615665849026e-11 
 3.1512378140678696e-11  3.2342444192405277e-11  3.3194374977781996e-11  3.4068746434980885e-11 
 3.4966149672950373e-11  3.5887191371028883e-11  3.6832494189084721e-11  3.7802697188459513e-11 
 3.8798456263999719e-11  3.9820444587468358e-11  4.0869353062636673e-11  4.1945890792363340e-11 
 4.3050785557977238e-11  4.4184784311287476e-11  4.5348653679553690e-11  4.6543180483757674e-11 
 4.7769172270526996e-11  4.9027457858070021e-11  5.0318887896491444e-11  5.1644335442867230e-11 
 5.3004696551467699e-11  5.4400890879527637e-11  5.5833862308973255e-11  5.7304579584526074e-11 
 5.8814036968615138e-11  6.0363254913540534e-11  6.1953280751342364e-11  6.3585189401841671e-11 
 6.5260084099332177e-11  6.6979097138413670e-11  6.8743390639471778e-11  7.0554157334321259e-11 
 7.2412621372544163e-11  7.4320039149067845e-11  7.6277700153542517e-11  7.8286927842092351e-11 
 8.0349080532029475e-11  8.2465552320136221e-11  8.4637774025135704e-11  8.6867214154988392e-11 
 8.9155379899668576e-11  9.1503818150091703e-11  9.3914116543881747e-11  9.6387904538685200e-11 
 9.8926854513757853e-11  1.0153268290056852e-10  1.0420715134318461e-10  1.0695206788922362e-10 
 1.0976928821217604e-10  1.1266071686592588e-10  1.1562830857231669e-10  1.1867406954263439e-10 
 1.2180005883389936e-10  1.2500838974088521e-10  1.2830123122480549e-10  1.3168080937963390e-10 
 1.3514940893704944e-10  1.3870937481102414e-10  1.4236311368309738e-10  1.4611309562940872e-10 
 1.4996185579058912e-10  1.5391199608563985e-10  1.5796618697095715e-10  1.6212716924569273e-10 
 1.6639775590467013e-10  1.7078083404010956e-10  1.7527936679344746e-10  1.7989639535857025e-10 
 1.8463504103781569e-10  1.8949850735213390e-10  1.9449008220683251e-10  1.9961314011437157e-10 
 2.0487114447571056e-10  2.1026764992175007e-10  2.1580630471645097e-10  2.2149085322325592e-10 
 2.2732513843648119e-10  2.3331310457938892e-10  2.3945879977069886e-10  2.4576637876133930e-10 
 2.5224010574329039e-10  2.5888435723241660e-10  2.6570362502723956e-10  2.7270251924565011e-10 
 2.7988577144161335e-10  2.8725823780397389e-10  2.9482490243952420e-10  3.0259088074255598e-10 
 3.1056142285317183e-10  3.1874191720669658e-10  3.2713789417658782e-10  3.3575502981330800e-10 
 3.4459914968168753e-10  3.5367623279937179e-10  3.6299241567901619e-10  3.7255399647696157e-10 
 3.8236743925119585e-10  3.9243937833148072e-10  4.0277662280459667e-10  4.1338616111774183e-10 
 4.2427516580319519e-10  4.3545099832743903e-10  4.4692121406802008e-10  4.5869356742151448e-10 
 4.7077601704604844e-10  4.8317673124192328e-10  4.9590409347397890e-10  5.0896670803943283e-10 
 5.2237340588502431e-10  5.3613325057740101e-10  5.5025554443078076e-10  5.6474983479603507e-10 
 5.7962592051544562e-10  5.9489385854749745e-10  6.1056397076619146e-10  6.2664685093946969e-10 
 6.4315337189147567e-10  6.6009469285348944e-10  6.7748226700851310e-10  6.9532784923460198e-10 
 7.1364350405218174e-10  7.3244161378072426e-10  7.5173488691029710e-10  7.7153636669364821e-10 
 7.9185943996463542e-10  8.1271784618896302e-10  8.3412568675334590e-10  8.5609743449938421e-10 
 8.7864794350859305e-10  9.0179245914520297e-10  9.2554662836352692e-10  9.4992651028685818e-10 
 9.7494858706505705e-10  1.0006297750181678e-09  1.0269874360735980e-09  1.0540393895046003e-09 
 1.0818039239779926e-09  1.1102998099192653e-09  1.1395463122034342e-09  1.1695632031802320e-09 
 1.2003707760424377e-09  1.2319898585463986e-09  1.2644418270940145e-09  1.2977486211857190e-09 
 1.3319327582542335e-09  1.3670173488891337e-09  1.4030261124625261e-09  1.4399833931664131e-09 
 1.4779141764725984e-09  1.5168441060262754e-09  1.5567995009847352e-09  1.5978073738129262e-09 
 1.6398954485479195e-09  1.6830921795446404e-09  1.7274267707155627e-09  1.7729291952773874e-09 
 1.8196302160180795e-09  1.8675614060979756e-09  1.9167551703990568e-09  1.9672447674368244e-09 
 2.0190643318496163e-09  2.0722488974805743e-09  2.1268344210678811e-09  2.1828578065592901e-09 
 2.2403569300673801e-09  2.2993706654824118e-09  2.3599389107600846e-09  2.4221026149019558e-09 
 2.4859038056467528e-09  2.5513856178912637e-09  2.6185923228600048e-09  2.6875693580427907e-09 
 2.7583633579166001e-09  2.8310221854788653e-09  2.9055949646141370e-09  2.9821321133138572e-09 
 3.0606853777715314e-09  3.1413078673763920e-09  3.2240540906292273e-09  3.3089799920046892e-09 
 3.3961429897850498e-09  3.4856020148910082e-09  3.5774175507358258e-09  3.6716516741298064e-09 
 3.7683680972627776e-09  3.8676322107930225e-09  3.9695111280718421e-09  4.0740737305336734e-09 
 4.1813907142825157e-09  4.2915346379062143e-09  4.4045799715509837e-09  4.5206031472893792e-09 
 4.6396826108158922e-09  4.7618988745051131e-09  4.8873345718684536e-09  5.0160745134462897e-09 
 5.1482057441734004e-09  5.2838176022565646e-09  5.4230017796041999e-09  5.5658523838489992e-09 
 5.7124660020055654e-09  5.8629417658062276e-09  6.0173814187592538e-09  6.1758893849749653e-09 
 6.3385728398063390e-09  6.5055417823520528e-09  6.6769091098710432e-09  6.8527906941590706e-09 
 7.0333054599390579e-09  7.2185754653183347e-09  7.4087259843673807e-09  7.6038855918760025e-09 
 7.8041862503444948e-09  8.0097633992687121e-09  8.2207560467796705e-09  8.4373068636997975e-09 
 8.6595622800796600e-09  8.8876725842806548e-09  9.1217920246708839e-09  9.3620789140032612e-09 
 9.6086957365466138e-09  9.8618092580425651e-09  1.0121590638562774e-08  1.0388215548343194e-08 
 1.0661864286673954e-08  1.0942721903925609e-08  1.1230978326794633e-08  1.1526828486853156e-08 
 1.1830472452490383e-08  1.2142115564335191e-08  1.2461968574251984e-08  1.2790247788004270e-08 
 1.3127175211682823e-08  1.3472978701998087e-08  1.3827892120538852e-08  1.4192155492102186e-08 
 1.4566015167202195e-08  1.4949723988868250e-08  1.5343541463845953e-08  1.5747733938317513e-08 
 1.6162574778260950e-08  1.6588344554570910e-08  1.7025331233067096e-08  1.7473830369519702e-08 
 1.7934145309824549e-08  1.8406587395464292e-08  1.8891476174395749e-08  1.9389139617506802e-08 
 1.9899914340790576e-08  2.0424145833388207e-08  2.0962188691655698e-08  2.1514406859414465e-08 
 2.2081173874549362e-08  2.2662873122122532e-08  2.3259898094175620e-08  2.3872652656397862e-08 
 2.4501551321841890e-08  2.5147019531874288e-08  2.5809493944552729e-08  2.6489422730626766e-08 
 2.7187265877364511e-08  2.7903495500412862e-08  2.8638596163904640e-08  2.9393065209031398e-08 
 3.0167413091306933e-08  3.0962163726752084e-08  3.1777854847238004e-08  3.2615038365231134e-08 
 3.3474280748189896e-08  3.4356163402869505e-08  3.5261283069798534e-08  3.6190252228197614e-08 
 3.7143699511618149e-08  3.8122270134586411e-08  3.9126626330545651e-08  4.0157447801397340e-08 
 4.1215432178950256e-08  4.2301295498594735e-08  4.3415772685527828e-08  4.4559618053863812e-08 
 4.5733605818973791e-08  4.6938530623407094e-08  4.8175208076757014e-08  4.9444475309842718e-08 
 5.0747191543589921e-08  5.2084238673002717e-08  5.3456521866629653e-08  5.4864970181938481e-08 
 5.6310537197024524e-08  5.7794201659089885e-08  5.9316968150141974e-08  6.0879867770372701e-08 
 6.2483958839691235e-08  6.4130327617897195e-08  6.5820089043993589e-08  6.7554387495152841e-08 
 6.9334397565863247e-08  7.1161324867797188e-08  7.3036406850957936e-08  7.4960913646676192e-08 
 7.6936148933044447e-08  7.8963450823391644e-08  8.1044192778418914e-08  8.3179784542632869e-08 
 8.5371673105731255e-08  8.7621343689613384e-08  8.9930320761706443e-08  9.2300169075317657e-08 
 9.4732494737742215e-08  9.7228946306876959e-08  9.9791215917110189e-08  1.0242104043527975e-07 
 1.0512020264751356e-07  1.0789053247778896e-07  1.1073390823907101e-07  1.1365225791791324e-07 
 1.1664756049343001e-07  1.1972184729157311e-07  1.2287720337567446e-07  1.2611576897424001e-07 
 1.2943974094701045e-07  1.3285137429033146e-07  1.3635298368290636e-07  1.3994694507303292e-07 
 1.4363569730845945e-07  1.4742174381002478e-07  1.5130765429028162e-07  1.5529606651833667e-07 
 1.5938968813217415e-07  1.6359129849976812e-07  1.6790375063032416e-07  1.7232997313702972e-07 
 1.7687297225273364e-07  1.8153583390001242e-07  1.8632172581712718e-07  1.9123389974141478e-07 
 1.9627569365170392e-07  2.0145053407139079e-07  2.0676193843385792e-07  2.1221351751196775e-07 
 2.1780897791341390e-07  2.2355212464376380e-07  2.2944686373908046e-07  2.3549720497006827e-07 
 2.4170726461974054e-07  2.4808126833667170e-07  2.5462355406595122e-07  2.6133857506002340e-07 
 2.6823090297166162e-07  2.7530523103139068e-07  2.8256637731174053e-07  2.9001928808078858e-07 
 2.9766904124751675e-07  3.0552084990158918e-07  3.1358006595023550e-07  3.2185218385500159e-07 
 3.3034284447121758e-07  3.3905783899311909e-07  3.4800311300764554e-07  3.5718477066003355e-07 
 3.6660907893441839e-07  3.7628247205275660e-07  3.8621155599548298e-07  3.9640311314742544e-07 
 4.0686410707260507e-07  4.1760168742166704e-07  4.2862319497580295e-07  4.3993616683114666e-07 
 4.5154834172775319e-07  4.6346766552739729e-07  4.7570229684456583e-07  4.8826061283515607e-07 
 5.0115121514753866e-07  5.1438293604078934e-07  5.2796484467505330e-07  5.4190625357916426e-07 
 5.5621672530080868e-07  5.7090607924469483e-07  5.8598439870436997e-07  6.0146203809351108e-07 
 6.1734963038270805e-07  6.3365809474796068e-07  6.5039864443731210e-07  6.6758279486226305e-07 
 6.8522237192082758e-07  7.0332952055933232e-07  7.2191671358028860e-07  7.4099676070392936e-07 
 7.6058281789125357e-07  7.8068839693669344e-07  8.0132737533880201e-07  8.2251400645764359e-07 
 8.4426292996787713e-07  8.6658918261683536e-07  8.8950820929722973e-07  9.1303587444444824e-07 
 9.3718847376877092e-07  9.6198274633319518e-07  9.8743588698793710e-07  1.0135655591730929e-06 
 1.0403899081013338e-06  1.0679275743329573e-06  1.0961977077560659e-06  1.1252199819851010e-06 
 1.1550146091914620e-06  1.1856023553804344e-06  1.2170045561291937e-06  1.2492431328011909e-06 
 1.2823406092528161e-06  1.3163201290488152e-06  1.3512054732035843e-06  1.3870210784660975e-06 
 1.4237920561669242e-06  1.4615442116464827e-06  1.5003040642844343e-06  1.5400988681508902e-06 
 1.5809566333009050e-06  1.6229061477345950e-06  1.6659770000460665e-06  1.7101996027853069e-06 
 1.7556052165580959e-06  1.8022259748900667e-06  1.8500949098820336e-06  1.8992459786848474e-06 
 1.9497140908231701e-06  2.0015351363987545e-06  2.0547460152051096e-06  2.1093846667866799e-06 
 2.1654901014771263e-06  2.2231024324526653e-06  2.2822629088379751e-06  2.3430139499037456e-06 
 2.4053991803965879e-06  2.4694634670437806e-06  2.5352529562771125e-06  2.6028151132220192e-06 
 2.6721987620001651e-06  2.7434541273957433e-06  2.8166328779379386e-06  2.8917881704543041e-06 
 2.9689746961522097e-06  3.0482487282880327e-06  3.1296681714864423e-06  3.2132926127748785e-06 
 3.2991833744012663e-06  3.3874035685060664e-06  3.4780181537229770e-06  3.5710939937859739e-06 
 3.6666999182239516e-06  3.7649067852279193e-06  3.8657875467796471e-06  3.9694173161347725e-06 
 4.0758734377576654e-06  4.1852355598099940e-06  4.2975857092995556e-06  4.4130083700011397e-06 
 4.5315905632663416e-06  4.6534219318448792e-06  4.7785948268458055e-06  4.9072043979731265e-06 
 5.0393486871768938e-06  5.1751287258675673e-06  5.3146486358487315e-06  5.4580157341307088e-06 
 5.6053406417956637e-06  5.7567373970931333e-06  5.9123235729537935e-06  6.0722203991185643e-06 
 6.2365528890899763e-06  6.4054499721231291e-06  6.5790446304843914e-06  6.7574740422175873e-06 
 6.9408797296695249e-06  7.1294077140394951e-06  7.3232086762309623e-06  7.5224381242978430e-06 
 7.7272565677928688e-06  7.9378296993414008e-06  8.1543285837808797e-06  8.3769298552236749e-06 
 8.6058159224200697e-06  8.8411751828175750e-06  9.0832022457338703e-06  9.3320981650827094e-06 
 9.5880706821153548e-06  9.8513344786649217e-06  1.0122111441406952e-05  1.0400630937677270e-05 
 1.0687130103417207e-05  1.0981854143847258e-05  1.1285056647502901e-05  1.1596999914300741e-05 
 1.1917955298340031e-05  1.2248203566183038e-05  1.2588035271399053e-05  1.2937751146200120e-05 
 1.3297662511042767e-05  1.3668091703118677e-05  1.4049372524709092e-05  1.4441850712432525e-05 
 1.4845884428473459e-05  1.5261844774941299e-05  1.5690116332574613e-05  1.6131097725074386e-05 
 1.6585202210424374e-05  1.7052858300634150e-05  1.7534510411423879e-05  1.8030619543457520e-05 
 1.8541663996824908e-05  1.9068140120572444e-05  1.9610563099187677e-05  2.0169467778055169e-05 
 2.0745409530020266e-05  2.1338965165324244e-05  2.1950733887308785e-05  2.2581338296431388e-05 
 2.3231425445285509e-05  2.3901667947481671e-05  2.4592765143418226e-05  2.5305444326154346e-05 
 2.6040462030793637e-05  2.6798605390994750e-05  2.7580693566447753e-05  2.8387579245391166e-05 
 2.9220150226496876e-05  3.0079331084718396e-05  3.0966084925984615e-05  3.1881415235926252e-05 
 3.2826367828148101e-05  3.3802032897907461e-05  3.4809547187429975e-05  3.5850096269489658e-05 
 3.6924916956302237e-05  3.8035299841232156e-05  3.9182591981294827e-05  4.0368199728950627e-05 
 4.1593591722236503e-05  4.2860302042868499e-05  4.4169933552577070e-05  4.5524161418607125e-05 
 4.6924736840033948e-05  4.8373490987313163e-05  4.9872339168304701e-05  5.1423285234889519e-05 
 5.3028426245238908e-05  5.4689957397802744e-05  5.6410177254161873e-05  5.8191493269044201e-05 
 6.0036427647040941e-05  6.1947623546884856e-05  6.3927851655571992e-05  6.5980017156130536e-05 
 6.8107167114471597e-05  7.0312498312506290e-05  7.2599365556588662e-05  7.4971290492356513e-05 
 7.7431970959200382e-05  7.9985290919906289e-05  8.2635331003503453e-05  8.5386379702015542e-05 
 8.8242945264677242e-05  9.1209768336252274e-05  9.4291835389390566e-05  9.7494393004507449e-05 
 1.0082296305447691e-04  1.0428335885552130e-04  1.0788170235007725e-04  1.1162444239213969e-04 
 1.1551837421066427e-04  1.1957066013206317e-04  1.2378885164869615e-04  1.2818091292656267e-04 
 1.3275524585218179e-04  1.3752071672593340e-04  1.4248668471697541e-04  1.4766303220327650e-04 
 1.5306019712937191e-04  1.5868920752419631e-04  1.6456171833183341e-04  1.7069005071929870e-04 
 1.7708723403759980e-04  1.8376705062536516e-04  1.9074408365836134e-04  1.9803376826330954e-04 
 2.0565244613064132e-04  2.1361742387828554e-04  2.2194703543734691e-04  2.3066070875071699e-04 
 2.3977903709735440e-04  2.4932385537829817e-04  2.5931832172554700e-04  2.6978700482188455e-04 
 2.8075597734868743e-04  2.9225291600985418e-04  3.0430720861341487e-04  3.1695006872825739e-04 
 3.3021465847193866e-04  3.4413622002689253e-04  3.5875221652672726e-04  3.7410248300189278e-04 
 3.9022938812504975e-04  4.0717800755118039e-04  4.2499630970611088e-04  4.4373535493992056e-04 
 4.6344950902893982e-04  4.8419667208199894e-04  5.0603852398354839e-04  5.2904078758855193e-04 
 5.5327351097196695e-04  5.7881137012950499e-04  6.0573399362656352e-04  6.3412631079905776e-04 
 6.6407892522378292e-04  6.9568851529721047e-04  7.2905826389068566e-04  7.6429831918724104e-04 
 8.0152628895099648e-04  8.4086777063484882e-04  8.8245691989614287e-04  9.2643706026366516e-04 
 9.7296133688291430e-04  1.0221934174604328e-03  1.0743082437322520e-03  1.1294928369963023e-03 
 1.1879471614739626e-03  1.2498850495015570e-03  1.3155351927981310e-03  1.3851422043105000e-03 
 1.4589677553992618e-03  1.5372917933984293e-03  1.6204138448543766e-03  1.7086544100235793e-03 
 1.8023564544789848e-03  1.9018870039362022e-03  2.0076388486558409e-03  2.1200323639982569e-03 
 2.2395174538902803e-03  2.3665756240963906e-03  2.5017221922525004e-03  2.6455086415992138e-03 
 2.7985251252201446e-03  2.9614031273236989e-03  3.1348182876749205e-03  3.3194933946571448e-03 
 3.5162015515902032e-03  3.7257695198226384e-03  3.9490812407234101e-03  4.1870815370031386e-03 
 4.4407799917856932e-03  4.7112550015297947e-03  4.9996579962869828e-03  5.3072178179167000e-03 
 5.6352452438251403e-03  5.9851376406417000e-03  6.3583837291116517e-03  6.7565684385074978e-03 
 7.1813778262064054e-03  7.6346040359208415e-03  8.1181502665738908e-03  8.6340357231239600e-03 
 9.1844005208511024e-03  9.7715105157070818e-03  1.0397762035148127e-02  1.1065686486076323e-02 
 1.1777954818575600e-02  1.2537381825327810e-02  1.3346930256131484e-02  1.4209714724084626e-02 
 1.5129005374277742e-02  1.6108231277316913e-02  1.7150983499347995e-02  1.8261017788816662e-02 
 1.9442256809752950e-02  2.0698791843751518e-02  2.2034883879455215e-02  2.3454964009814182e-02 
 2.4963633063125285e-02  2.6565660402070253e-02  2.8265981832724548e-02  3.0069696568879475e-02 
 3.1982063191355554e-02  3.4008494522322991e-02  3.6154551296486169e-02  3.8425934451648790e-02 
 4.0828475781816372e-02  4.3368126604025059e-02  4.6050944001120413e-02  4.8883074140572982e-02 
 5.1870732162727785e-02  5.5020178206528339e-02  5.8337689309690480e-02  6.1829527174494942e-02 
 6.5501902095787587e-02  6.9360933651633830e-02  7.3412609002204532e-02  7.7662739784349719e-02 
 8.2116918649034573e-02  8.6780476714417562e-02  9.1658441867302209e-02  9.6755495820084206e-02 
 1.0207593994986001e-01  1.0762365852272343e-01  1.1340208510285232e-01  1.1941417129455037e-01 
 1.2566235759888530e-01  1.3214854634416362e-01  1.3887407669244103e-01  1.4583970177136205e-01 
 1.5304556801996391e-01  1.6049119686110352e-01  1.6817546881849368e-01  1.7609661018295403e-01 
 1.8425218230270937e-01  1.9263907353007603e-01  2.0125349380590110e-01  2.1009097180794950e-01 
 2.1914635453407819e-01  2.2841380913906414e-01  2.3788682679844697e-01  2.4755822833623398e-01 
 2.5742017132787243e-01  2.6746415837701382e-01  2.7768104626532353e-01  2.8806105568942214e-01 
 2.9859378132795988e-01  3.0926820202428007e-01  3.2007269092504587e-01  3.3099502548099391e-01 
 3.4202239729058731e-01  3.5314142184824898e-01  3.6433814834322520e-01  3.7559806973979071e-01 
 3.8690613345114927e-01  3.9824675299452950e-01  4.0960382107994675e-01  4.2096072463967305e-01 
 4.3230036234179647e-01  4.4360516514446829e-01  4.5485712045040239e-01  4.6603780040209281e-01 
 4.7712839480824842e-01  4.8810974912588062e-01  4.9896240783769641e-01  5.0966666345892808e-01 
 5.2020261128670076e-01  5.3055020987154045e-01  5.4068934704852412e-01  5.5059991121925522e-01 
 5.6026186743001183e-01  5.6965533765083831e-01  5.7876068452980622e-01  5.8755859778070940e-01 
 5.9603018226498894e-01  6.0415704675330206e-01  6.1192139230151132e-01  6.1930609915178636e-01 
 6.2629481107290708e-01  6.3287201608460442e-01  6.3902312256782634e-01  6.4473452984414603e-01 
 6.4999369241032412e-01  6.5478917713470786e-01  6.5911071285661138e-01  6.6294923197355882e-01 
 6.6629690374959427e-01  6.6914715922608614e-01  6.7149470776005626e-01  6.7333554534988982e-01 
 6.7466695503068819e-01  6.7548749972847666e-01  6.7579700805167142e-01  6.7559655356812198e-01 
 6.7488842816593897e-01  6.7367611012624473e-01  6.7196422754679874e-01  6.6975851774858808e-01 
 6.6706578327507215e-01  6.6389384505827653e-01  6.6025149328043353e-01  6.5614843640727094e-01 
 6.5159524881263176e-01  6.4660331735686327e-01  6.4118478722606997e-01  6.3535250729092774e-01 
 6.2911997519635132e-01  6.2250128235795532e-01  6.1551105902011527e-01  6.0816441950814959e-01 
 6.0047690780032281e-01  5.9246444354632632e-01  5.8414326866582866e-01  5.7552989467289095e-01 
 5.6664105088736938e-01  5.5749363371065530e-01  5.4810465715820900e-01  5.3849120485326807e-01 
 5.2867038369334141e-01  5.1865927940240697e-01  5.0847491344796636e-01  4.9813420514084494e-01 
 4.8765393186238620e-01  4.7705069477509121e-01  4.6634088653052752e-01  4.5554066176684022e-01 
 4.4466591042666309e-01  4.3373223388222409e-01  4.2275492381009383e-01  4.1174894371062681e-01 
 4.0072891292762702e-01  3.8970909299142042e-01  3.7870337606518090e-01  3.6772527524794885e-01 
 3.5678791647363062e-01  3.4590403172706230e-01  3.3508595329323826e-01  3.2434560875819163e-01 
 3.1369451649026153e-01  3.0314378134845499e-01  2.9270409038983558e-01  2.8238570837960425e-01 
 2.7219847294485783e-01  2.6215178925473998e-01  2.5225462415453226e-01  2.4251549972770206e-01 
 2.3294248630649220e-01  2.2354319499675962e-01  2.1432476982494514e-01  2.0529387965288889e-01 
 1.9645671003851770e-01  1.8781895524623879e-01  1.7938581062949188e-01  1.7116196561895761e-01 
 1.6315159755329992e-01  1.5535836658525060e-01  1.4778541188478408e-01  1.4043534934381943e-01 
 1.3331027096414225e-01  1.2641174608312056e-01  1.1974082456132379e-01  1.1329804202342653e-01 
 1.0708342720988712e-01  1.0109651146273636e-01  9.5336340335366976e-02  8.9801487284195750e-02 
 8.4490069370151938e-02  7.9399764870594053e-02  7.4527832677958442e-02  6.9871133340302802e-02 
 6.5426151581222308e-02  6.1189020122358752e-02  5.7155544620884152e-02  5.3321229526820911e-02 
 4.9681304660703356e-02  4.6230752310690161e-02  4.2964334649575692e-02  3.9876621275965647e-02 
 3.6962016689914452e-02  3.4214787521297176e-02  3.1629089338834633e-02  2.9198992878741194e-02 
 2.6918509544161834e-02  2.4781616039660472e-02  2.2782278018783877e-02  2.0914472636933509e-02 
 1.9172209916232540e-02  1.7549552843587956e-02  1.6040636137552817e-02  1.4639683633737745e-02 
 1.3341024252270763e-02  1.2139106524042036e-02  1.1028511665096339e-02  1.0003965200472711e-02 
 9.0603471498419443e-03  8.1927007978384696e-03  7.3962400812143149e-03  6.6663556335947709e-03 
 5.9986195362302765e-03  5.3887888298339839e-03  4.8328078483628311e-03  4.3268094404497782e-03 
 3.8671151481452530e-03  3.4502344157023375e-03  3.0728629033766018e-03  2.7318799826450972e-03 
 2.4243454899243034e-03  2.1474958158307308e-03  1.8987394063318889e-03  1.6756517508330080e-03 
 1.4759699303922898e-03  1.2975867969120282e-03  1.1385448513739663e-03  9.9702988601482290e-04 
 8.7136445189320137e-04  7.6000120952778309e-04  6.6151621635596473e-04  5.7460220066142987e-04 
 4.9806186741830781e-04  4.3080127724608511e-04  3.7182333540883934e-04  3.2022142356776488e-04 
 2.7517320283450682e-04  2.3593461265103763e-04  2.0183408609822481e-04  1.7226699851050726e-04 
 1.4669036272946918e-04  1.2461778099616879e-04  1.0561466037562342e-04  8.9293695738486829e-05 
 7.5310621703168814e-05  6.3360232564270010e-05  5.3172667125293550e-05  4.4509953471536422e-05 
 3.7162807100600797e-05  3.0947674441706043e-05  2.5704012638792644e-05  2.1291795534762459e-05 
 1.7589235062285622e-05  1.4490706706499166e-05  1.1904867341723210e-05  9.7529535424522147e-06 
 7.9672484123594456e-06  6.4897050477605594e-06  5.2707149378889836e-06  4.2680098877272790e-06 
 3.4456864148031769e-06  2.7733420047541957e-06  2.2253130978570560e-06  1.7800052072851857e-06 
 1.4193061277675846e-06  1.1280737702753443e-06  8.9369074314530088e-07  7.0567838698611885e-07 
 5.5536354959752375e-07  4.3559195290760034e-07  3.4048258536509121e-07  2.6521824010522697e-07 
 2.0586645009993842e-07  1.5922872960270582e-07  1.2271302337954472e-07  9.4226420610940289e-08 
 7.2085300686513430e-08  5.4940374866603426e-08  4.1714402990614668e-08  3.1550649705800361e-08 
 2.3770401348657683e-08  1.7838094152869936e-08  1.3332808562764671e-08  9.9250648857661990e-09 
 7.3580141650179785e-09  5.4322568533871361e-09  3.9936424615098181e-09  2.9235076251472274e-09 
 2.1308997080669686e-09  1.5464097527711321e-09  1.1173038364196118e-09  8.0369709571692520e-10 
 5.7556114929605759e-10  4.1039454994367915e-10  2.9141830865505197e-10  2.0618540596026417e-10 
 1.4551540011299681e-10  0.0000000000000000e+00  0.0000000000000000e+00  0.0000000000000000e+00 
 0.0000000000000000e+00  0.0000000000000000e+00  0.0000000000000000e+00  0.0000000000000000e+00 
 0.0000000000000000e+00  0.0000000000000000e+00  0.0000000000000000e+00  0.0000000000000000e+00 
 0.0000000000000000e+00  0.0000000000000000e+00  0.0000000000000000e+00  0.0000000000000000e+00 
 0.0000000000000000e+00  0.0000000000000000e+00  0.0000000000000000e+00  0.0000000000000000e+00 
 0.0000000000000000e+00  0.0000000000000000e+00  0.0000000000000000e+00  0.0000000000000000e+00 
 0.0000000000000000e+00  0.0000000000000000e+00  0.0000000000000000e+00  0.0000000000000000e+00 
 0.0000000000000000e+00  0.0000000000000000e+00  0.0000000000000000e+00  0.0000000000000000e+00 
 0.0000000000000000e+00  0.0000000000000000e+00  0.0000000000000000e+00  0.0000000000000000e+00 
 0.0000000000000000e+00  0.0000000000000000e+00  0.0000000000000000e+00  0.0000000000000000e+00 
 0.0000000000000000e+00  0.0000000000000000e+00  0.0000000000000000e+00  0.0000000000000000e+00 
 0.0000000000000000e+00  0.0000000000000000e+00  0.0000000000000000e+00  0.0000000000000000e+00 
 0.0000000000000000e+00  0.0000000000000000e+00  0.0000000000000000e+00  0.0000000000000000e+00 
 0.0000000000000000e+00  0.0000000000000000e+00  0.0000000000000000e+00  0.0000000000000000e+00 
 0.0000000000000000e+00  0.0000000000000000e+00  0.0000000000000000e+00  0.0000000000000000e+00 
 0.0000000000000000e+00  0.0000000000000000e+00  0.0000000000000000e+00  0.0000000000000000e+00 
 0.0000000000000000e+00  0.0000000000000000e+00  0.0000000000000000e+00  0.0000000000000000e+00 
 0.0000000000000000e+00  0.0000000000000000e+00  0.0000000000000000e+00  0.0000000000000000e+00 
 0.0000000000000000e+00  0.0000000000000000e+00  0.0000000000000000e+00  0.0000000000000000e+00 
 0.0000000000000000e+00  0.0000000000000000e+00  0.0000000000000000e+00  0.0000000000000000e+00 
 0.0000000000000000e+00  0.0000000000000000e+00  0.0000000000000000e+00  0.0000000000000000e+00 
 0.0000000000000000e+00  0.0000000000000000e+00  0.0000000000000000e+00  0.0000000000000000e+00 
 0.0000000000000000e+00  0.0000000000000000e+00  0.0000000000000000e+00  0.0000000000000000e+00 
 0.0000000000000000e+00  0.0000000000000000e+00  0.0000000000000000e+00  0.0000000000000000e+00 
 0.0000000000000000e+00  0.0000000000000000e+00  0.0000000000000000e+00  0.0000000000000000e+00 
 0.0000000000000000e+00  0.0000000000000000e+00  0.0000000000000000e+00  0.0000000000000000e+00 
 0.0000000000000000e+00  0.0000000000000000e+00  0.0000000000000000e+00  0.0000000000000000e+00 
 0.0000000000000000e+00 
P    1   0.33          Wavefunction
 9.3065259965757526e-13  9.5516687199392273e-13  9.8032687352361765e-13  1.0061496133665350e-12 
 1.0326525486789242e-12  1.0598535964551137e-12  1.0877711456400846e-12  1.1164240695610988e-12 
 1.1458317386867887e-12  1.1760140337223369e-12  1.2069913590495890e-12  1.2387846565211979e-12 
 1.2714154196181144e-12  1.3049057079800049e-12  1.3392781623184081e-12  1.3745560197227225e-12 
 1.4107631293693683e-12  1.4479239686447397e-12  1.4860636596928579e-12  1.5252079863988976e-12 
 1.5653834118200823e-12  1.6066170960757211e-12  1.6489369147084901e-12  1.6923714775293649e-12 
 1.7369501479589471e-12  1.7827030628782627e-12  1.8296611530024438e-12  1.8778561637910783e-12 
 1.9273206769093569e-12  1.9780881322545224e-12  2.0301928505625247e-12  2.0836700566101511e-12 
 2.1385559030283266e-12  2.1948874947426734e-12  2.2527029140578670e-12  2.3120412464027315e-12 
 2.3729426067534879e-12  2.4354481667530168e-12  2.4996001825444673e-12  2.5654420233380293e-12 
 2.6330182007301842e-12  2.7023743987952527e-12  2.7735575049695819e-12  2.8466156417492496e-12 
 2.9215981992227218e-12  2.9985558684604479e-12  3.0775406757839707e-12  3.1586060179377207e-12 
 3.2418066981872632e-12  3.3271989633684157e-12  3.4148405419122694e-12  3.5047906828718272e-12 
 3.5971101959766451e-12  3.6918614927425468e-12  3.7891086286642128e-12  3.8889173465191537e-12 
 3.9913551208123692e-12  4.0964912033917026e-12  4.2043966702647632e-12  4.3151444696490456e-12 
 4.4288094712877375e-12  4.5454685170645498e-12  4.6652004729517992e-12  4.7880862823268435e-12 
 4.9142090206929317e-12  5.0436539518414524e-12  5.1765085854935512e-12  5.3128627364600789e-12 
 5.4528085853598819e-12  5.5964407409374601e-12  5.7438563040221431e-12  5.8951549331720056e-12 
 6.0504389120469106e-12  6.2098132185562275e-12  6.3733855958279692e-12  6.5412666250473215e-12 
 6.7135698002138087e-12  6.8904116048676534e-12  7.0719115908371616e-12  7.2581924590604093e-12 
 7.4493801425358469e-12  7.6456038914578846e-12  7.8469963605950902e-12  8.0536936989699359e-12 
 8.2658356419008720e-12  8.4835656054688362e-12  8.7070307834721074e-12  8.9363822469350737e-12 
 9.1717750462381355e-12  9.4133683159378339e-12  9.6613253823480026e-12  9.9158138739547888e-12 
 1.0177005834740028e-11  1.0445077840489760e-11  1.0720211118166350e-11  1.1002591668425047e-11 
 1.1292410391357723e-11  1.1589863215548841e-11  1.1895151230530879e-11  1.2208480822728779e-11 
 1.2530063814985295e-11  1.2860117609761595e-11  1.3198865336109896e-11  1.3546536000517547e-11 
 1.3903364641724411e-11  1.4269592489618436e-11  1.4645467128316541e-11  1.5031242663541374e-11 
 1.5427179894406801e-11  1.5833546489728518e-11  1.6250617168978804e-11  1.6678673888007844e-11 
 1.7118006029657114e-11  1.7568910599393733e-11  1.8031692426098058e-11  1.8506664368140182e-11 
 1.8994147524884760e-11  1.9494471453767029e-11  2.0007974393086933e-11  2.0535003490671773e-11 
 2.1075915038562159e-11  2.1631074713879804e-11  2.2200857826040029e-11  2.2785649570476130e-11 
 2.3385845289047113e-11  2.4001850737304844e-11  2.4634082358801285e-11  2.5282967566621333e-11 
 2.5948945032331495e-11  2.6632464982539804e-11  2.7333989503267460e-11  2.8053992852337918e-11 
 2.8792961779994691e-11  2.9551395857964580e-11  3.0329807817188748e-11  3.1128723894450054e-11 
 3.1948684188130960e-11  3.2790243023342431e-11  3.3653969326670819e-11  3.4540447010795932e-11 
 3.5450275369240457e-11  3.6384069481517458e-11  3.7342460628950018e-11  3.8326096721443983e-11 
 3.9335642735502403e-11  4.0371781163777812e-11  4.1435212476466201e-11  4.2526655594854745e-11 
 4.3646848377343228e-11  4.4796548118267900e-11  4.5976532059865000e-11  4.7187597917719902e-11 
 4.8430564420057350e-11  4.9706271861237152e-11  5.1015582669829758e-11  5.2359381991655511e-11 
 5.3738578288181925e-11  5.5154103950683572e-11  5.6606915930579612e-11  5.8097996386375261e-11 
 5.9628353347644486e-11  6.1199021396502903e-11  6.2811062367031547e-11  6.4465566063124309e-11 
 6.6163650995244514e-11  6.7906465136588518e-11  6.9695186699167849e-11  7.1531024930334100e-11 
 7.3415220930285739e-11  7.5349048491108849e-11  7.7333814957919362e-11  7.9370862112689270e-11 
 8.1461567081353732e-11  8.3607343264812794e-11  8.5809641294456993e-11  8.8069950012862900e-11 
 9.0389797480321554e-11  9.2770752007880331e-11  9.5214423217596698e-11  9.7722463130720535e-11 
 1.0029656728454091e-10  1.0293847587865229e-10  1.0564997495141500e-10  1.0843289758740555e-10 
 1.1128912515667332e-10  1.1422058858664075e-10  1.1722926966750777e-10  1.2031720239204270e-10 
 1.2348647433066498e-10  1.2673922804275039e-10  1.3007766252511208e-10  1.3350403469863710e-10 
 1.3702066093408347e-10  1.4062991861806935e-10  1.4433424776031318e-10  1.4813615264321096e-10 
 1.5203820351486725e-10  1.5604303832672230e-10  1.6015336451695292e-10  1.6437196084085036e-10 
 1.6870167924941425e-10  1.7314544681743204e-10  1.7770626772234808e-10  1.8238722527525970e-10 
 1.8719148400541385e-10  1.9212229179961352e-10  1.9718298209798046e-10  2.0237697614755885e-10 
 2.0770778531528383e-10  2.1317901346187801e-10  2.1879435937828181e-10  2.2455761928626495e-10 
 2.3047268940490925e-10  2.3654356858469839e-10  2.4277436101099557e-10  2.4916927897873730e-10 
 2.5573264574021901e-10  2.6246889842789820e-10  2.6938259105419073e-10  2.7647839759029044e-10 
 2.8376111512609114e-10  2.9123566711334999e-10  2.9890710669428358e-10  3.0678062011784881e-10 
 3.1486153024601595e-10  3.2315530015240896e-10  3.3166753681574125e-10  3.4040399491054905e-10 
 3.4937058069778155e-10  3.5857335601788213e-10  3.6801854238905741e-10  3.7771252521350789e-10 
 3.8766185809446305e-10  3.9787326726693950e-10  4.0835365614522053e-10  4.1911010999012888e-10 
 4.3014990069925178e-10  4.4148049172335323e-10  4.5310954311230419e-10  4.6504491669393608e-10 
 4.7729468138932323e-10  4.8986711866808864e-10  5.0277072814741927e-10  5.1601423333857993e-10 
 5.2960658754480914e-10  5.4355697991458639e-10  5.5787484165436310e-10  5.7256985240496050e-10 
 5.8765194678594272e-10  6.0313132111239275e-10  6.1901844028863317e-10  6.3532404488355278e-10 
 6.5205915839232309e-10  6.6923509468941738e-10  6.8686346567797013e-10  7.0495618914064982e-10 
 7.2352549679735808e-10  7.4258394257520061e-10  7.6214441109632369e-10  7.8222012638936146e-10 
 8.0282466083037942e-10  8.2397194431936920e-10  8.4567627369849724e-10  8.6795232241848212e-10 
 8.9081515045963887e-10  9.1428021451430425e-10  9.3836337843753318e-10  9.6308092397313926e-10 
 9.8844956176233636e-10  1.0144864426424379e-09  1.0412091692432544e-09  1.0686358078890484e-09 
 1.0967849008140960e-09  1.1256754787001325e-09  1.1553270735441655e-09  1.1857597318653710e-09 
 1.2169940282600114e-09  1.2490510793135557e-09  1.2819525578794149e-09  1.3157207077339631e-09 
 1.3503783586177582e-09  1.3859489416731409e-09  1.4224565052886535e-09  1.4599257313610009e-09 
 1.4983819519855376e-09  1.5378511665865723e-09  1.5783600594990617e-09  1.6199360180135673e-09 
 1.6626071508966723e-09  1.7064023073993557e-09  1.7513510967661644e-09  1.7974839082579714e-09 
 1.8448319316992906e-09  1.8934271785682864e-09  1.9433025036441600e-09  1.9944916272251178e-09 
 2.0470291579318211e-09  2.1009506161117674e-09  2.1562924578604353e-09  2.2130920996754570e-09 
 2.2713879437605143e-09  2.3312194039960855e-09  2.3926269325946191e-09  2.4556520474581990e-09 
 2.5203373602572025e-09  2.5867266052489804e-09  2.6548646688560667e-09  2.7247976200239511e-09 
 2.7965727413789587e-09  2.8702385612073586e-09  2.9458448862773492e-09  3.0234428355261311e-09 
 3.1030848746349341e-09  3.1848248515153573e-09  3.2687180327311047e-09  3.3548211408797685e-09 
 3.4431923929599910e-09  3.5338915397499928e-09  3.6269799062241584e-09  3.7225204330350507e-09 
 3.8205777190889687e-09  3.9212180652439097e-09  4.0245095191595284e-09  4.1305219213295077e-09 
 4.2393269523275298e-09  4.3509981812988855e-09  4.4656111157305675e-09  4.5832432525336213e-09 
 4.7039741304723588e-09  4.8278853839759847e-09  4.9550607983691546e-09  5.0855863665588701e-09 
 5.2195503472161960e-09  5.3570433244922300e-09  5.4981582693088587e-09  5.6429906022658445e-09 
 5.7916382582069547e-09  5.9442017524889070e-09  6.1007842489981166e-09  6.2614916299614109e-09 
 6.4264325675980538e-09  6.5957185976617544e-09  6.7694641949225462e-09  6.9477868506398146e-09 
 7.1308071520790482e-09  7.3186488641263057e-09  7.5114390130558610e-09  7.7093079725078635e-09 
 7.9123895517344779e-09  8.1208210861744152e-09  8.3347435304173907e-09  8.5543015536217270e-09 
 8.7796436374498962e-09  9.0109221765886186e-09  9.2482935819218193e-09  9.4919183864266084e-09 
 9.7419613538642939e-09  9.9985915903403780e-09  1.0261982658809354e-08  1.0532312696602289e-08 
 1.0809764536057132e-08  1.1094525828333807e-08  1.1386789170498452e-08  1.1686752235963275e-08 
 1.1994617908370844e-08  1.2310594419014007e-08  1.2634895487885095e-08  1.2967740468450452e-08 
 1.3309354496248970e-08  1.3659968641415940e-08  1.4019820065236194e-08  1.4389152180833295e-08 
 1.4768214818104364e-08  1.5157264393013119e-08  1.5556564081356563e-08  1.5966383997124047e-08 
 1.6387001375570382e-08  1.6818700761128074e-08  1.7261774200287019e-08  1.7716521439573494e-08 
 1.8183250128763684e-08  1.8662276029470791e-08  1.9153923229248232e-08  1.9658524361355477e-08 
 2.0176420830336951e-08  2.0707963043568292e-08  2.1253510648928586e-08  2.1813432778761374e-08 
 2.2388108300291576e-08  2.2977926072669993e-08  2.3583285210821589e-08  2.4204595356278612e-08 
 2.4842276955184288e-08  2.5496761543658111e-08  2.6168492040718443e-08  2.6857923048963898e-08 
 2.7565521163220042e-08  2.8291765287363611e-08  2.9037146959542359e-08  2.9802170686014150e-08 
 3.0587354283835243e-08  3.1393229232633806e-08  3.2220341035711259e-08  3.3069249590720129e-08 
 3.3940529570174370e-08  3.4834770812054808e-08  3.5752578720779286e-08  3.6694574678814793e-08 
 3.7661396469216061e-08  3.8653698709382900e-08  3.9672153296336560e-08  4.0717449863823676e-08 
 4.1790296251564333e-08  4.2891418986969908e-08  4.4021563779664842e-08  4.5181496029155826e-08 
 4.6372001346001283e-08  4.7593886086843270e-08  4.8847977903674568e-08  5.0135126307723072e-08 
 5.1456203248346860e-08  5.2812103707343483e-08  5.4203746309088356e-08  5.5632073946928729e-08 
 5.7098054426271075e-08  5.8602681124811952e-08  6.0146973670374946e-08  6.1731978636828764e-08 
 6.3358770258574957e-08  6.5028451164107247e-08  6.6742153129157955e-08  6.8501037849961896e-08 
 7.0306297737182290e-08  7.2159156731059050e-08  7.4060871138354467e-08  7.6012730491688247e-08 
 7.8016058431869913e-08  8.0072213613853428e-08  8.2182590636957153e-08  8.4348621000009263e-08 
 8.6571774082097891e-08  8.8853558149624473e-08  9.1195521390378031e-08  9.3599252975368382e-08 
 9.6066384149177958e-08  9.8598589349611922e-08  1.0119758735744949e-07  1.0386514247712278e-07 
 1.0660306574917038e-07  1.0941321619534037e-07  1.1229750209723987e-07  1.1525788230945510e-07 
 1.1829636760809257e-07  1.2141502207571821e-07  1.2461596452370052e-07  1.2790136995299205e-07 
 1.3127347105441440e-07  1.3473455974954124e-07  1.3828698877330681e-07  1.4193317329950013e-07 
 1.4567559261033810e-07  1.4951679181134659e-07  1.5345938359281357e-07  1.5750605003911657e-07 
 1.6165954448726377e-07  1.6592269343602910e-07  1.7029839850710081e-07  1.7478963845970625e-07 
 1.7939947126021900e-07  1.8413103620829890e-07  1.8898755612116182e-07  1.9397233957762469e-07 
 1.9908878322361979e-07  2.0434037414092341e-07  2.0973069228089824e-07  2.1526341296510105e-07 
 2.2094230945466460e-07  2.2677125559042234e-07  2.3275422850580133e-07  2.3889531141457502e-07 
 2.4519869647562783e-07  2.5166868773695374e-07  2.5830970416117600e-07  2.6512628273495059e-07 
 2.7212308166468553e-07  2.7930488366108698e-07  2.8667659931512068e-07  2.9424327056805896e-07 
 3.0201007427836975e-07  3.0998232588828731e-07  3.1816548319299976e-07  3.2656515021547859e-07 
 3.3518708119007586e-07  3.4403718465811046e-07  3.5312152767877415e-07  3.6244634015879393e-07 
 3.7201801930439842e-07  3.8184313419925388e-07  3.9192843051215393e-07  4.0228083533837414e-07 
 4.1290746217872947e-07  4.2381561606051047e-07  4.3501279880460857e-07  4.4650671444329012e-07 
 4.5830527479322654e-07  4.7041660518854431e-07  4.8284905037882035e-07  4.9561118059711606e-07 
 5.0871179780331865e-07  5.2215994210823875e-07  5.3596489838410389e-07  5.5013620306727789e-07 
 5.6468365115924818e-07  5.7961730343212604e-07  5.9494749384513170e-07  6.1068483717875940e-07 
 6.2684023689356145e-07  6.4342489322073344e-07  6.6045031149193898e-07  6.7792831071609234e-07 
 6.9587103241107762e-07  7.1429094969869141e-07  7.3320087667138915e-07  7.5261397803973420e-07 
 7.7254377906977551e-07  7.9300417581992448e-07  8.1400944568725619e-07  8.3557425827353235e-07 
 8.5771368658163831e-07  8.8044321855351447e-07  9.0377876896110487e-07  9.2773669166226884e-07 
 9.5233379223407316e-07  9.7758734099635066e-07  1.0035150864389220e-06  1.0301352690663936e-06 
 1.0574666356749847e-06  1.0855284540764264e-06  1.1143405282845412e-06  1.1439232141807603e-06 
 1.1742974356754669e-06  1.2054847013827480e-06  1.2375071218268277e-06  1.2703874271992198e-06 
 1.3041489856863979e-06  1.3388158223885923e-06  1.3744126388511927e-06  1.4109648332310934e-06 
 1.4484985211212716e-06  1.4870405570578606e-06  1.5266185567349837e-06  1.5672609199537026e-06 
 1.6089968543325362e-06  1.6518563998081877e-06  1.6958704539563341e-06  1.7410707981636348e-06 
 1.7874901246834442e-06  1.8351620646091400e-06  1.8841212168004565e-06  1.9344031777997639e-06 
 1.9860445727768690e-06  2.0390830875426172e-06  2.0935575016733701e-06  2.1495077227903179e-06 
 2.2069748220395684e-06  2.2660010708210073e-06  2.3266299788161306e-06  2.3889063333673109e-06 
 2.4528762402633875e-06  2.5185871659889764e-06  2.5860879814975489e-06  2.6554290075711347e-06 
 2.7266620618323962e-06  2.7998405074779684e-06  2.8750193038051063e-06  2.9522550586071739e-06 
 3.0316060825170426e-06  3.1131324453812527e-06  3.1968960347517541e-06  3.2829606165862167e-06 
 3.3713918982523134e-06  3.4622575939359541e-06  3.5556274925584087e-06  3.6515735283122756e-06 
 3.7501698539317637e-06  3.8514929168183664e-06  3.9556215381490751e-06  4.0626369951005228e-06 
 4.1726231063292047e-06  4.2856663208548732e-06  4.4018558105016499e-06  4.5212835660592187e-06 
 4.6440444973346753e-06  4.7702365372743374e-06  4.8999607503439790e-06  5.0333214453656492e-06 
 5.1704262930194335e-06  5.3113864482293660e-06  5.4563166776640315e-06  5.6053354925944671e-06 
 5.7585652873647427e-06  5.9161324837439196e-06  6.0781676814423939e-06  6.2448058150906126e-06 
 6.4161863179939583e-06  6.5924532929944814e-06  6.7737556907878053e-06  6.9602474960623486e-06 
 7.1520879218478421e-06  7.3494416124811673e-06  7.5524788556197106e-06  7.7613758037560094e-06 
 7.9763147057124187e-06  8.1974841486208230e-06  8.4250793109204831e-06  8.6593022269366156e-06 
 8.9003620636337650e-06  9.1484754101712244e-06  9.4038665809230391e-06  9.6667679326624861e-06 
 9.9374201966505831e-06  1.0216072826410108e-05  1.0502984362011435e-05  1.0798422811743515e-05 
 1.1102666052093771e-05  1.1416002247013880e-05  1.1738730287505092e-05  1.2071160252616715e-05 
 1.2413613893015418e-05  1.2766425138350640e-05  1.3129940629713653e-05  1.3504520278564317e-05 
 1.3890537853581044e-05  1.4288381596976126e-05  1.4698454871910614e-05  1.5121176842741027e-05 
 1.5556983189934267e-05  1.6006326861598225e-05  1.6469678863693600e-05  1.6947529091118071e-05 
 1.7440387201988255e-05  1.7948783537586973e-05  1.8473270090595838e-05  1.9014421524394790e-05 
 1.9572836246383011e-05  2.0149137538459534e-05  2.0743974747998338e-05  2.1358024542861675e-05 
 2.1991992234219111e-05  2.2646613171177715e-05  2.3322654211483300e-05  2.4020915272824183e-05 
 2.4742230969558622e-05  2.5487472339997036e-05  2.6257548669700588e-05  2.7053409416611395e-05 
 2.7876046244207176e-05  2.8726495169276864e-05  2.9605838831346047e-05  3.0515208891241718e-05 
 3.1455788566780779e-05  3.2428815314094533e-05  3.3435583663667135e-05  3.4477448220771190e-05 
 3.5555826840631655e-05  3.6672203989343230e-05  3.7828134302309688e-05  3.9025246352769598e-05 
 4.0265246643826417e-05  4.1549923838314793e-05  4.2881153241815740e-05  4.4260901555183447e-05 
 4.5691231914074004e-05  4.7174309234174894e-05  4.8712405882130596e-05  5.0307907693551206e-05 
 5.1963320360984482e-05  5.3681276216333785e-05  5.5464541433925834e-05  5.7316023682279497e-05 
 5.9238780254611522e-05  6.1236026710245880e-05  6.3311146061384332e-05  6.5467698542155016e-05 
 6.7709431999501016e-05  7.0040292948311808e-05  7.2464438336256143e-05  7.4986248067058543e-05 
 7.7610338334493719e-05  8.0341575823170039e-05  8.3185092836258467e-05  8.6146303414715727e-05 
 8.9230920517277350e-05  9.2444974335579148e-05  9.5794831824238435e-05  9.9287217531609533e-05 
 1.0292923582326447e-04  1.0672839459706551e-04  1.1069263059603149e-04  1.1483033643309576e-04 
 1.1915038945035099e-04  1.2366218254452138e-04  1.2837565710024722e-04  1.3330133818336199e-04 
 1.3845037215774335e-04  1.4383456690159524e-04  1.4946643481222302e-04  1.5535923880257999e-04 
 1.6152704150815646e-04  1.6798475793924097e-04  1.7474821183128826e-04  1.8183419596517415e-04 
 1.8926053674960598e-04  1.9704616337998541e-04  2.0521118191171262e-04  2.1377695461138549e-04 
 2.2276618497672114e-04  2.3220300884543881e-04  2.4211309204494363e-04  2.5252373506858732e-04 
 2.6346398530072271e-04  2.7496475735187934e-04  2.8705896210735931e-04  2.9978164513756836e-04 
 3.1317013516666463e-04  3.2726420334784444e-04  3.4210623414900846e-04  3.5774140871190109e-04 
 3.7421790161134796e-04  3.9158709200917024e-04  4.0990379027003093e-04  4.2922648118410493e-04 
 4.4961758502441197e-04  4.7114373775515220e-04  4.9387609180179097e-04  5.1789063889426065e-04 
 5.4326855660178849e-04  5.7009658029188255e-04  5.9846740236720074e-04  6.2848010076273838e-04 
 6.6024059882228265e-04  6.9386215881768541e-04  7.2946591152744044e-04  7.6718142445249781e-04 
 8.0714731141732360e-04  8.4951188648289876e-04  8.9443386528551948e-04  9.4208311711052389e-04 
 9.9264147121286457e-04  1.0463035811057253e-03  1.1032778507528305e-03  1.1637874268176493e-03 
 1.2280712613407002e-03  1.2963852494309975e-03  1.3690034467646942e-03  1.4462193718771336e-03 
 1.5283473984063470e-03  1.6157242425871997e-03  1.7087105513946168e-03  1.8076925967782295e-03 
 1.9130840814037351e-03  2.0253280612005046e-03  2.1448989897908900e-03  2.2723048895232035e-03 
 2.4080896533260039e-03  2.5528354809250440e-03  2.7071654520974026e-03  2.8717462385650754e-03 
 3.0472909548446762e-03  3.2345621468712776e-03  3.4343749155153020e-03  3.6476001702379639e-03 
 3.8751680061258208e-03  4.1180711954690646e-03  4.3773687829803355e-03  4.6541897717877747e-03 
 4.9497368855888433e-03  5.2652903909400049e-03  5.6022119626993831e-03  5.9619485752357027e-03 
 6.3460364022280514e-03  6.7561047087011999e-03  7.1938797202653806e-03  7.6611884561265629e-03 
 8.1599625139324033e-03  8.6922417954247433e-03  9.2601781616217359e-03  9.8660390043328432e-03 
 1.0512210716890170e-02  1.1201202041074240e-02  1.1935647259784255e-02  1.2718309196965195e-02 
 1.3552081978884504e-02  1.4439993505326827e-02  1.5385207576645025e-02  1.6391025623282585e-02 
 1.7460887987991683e-02  1.8598374716278520e-02  1.9807205815563243e-02  2.1091240945391471e-02 
 2.2454478496488375e-02  2.3901054001965235e-02  2.5435237796320037e-02  2.7061431795003314e-02 
 2.8784165209909229e-02  3.0608088949256897e-02  3.2537968384825186e-02  3.4578674122174080e-02 
 3.6735170400667427e-02  3.9012500798442706e-02  4.1415771032664868e-02  4.3950128821727198e-02 
 4.6620740990042105e-02  4.9432768210675264e-02  5.2391337955795834e-02  5.5501516327760139e-02 
 5.8768279489135933e-02  6.2196485574953352e-02  6.5790847015245887e-02  6.9555901741282358e-02 
 7.3495990443260203e-02  7.7615231688152181e-02  8.1917499031885332e-02  8.6406399491335703e-02 
 9.1085253194098117e-02  9.5957074150002833e-02  1.0102455211834656e-01  1.0629003557834049e-01 
 1.1175551583880891e-01  1.1742261234116988e-01  1.2329255921462823e-01  1.2936619313414077e-01 
 1.3564394251159548e-01  1.4212581802129295e-01  1.4881140442519325e-01  1.5569985362451963e-01 
 1.6278987882507126e-01  1.7007974966657535e-01  1.7756728813388484e-01  1.8524986504172003e-01 
 1.9312439686657573e-01  2.0118734269060687e-01  2.0943470102370298e-01  2.1786200628212002e-01 
 2.2646432472516728e-01  2.3523624968537393e-01  2.4417189597172836e-01  2.5326489337905306e-01 
 2.6250837929803988e-01  2.7189499048823995e-01  2.8141685414841905e-01  2.9106557849286874e-01 
 3.0083224311606249e-01  3.1070738949879662e-01  3.2068101207373745e-01  3.3074255032678584e-01 
 3.4088088245651582e-01  3.5108432114289234e-01  3.6134061199812484e-01  3.7163693527715458e-01 
 3.8195991140521068e-01  3.9229561084599862e-01  4.0262956878363593e-01  4.1294680502203185e-01 
 4.2323184942039754e-01  4.3346877308468484e-01  4.4364122542442364e-01  4.5373247706566427e-01 
 4.6372546848690793e-01  4.7360286411966473e-01  4.8334711153244103e-01  4.9294050520036392e-01 
 5.0236525425588008e-01  5.1160355352247078e-01  5.2063765705607634e-01  5.2944995336028933e-01 
 5.3802304140318558e-01  5.4633980654695846e-01  5.5438349550663191e-01  5.6213778948060800e-01 
 5.6958687464247115e-01  5.7671550924845005e-01  5.8350908669577661e-01  5.8995369396091335e-01 
 5.9603616494992540e-01  6.0174412840260938e-01  6.0706605010372749e-01  6.1199126926526926e-01 
 6.1651002904970043e-01  6.2061350130262971e-01  6.2429380565158299e-01  6.2754402320353486e-01 
 6.3035820513597507e-01  6.3273137652360234e-01  6.3465953577501477e-01  6.3613965007121809e-01 
 6.3716964720131752e-01  6.3774840418169920e-01  6.3787573302527889e-01  6.3755236399902659e-01 
 6.3677992667338834e-01  6.3556092902888450e-01  6.3389873484538639e-01  6.3179753956325035e-01 
 6.2926234476684684e-01  6.2629893141116200e-01  6.2291383189380156e-01  6.1911430105314891e-01 
 6.1490828616570381e-01  6.1030439601484243e-01  6.0531186910828538e-01  5.9994054113232465e-01 
 5.9420081174575978e-01  5.8810361083374363e-01  5.8166036435959734e-01  5.7488295996924499e-01 
 5.6778371251672077e-01  5.6037532968890902e-01  5.5267087791062042e-01  5.4468374870954328e-01 
 5.3642762571491931e-01  5.2791645244509888e-01  5.1916440101778549e-01  5.1018584189376770e-01 
 5.0099531473209513e-01  4.9160750040105444e-01  4.8203719415404600e-01  4.7229927941142019e-01 
 4.6240870471521334e-01  4.5238045851523478e-01  4.4222954688828325e-01  4.3197097141970625e-01 
 4.2161970759506795e-01  4.1119068350835447e-01  4.0069875868582866e-01  3.9015870282404541e-01 
 3.7958517424749610e-01  3.6899269790608646e-01  3.5839564275496111e-01  3.4780819838859472e-01 
 3.3724435083684962e-01  3.2671785747180560e-01  3.1624222101937427e-01  3.0583066271751208e-01 
 2.9549609471163235e-01  2.8525109182585628e-01  2.7510786289431910e-01  2.6507822187818331e-01 
 2.5517355902983618e-01  2.4540481239466888e-01  2.3578243996188480e-01  2.2631639278833024e-01 
 2.1701608942308717e-01  2.0789039195560394e-01  1.9894758399684501e-01  1.9019535088207187e-01 
 1.8164076235629248e-01  1.7329025797032407e-01  1.6514963537799346e-01  1.5722404168452009e-01 
 1.4951796795391378e-01  1.4203524694036140e-01  1.3477905406626817e-01  1.2775191162875521e-01 
 1.2095569617782767e-01  1.1439164897371056e-01  1.0806038939861838e-01  1.0196193116960386e-01 
 9.6095701174515685e-02  9.0460560732446460e-02  8.5054829063374512e-02  7.9876308738878368e-02 
 7.4922312876655850e-02  7.0189693835874478e-02  6.5674873167864370e-02  6.1373872577045421e-02 
 5.7282345649973920e-02  5.3395610115699314e-02  4.9708680407956625e-02  4.6216300308802083e-02 
 4.2912975463869615e-02  3.9793005571234427e-02  3.6850516058688422e-02  3.4079489077847788e-02 
 3.1473793657733479e-02  2.9027214875109900e-02  2.6733481913776572e-02  2.4586294900032706e-02 
 2.2579350416543471e-02  2.0706365611707127e-02  1.8961100836249328e-02  1.7337380753069440e-02 
 1.5829113880029517e-02  1.4430310539080731e-02  1.3135099197480017e-02  1.1937741199111170e-02 
 1.0832643895285632e-02  9.8143721950256450e-03  8.8776585646739310e-03  8.0174115156939497e-03 
 7.2287226276992970e-03  6.5068721610630001e-03  5.8473333198998797e-03  5.2457752317842084e-03 
 4.6980647152675284e-03  4.2002669101086814e-03  3.7486448481390505e-03  3.3396580448849284e-03 
 2.9699601934863318e-03  2.6363960431237013e-03  2.3359975441331628e-03  2.0659793412652078e-03 
 1.8237336952969545e-03  1.6068249112703072e-03  1.4129833492762653e-03  1.2400990908647464e-03 
 1.0862153309227601e-03  9.4952156128556169e-04  8.2834660848175032e-04  7.2115158392127359e-04 
 6.2652280054329075e-04  5.4316470559342229e-04  4.6989287468599195e-04  4.0562710783669187e-04 
 3.4938466367631708e-04  3.0027366364528368e-04  2.5748669365794138e-04  2.2029462654933057e-04 
 1.8804068460645008e-04  1.6013475765104952e-04  1.3604798856222528e-04  1.1530763472004910e-04 
 9.7492210733978344e-05  8.2226914942556256e-05  6.9179339557760825e-05  5.8055461980277159e-05 
 4.8595912730317268e-05  4.0572513619067372e-05  3.3785078222261191e-05  2.8058465401143342e-05 
 2.3239875536391213e-05  1.9196378284753681e-05  1.5812660022056666e-05  1.2988978684434629e-05 
 1.0639313445906140e-05  8.6896965578727295e-06  7.0767147076471844e-06  5.7461674115240709e-06 
 4.6518702261754896e-06  3.7545909252168578e-06  3.0211072247044101e-06  2.4233751461732993e-06 
 1.9377976555300719e-06  1.5445838015302009e-06  1.2271893093465823e-06  9.7183079147525277e-07 
 7.6706143777201422e-07  6.0340812575786172e-07  4.7305814758312615e-07  3.6959056618697231e-07 
 2.8774683942263454e-07  2.2323571678890738e-07  1.7256792404393552e-07  1.3291662944648597e-07 
 1.0200013039473041e-07  7.7983610284776811e-08  5.9397192553719401e-08  4.5067862671045328e-08 
 3.4063140282012245e-08  2.5644664108206773e-08  1.9230103156364106e-08  1.4362031051149805e-08 
 1.0682597795040220e-08  7.9130069471528667e-09  5.8369581078937849e-09  4.2873466886521882e-09 
 3.1356271790649274e-09  2.2833443679083790e-09  1.6554210019128818e-09  1.1948618444188614e-09 
 8.5859456789018022e-10  6.1421880104315034e-10  4.3747724665312428e-10  3.1029825975303319e-10 
 2.1928867886384537e-10  1.5457997537608836e-10  0.0000000000000000e+00  0.0000000000000000e+00 
 0.0000000000000000e+00  0.0000000000000000e+00  0.0000000000000000e+00  0.0000000000000000e+00 
 0.0000000000000000e+00  0.0000000000000000e+00  0.0000000000000000e+00  0.0000000000000000e+00 
 0.0000000000000000e+00  0.0000000000000000e+00  0.0000000000000000e+00  0.0000000000000000e+00 
 0.0000000000000000e+00  0.0000000000000000e+00  0.0000000000000000e+00  0.0000000000000000e+00 
 0.0000000000000000e+00  0.0000000000000000e+00  0.0000000000000000e+00  0.0000000000000000e+00 
 0.0000000000000000e+00  0.0000000000000000e+00  0.0000000000000000e+00  0.0000000000000000e+00 
 0.0000000000000000e+00  0.0000000000000000e+00  0.0000000000000000e+00  0.0000000000000000e+00 
 0.0000000000000000e+00  0.0000000000000000e+00  0.0000000000000000e+00  0.0000000000000000e+00 
 0.0000000000000000e+00  0.0000000000000000e+00  0.0000000000000000e+00  0.0000000000000000e+00 
 0.0000000000000000e+00  0.0000000000000000e+00  0.0000000000000000e+00  0.0000000000000000e+00 
 0.0000000000000000e+00  0.0000000000000000e+00  0.0000000000000000e+00  0.0000000000000000e+00 
 0.0000000000000000e+00  0.0000000000000000e+00  0.0000000000000000e+00  0.0000000000000000e+00 
 0.0000000000000000e+00  0.0000000000000000e+00  0.0000000000000000e+00  0.0000000000000000e+00 
 0.0000000000000000e+00  0.0000000000000000e+00  0.0000000000000000e+00  0.0000000000000000e+00 
 0.0000000000000000e+00  0.0000000000000000e+00  0.0000000000000000e+00  0.0000000000000000e+00 
 0.0000000000000000e+00  0.0000000000000000e+00  0.0000000000000000e+00  0.0000000000000000e+00 
 0.0000000000000000e+00  0.0000000000000000e+00  0.0000000000000000e+00  0.0000000000000000e+00 
 0.0000000000000000e+00  0.0000000000000000e+00  0.0000000000000000e+00  0.0000000000000000e+00 
 0.0000000000000000e+00  0.0000000000000000e+00  0.0000000000000000e+00  0.0000000000000000e+00 
 0.0000000000000000e+00  0.0000000000000000e+00  0.0000000000000000e+00  0.0000000000000000e+00 
 0.0000000000000000e+00  0.0000000000000000e+00  0.0000000000000000e+00  0.0000000000000000e+00 
 0.0000000000000000e+00  0.0000000000000000e+00  0.0000000000000000e+00  0.0000000000000000e+00 
 0.0000000000000000e+00  0.0000000000000000e+00  0.0000000000000000e+00  0.0000000000000000e+00 
 0.0000000000000000e+00  0.0000000000000000e+00  0.0000000000000000e+00  0.0000000000000000e+00 
 0.0000000000000000e+00  0.0000000000000000e+00  0.0000000000000000e+00  0.0000000000000000e+00 
 0.0000000000000000e+00 
D    2   3.80          Wavefunction
 8.8301638666548787e-15  9.1813437553184272e-15  9.5464902381132958e-15  9.9261587732480817e-15 
 1.0320926909773331e-14  1.0731395166145031e-14  1.1158187943729007e-14  1.1601954476635815e-14 
 1.2063369819331027e-14  1.2543135873523281e-14  1.3041982455892136e-14  1.3560668408280019e-14 
 1.4099982752036999e-14  1.4660745888274456e-14  1.5243810845853394e-14  1.5850064579005872e-14 
 1.6480429316563452e-14  1.7135863964845127e-14  1.7817365566338811e-14  1.8525970816395225e-14 
 1.9262757640241534e-14  2.0028846832713503e-14  2.0825403763200632e-14  2.1653640148397805e-14 
 2.2514815895560071e-14  2.3410241019064647e-14  2.4341277633195473e-14  2.5309342024181752e-14 
 2.6315906804642563e-14  2.7362503153714691e-14  2.8450723146271470e-14  2.9582222174775796e-14 
 3.0758721467451428e-14  3.1982010706603101e-14  3.3253950751068655e-14  3.4576476466944270e-14 
 3.5951599670889095e-14  3.7381412190486494e-14  3.8868089046317456e-14  4.0413891760586434e-14 
 4.2021171797333010e-14  4.3692374139462350e-14  4.5430041008036001e-14  4.7236815729480589e-14 
 4.9115446756597355e-14  5.1068791849489227e-14  5.3099822422765342e-14  5.5211628065636032e-14 
 5.7407421241774239e-14  5.9690542176092623e-14  6.2064463935870310e-14  6.4532797713958372e-14 
 6.7099298322101134e-14  6.9767869902729469e-14  7.2542571867914900e-14  7.5427625074518772e-14 
 7.8427418244930353e-14  8.1546514643160467e-14  8.4789659016446957e-14  8.8161784812931053e-14 
 9.1668021686384300e-14  9.5313703299402055e-14  9.9104375436934054e-14  1.0304580444249381e-13 
 1.0714398598988032e-13  1.1140515420375539e-13  1.1583579114295103e-13  1.2044263666093220e-13 
 1.2523269865841542e-13  1.3021326374373883e-13  1.3539190831720057e-13  1.4077651009622656e-13 
 1.4637526009890001e-13  1.5219667510408170e-13  1.5824961060707559e-13  1.6454327429054739e-13 
 1.7108724003118833e-13  1.7789146246343075e-13  1.8496629212237018e-13  1.9232249118892829e-13 
 1.9997124986120962e-13  2.0792420337695408e-13  2.1619344971298219e-13  2.2479156798855482e-13 
 2.3373163760064451e-13  2.4302725812022538e-13  2.5269256997984872e-13  2.6274227598397380e-13 
 2.7319166367477496e-13  2.8405662858744811e-13  2.9535369843039183e-13  3.0710005822704780e-13 
 3.1931357645764231e-13  3.3201283224060072e-13  3.4521714359497763e-13  3.5894659682689989e-13 
 3.7322207708472242e-13  3.8806530012937763e-13  4.0349884536824794e-13  4.1954619020281203e-13 
 4.3623174574231363e-13  4.5358089393778144e-13  4.7162002619288701e-13  4.9037658351037717e-13 
 5.0987909823514809e-13  5.3015723745746478e-13  5.5124184814234666e-13  5.7316500405377309e-13 
 5.9596005454508640e-13  6.1966167528981630e-13  6.4430592103009264e-13  6.6993028042289079e-13 
 6.9657373306753922e-13  7.2427680880124038e-13  7.5308164935280488e-13  7.8303207244838503e-13 
 8.1417363846672749e-13  8.4655371974533868e-13  8.8022157264299152e-13  9.1522841246819578e-13 
 9.5162749138761198e-13  9.8947417943292231e-13  1.0288260487293861e-12  1.0697429610742110e-12 
 1.1122871589979577e-12  1.1565233604475071e-12  1.2025188572346149e-12  1.2503436173998189e-12 
 1.3000703916474108e-12  1.3517748240133833e-12  1.4055355669346976e-12  1.4614344008949162e-12 
 1.5195563588282084e-12  1.5799898554709640e-12  1.6428268218577890e-12  1.7081628451664827e-12 
 1.7760973141247184e-12  1.8467335701996259e-12  1.9201790648002668e-12  1.9965455227321319e-12 
 2.0759491121523125e-12  2.1585106212838816e-12  2.2443556421582986e-12  2.3336147616653490e-12 
 2.4264237602012427e-12  2.5229238182170537e-12  2.6232617309817050e-12  2.7275901318861952e-12 
 2.8360677246287493e-12  2.9488595246341060e-12  3.0661371100741843e-12  3.1880788828719698e-12 
 3.3148703400856812e-12  3.4467043560860237e-12  3.5837814759558047e-12  3.7263102205581950e-12 
 3.8745074037377387e-12  4.0285984621366281e-12  4.1888177981279431e-12  4.3554091363875518e-12 
 4.5286258946470739e-12  4.7087315691918968e-12  4.8960001356906739e-12  5.0907164659660410e-12 
 5.2931767613405392e-12  5.5036890032169601e-12  5.7225734215785337e-12  5.9501629821216437e-12 
 6.1868038927620873e-12  6.4328561302853956e-12  6.6886939879423487e-12  6.9547066448226875e-12 
 7.2312987578731598e-12  7.5188910774604801e-12  7.8179210874155881e-12  8.1288436705328814e-12 
 8.4521318005367337e-12  8.7882772615679547e-12  9.1377913962846763e-12  9.5012058837156662e-12 
 9.8790735480493569e-12  1.0271969199588925e-11  1.0680490509152682e-11  1.1105258917249904e-11 
 1.1546920579415217e-11  1.2006147349139485e-11  1.2483637799892521e-11  1.2980118287792320e-11 
 1.3496344056537300e-11  1.4033100386282483e-11  1.4591203788207211e-11  1.5171503246591636e-11 
 1.5774881510291414e-11  1.6402256435575255e-11  1.7054582382368019e-11  1.7732851666023357e-11 
 1.8438096066834425e-11  1.9171388399578781e-11  1.9933844145485316e-11  2.0726623149105601e-11 
 2.1550931382671068e-11  2.2408022780619891e-11  2.3299201147084462e-11  2.4225822139240927e-11 
 2.5189295329538125e-11  2.6191086349942828e-11  2.7232719121463297e-11  2.8315778172342688e-11 
 2.9441911048448849e-11  3.0612830819527114e-11  3.1830318685128819e-11  3.3096226684179683e-11 
 3.4412480512309877e-11  3.5781082451231621e-11  3.7204114414620516e-11  3.8683741115134161e-11 
 4.0222213357385771e-11  4.1821871461882091e-11  4.3485148825134323e-11  4.5214575621357806e-11 
 4.7012782651391418e-11  4.8882505344692089e-11  5.0826587920492151e-11  5.2847987714449749e-11 
 5.4949779677374045e-11  5.7135161052869101e-11  5.9407456241011941e-11  6.1770121855463762e-11 
 6.4226751981707321e-11  6.6781083644409743e-11  6.9437002492227559e-11  7.2198548708702198e-11 
 7.5069923158237926e-11  7.8055493776511382e-11  8.1159802215034695e-11  8.4387570749979431e-11 
 8.7743709465772208e-11  9.1233323724389246e-11  9.4861721931713289e-11  9.8634423612766738e-11 
 1.0255716780810594e-10  1.0663592180414930e-10  1.1087689021072076e-10  1.1528652439961720e-10 
 1.1987153231855886e-10  1.2463888869545179e-10  1.2959584564848600e-10  1.3474994371820970e-10 
 1.4010902333836253e-10  1.4568123676291759e-10  1.5147506046747665e-10  1.5749930804388393e-10 
 1.6376314360767544e-10  1.7027609573875876e-10  1.7704807197653239e-10  1.8408937389149404e-10 
 1.9141071275626762e-10  1.9902322583988752e-10  2.0693849335012915e-10  2.1516855604965993e-10 
 2.2372593357280981e-10  2.3262364347082749e-10  2.4187522101459451e-10  2.5149473978492590e-10 
 2.6149683308177958e-10  2.7189671618494730e-10  2.8271020950009226e-10  2.9395376262534745e-10 
 3.0564447937508944e-10  3.1780014379895764e-10  3.3043924723570593e-10  3.4358101644304547e-10 
 3.5724544284627698e-10  3.7145331295021240e-10  3.8622623996065642e-10  4.0158669666355778e-10 
 4.1755804961185610e-10  4.3416459467203682e-10  4.5143159398447753e-10  4.6938531439382094e-10 
 4.8805306740784076e-10  5.0746325074559923e-10  5.2764539153810541e-10  5.4863019124720144e-10 
 5.7044957237101363e-10  5.9313672700702417e-10  6.1672616734664282e-10  6.4125377817809408e-10 
 6.6675687147749336e-10  6.9327424317115414e-10  7.2084623215547552e-10  7.4951478166403389e-10 
 7.7932350307415484e-10  8.1031774225175676e-10  8.4254464853560173e-10  8.7605324646533098e-10 
 9.1089451036236205e-10  9.4712144187712131e-10  9.8478915062060012e-10  1.0239549380029123e-09 
 1.0646783844064206e-09  1.1070214398260615e-09  1.1510485181147800e-09  1.1968265949774762e-09 
 1.2444253098625606e-09  1.2939170719061529e-09  1.3453771700901273e-09  1.3988838877816145e-09 
 1.4545186218282378e-09  1.5123660063903083e-09  1.5725140416983918e-09  1.6350542279321637e-09 
 1.7000817044242846e-09  1.7676953944010862e-09  1.8379981554803337e-09  1.9110969361550575e-09 
 1.9871029385015753e-09  2.0661317873592934e-09  2.1483037062397311e-09  2.2337437002324404e-09 
 2.3225817461861599e-09  2.4149529904546107e-09  2.5109979545078435e-09  2.6108627487220381e-09 
 2.7146992946730866e-09  2.8226655562722595e-09  2.9349257800956793e-09  3.0516507452733598e-09 
 3.1730180233180921e-09  3.2992122482895933e-09  3.4304253977050998e-09  3.5668570846238905e-09 
 3.7087148613502928e-09  3.8562145352173565e-09  4.0095804969318451e-09  4.1690460619802328e-09 
 4.3348538256153551e-09  4.5072560319639885e-09  4.6865149578171596e-09  4.8729033116873497e-09 
 5.0667046487399485e-09  5.2682138022305834e-09  5.4777373321049675e-09  5.6955939914441547e-09 
 5.9221152114651786e-09  6.1576456058153485e-09  6.4025434949278811e-09  6.6571814512370126e-09 
 6.9219468660826554e-09  7.1972425391674961e-09  7.4834872914639789e-09  7.7811166025041961e-09 
 8.0905832730229194e-09  8.4123581139625981e-09  8.7469306628893011e-09  9.0948099289103681e-09 
 9.4565251672279073e-09  9.8326266845074907e-09  1.0223686676288248e-08  1.0630300097709503e-08 
 1.1053085568879744e-08  1.1492686316266568e-08  1.1949771151541125e-08  1.2425035489367624e-08 
 1.2919202405687881e-08  1.3433023738112462e-08  1.3967281230094408e-08  1.4522787720627910e-08 
 1.5100388381284027e-08  1.5700962002467431e-08  1.6325422330853410e-08  1.6974719460042183e-08 
 1.7649841276548894e-08  1.8351814963331886e-08  1.9081708563149618e-08  1.9840632604127910e-08 
 2.0629741790013892e-08  2.1450236757691816e-08  2.2303365904638455e-08  2.3190427289102448e-08 
 2.4112770605902806e-08  2.5071799240857415e-08  2.6068972406971936e-08  2.7105807365644522e-08 
 2.8183881736271502e-08  2.9304835897773814e-08  3.0470375485704459e-08  3.1682273988743117e-08 
 3.2942375448535638e-08  3.4252597266993913e-08  3.5614933125335796e-08  3.7031456019315067e-08 
 3.8504321415269011e-08  4.0035770531795952e-08  4.1628133752066108e-08  4.3283834171969578e-08 
 4.5005391289512202e-08  4.6795424841085922e-08  4.8656658790464746e-08  5.0591925476610682e-08 
 5.2604169926616626e-08  5.4696454340365825e-08  5.6871962753749794e-08  5.9134005887559441e-08 
 6.1486026189448236e-08  6.3931603076661414e-08  6.6474458387532116e-08  6.9118462050064960e-08 
 7.1867637976259098e-08  7.4726170191168876e-08  7.7698409206058618e-08  8.0788878645382597e-08 
 8.4002282137708569e-08  8.7343510481108335e-08  9.0817649093958596e-08  9.4429985762532310e-08 
 9.8186018697216048e-08  1.0209146490966021e-07  1.0615226892366270e-07  1.1037461183309617e-07 
 1.1476492072072237e-07  1.1932987845228929e-07  1.2407643386088333e-07  1.2901181233710595e-07 
 1.3414352684126866e-07  1.3947938935444563e-07  1.4502752278589864e-07  1.5079637335508825e-07 
 1.5679472346721450e-07  1.6303170510198921e-07  1.6951681373612791e-07  1.7625992282087228e-07 
 1.8327129883670597e-07  1.9056161694831349e-07  1.9814197728375617e-07  2.0602392186279813e-07 
 2.1421945220031579e-07  2.2274104761176079e-07  2.3160168424873157e-07  2.4081485489382773e-07 
 2.5039458954513620e-07  2.6035547682191179e-07  2.7071268622428302e-07  2.8148199128112904e-07 
 2.9267979362164657e-07  3.0432314800754754e-07  3.1642978836431486e-07  3.2901815485148627e-07 
 3.4210742201353818e-07  3.5571752805461641e-07  3.6986920528209637e-07  3.8458401176576258e-07 
 3.9988436426128172e-07  4.1579357244859826e-07  4.3233587453791953e-07  4.4953647429807789e-07 
 4.6742157956426280e-07  4.8601844228440811e-07  5.0535540016591137e-07  5.2546191998684751e-07 
 5.4636864263842074e-07  5.6810742996809647e-07  5.9071141349565098e-07  6.1421504507729454e-07 
 6.3865414959605479e-07  6.6406597975976967e-07  6.9048927309131655e-07  7.1796431119913562e-07 
 7.4653298141965619e-07  7.7623884092694515e-07  8.0712718340875354e-07  8.3924510841214875e-07 
 8.7264159346610542e-07  9.0736756909276861e-07  9.4347599682364722e-07  9.8102195034169268e-07 
 1.0200626998751395e-06  1.0606577999740908e-06  1.1028691808061508e-06  1.1467612431129473e-06 
 1.1924009569751557e-06  1.2398579645396425e-06  1.2892046868685947e-06  1.3405164350770253e-06 
 1.3938715259318113e-06  1.4493514020924991e-06  1.5070407571814508e-06  1.5670276658785791e-06 
 1.6294037192438939e-06  1.6942641654793761e-06  1.7617080563503853e-06  1.8318383994957771e-06 
 1.9047623168653531e-06  1.9805912095329903e-06  2.0594409291440433e-06  2.1414319562661969e-06 
 2.2266895859240287e-06  2.3153441206090621e-06  2.4075310710691043e-06  2.5033913651931874e-06 
 2.6030715653214606e-06  2.7067240943230065e-06  2.8145074707986717e-06  2.9265865537808406e-06 
 3.0431327973173989e-06  3.1643245153432428e-06  3.2903471572593737e-06  3.4213935946570894e-06 
 3.5576644196429239e-06  3.6993682552389893e-06  3.8467220783531202e-06  3.9999515558338171e-06 
 4.1592913941465003e-06  4.3249857032300139e-06  4.4972883751156835e-06  4.6764634779156193e-06 
 4.8627856658124167e-06  5.0565406057089568e-06  5.2580254212246341e-06  5.4675491547533765e-06 
 5.6854332483287853e-06  5.9120120440733484e-06  6.1476333050414396e-06  6.3926587573001089e-06 
 6.6474646541274245e-06  6.9124423632455190e-06  7.1879989780444336e-06  7.4745579537935918e-06 
 7.7725597698802620e-06  8.0824626191586808e-06  8.4047431255399816e-06  8.7398970910013990e-06 
 9.0884402732438709e-06  9.4509091952799740e-06  9.8278619882893229e-06  1.0219879269136324e-05 
 1.0627565054005337e-05  1.1051547709671489e-05  1.1492480943991019e-05  1.1951044837264116e-05 
 1.2427946916194940e-05  1.2923923272249032e-05  1.3439739726286740e-05  1.3976193041433854e-05 
 1.4534112186236531e-05  1.5114359650237642e-05  1.5717832814206133e-05  1.6345465377349138e-05 
 1.6998228843940117e-05  1.7677134071904027e-05  1.8383232886013574e-05  1.9117619758468924e-05 
 1.9881433559757040e-05  2.0675859382816541e-05  2.1502130443669662e-05  2.2361530061825387e-05 
 2.3255393723906519e-05  2.4185111234109773e-05  2.5152128955271482e-05  2.6157952144482917e-05 
 2.7204147387378878e-05  2.8292345135411586e-05  2.9424242350619321e-05  3.0601605262606216e-05 
 3.1826272242667066e-05  3.3100156800218139e-05  3.4425250706934606e-05  3.5803627254245190e-05 
 3.7237444650098116e-05  3.8728949561188257e-05  4.0280480807124983e-05  4.1894473213324797e-05 
 4.3573461629731516e-05  4.5320085122803127e-05  4.7137091348555334e-05  4.9027341114823132e-05 
 5.0993813141289556e-05  5.3039609026239587e-05  5.5167958429426523e-05  5.7382224480888841e-05 
 5.9685909426030734e-05  6.2082660517777131e-05  6.4576276167139707e-05  6.7170712364080629e-05 
 6.9870089381142346e-05  7.2678698772920858e-05  7.5601010685103488e-05  7.8641681487467255e-05 
 8.1805561745945692e-05  8.5097704549621459e-05  8.8523374209290134e-05  9.2088055345071547e-05 
 9.5797462381419548e-05  9.9657549468802216e-05  1.0367452085229610e-04  1.0785484170836009e-04 
 1.1220524947213238e-04  1.1673276567873113e-04  1.2144470834323597e-04  1.2634870490529047e-04 
 1.3145270576559815e-04  1.3676499844298681e-04  1.4229422238219887e-04  1.4804938444412690e-04 
 1.5403987511186169e-04  1.6027548544766005e-04  1.6676642483777441e-04  1.7352333956402433e-04 
 1.8055733224303370e-04  1.8787998217621867e-04  1.9550336665588748e-04  2.0344008327522302e-04 
 2.1170327329246056e-04  2.2030664610225652e-04  2.2926450487008201e-04  2.3859177338847031e-04 
 2.4830402421711228e-04  2.5841750817213994e-04  2.6894918523347227e-04  2.7991675694283215e-04 
 2.9133870036899390e-04  3.0323430372098916e-04  3.1562370369441904e-04  3.2852792464067268e-04 
 3.4196891965379295e-04  3.5596961367493707e-04  3.7055394871989645e-04  3.8574693134096286e-04 
 4.0157468244059874e-04  4.1806448956088012e-04  4.3524486177958015e-04  4.5314558735104580e-04 
 4.7179779423773166e-04  4.9123401368640998e-04  5.1148824701169543e-04  5.3259603575864494e-04 
 5.5459453542583902e-04  5.7752259294054640e-04  6.0142082808836586e-04  6.2633171911113884e-04 
 6.5229969269899990e-04  6.7937121861516960e-04  7.0759490920559187e-04  7.3702162405976928e-04 
 7.6770458010421783e-04  7.9969946742589461e-04  8.3306457113978716e-04  8.6786089963263621e-04 
 9.0415231953357243e-04  9.4200569778229385e-04  9.8149105118638621e-04  1.0226817038815450e-03 
 1.0656544531318247e-03  1.1104897439317457e-03  1.1572718528981125e-03  1.2060890819668986e-03 
 1.2570339624395222e-03  1.3102034699533937e-03  1.3656992509838469e-03  1.4236278615184575e-03 
 1.4841010185805360e-03  1.5472358653161784e-03  1.6131552503988544e-03  1.6819880225471511e-03 
 1.7538693409950646e-03  1.8289410028001871e-03  1.9073517879234540e-03  1.9892578230647213e-03 
 2.0748229652915880e-03  2.1642192065544907e-03  2.2576271002393571e-03  2.3552362109700020e-03 
 2.4572455889361063e-03  2.5638642700890487e-03  2.6753118036171191e-03  2.7918188081837471e-03 
 2.9136275584874419e-03  3.0409926037799407e-03  3.1741814200599056e-03  3.3134750977430365e-03 
 3.4591690666958609e-03  3.6115738606094881e-03  3.7710159227811852e-03  3.9378384554656296e-03 
 4.1124023150538678e-03  4.2950869554360376e-03  4.4862914220037270e-03  4.6864353988486764e-03 
 4.8959603118164437e-03  5.1153304901755559e-03  5.3450343897645585e-03  5.5855858805799723e-03 
 5.8375256018671608e-03  6.1014223878721446e-03  6.3778747675048335e-03  6.6675125412512960e-03 
 6.9709984387536931e-03  7.2890298605494076e-03  7.6223407075242423e-03  7.9717033016862022e-03 
 8.3379304019043608e-03  8.7218773182790379e-03  9.1244441288123902e-03  9.5465780020296178e-03 
 9.9892756291569337e-03  1.0453585769389746e-02  1.0940611911679186e-02  1.1451515056322746e-02 
 1.1987516619460931e-02  1.2549901463351052e-02  1.3140021055006303e-02  1.3759296755446883e-02 
 1.4409223241404177e-02  1.5091372060840973e-02  1.5807395323094678e-02  1.6559029523806820e-02 
 1.7348099504064306e-02  1.8176522542335705e-02  1.9046312576831793e-02  1.9959584554842789e-02 
 2.0918558904396849e-02  2.1925566122234653e-02  2.2983051470593895e-02  2.4093579773635358e-02 
 2.5259840302508618e-02  2.6484651736041927e-02  2.7770967181837875e-02  2.9121879240156537e-02 
 3.0540625090363750e-02  3.2030591576909039e-02  3.3595320268771468e-02  3.5238512463070498e-02 
 3.6964034100085467e-02  3.8775920553264114e-02  4.0678381253936427e-02  4.2675804106397944e-02 
 4.4772759644801347e-02  4.6974004878921095e-02  4.9284486771359728e-02  5.1709345284179926e-02 
 5.4253915928316084e-02  5.6923731744488754e-02  5.9724524639769169e-02  6.2662225999481722e-02 
 6.5742966489852783e-02  6.8973074962788136e-02  7.2359076370459963e-02  7.5907688594080716e-02 
 7.9625818088408629e-02  8.3520554241221595e-02  8.7599162345274040e-02  9.1869075079131224e-02 
 9.6337882392770385e-02  1.0101331969390977e-01  1.0590325423160428e-01  1.1101566957460332e-01 
 1.1635864808312506e-01  1.2194035127382033e-01  1.2776899797848632e-01  1.3385284019720073e-01 
 1.4020013654561186e-01  1.4681912319376633e-01  1.5371798218976238e-01  1.6090480705546087e-01 
 1.6838756553343104e-01  1.7617405935447977e-01  1.8427188088411586e-01  1.9268836649517762e-01 
 2.0143054650424277e-01  2.1050509150355506e-01  2.1991825492094719e-01  2.2967581165111572e-01 
 2.3978299262665484e-01  2.5024441524088603e-01  2.6106400960121806e-01  2.7224494068576122e-01 
 2.8378952660068102e-01  2.9569915329345553e-01  3.0797418626790091e-01  3.2061388006777886e-01 
 3.3361628654043446e-01  3.4697816314905355e-01  3.6069488285536050e-01  3.7476034732236391e-01 
 3.8916690536363363e-01  4.0390527866487447e-01  4.1896449680196102e-01  4.3433184346286707e-01 
 4.4999281554992715e-01  4.6593109651344877e-01  4.8212854488662937e-01  4.9856519860698145e-01 
 5.1521929537525102e-01  5.3206730906191368e-01  5.4908400204288066e-01  5.6624249331862508e-01 
 5.8351434230328902e-01  6.0086964819860789e-01  6.1827716481653372e-01  6.3570443050960734e-01 
 6.5311791244644002e-01  6.7048316379115913e-01  6.8776499140744951e-01  7.0492763056253405e-01 
 7.2193492188304886e-01  7.3875048473244909e-01  7.5533788054001183e-01  7.7166075975167825e-01 
 7.8768298727163433e-01  8.0336874361595989e-01  8.1868260230725654e-01  8.3358958777634917e-01 
 8.4805522144357137e-01  8.6204556594123904e-01  8.7552727804888986e-01  8.8846767969109453e-01 
 9.0083485403241914e-01  9.1259777347020887e-01  9.2372644942935955e-01  9.3419207379827818e-01 
 9.4396724607356552e-01  9.5302615772355626e-01  9.6134478651444633e-01  9.6890108498489513e-01 
 9.7567515526910920e-01  9.8164940554082092e-01  9.8680868480618045e-01  9.9114039407079790e-01 
 9.9463457296081348e-01  9.9728396166938227e-01  9.9908403865141904e-01  1.0000330348469804e+00 
 1.0001319254305363e+00  9.9938440020911834e-01  9.9779681386715524e-01  9.9537811730887404e-01 
 9.9213977139897302e-01  9.8809564445874742e-01  9.8326189494119098e-01  9.7765684078350146e-01 
 9.7130081701492432e-01  9.6421602327635547e-01  9.5642636297970474e-01  9.4795727589384582e-01 
 9.3883556598494067e-01  9.2908922635776725e-01  9.1874726313829247e-01  9.0783952010405899e-01 
 8.9639650580722163e-01  8.8444922484547961e-01  8.7202901482011319e-01  8.5916739038004564e-01 
 8.4589589558946876e-01  8.3224596567764597e-01  8.1824879903667058e-01  8.0393524013698170e-01 
 7.8933567340621602e-01  7.7447993041017893e-01  7.5939720623475093e-01  7.4411598910516186e-01 
 7.2866400086974847e-01  7.1306814830485588e-01  6.9735448465140637e-01  6.8154818067892964e-01 
 6.6567350448222251e-01  6.4975380914937053e-01  6.3381152739740665e-01  6.1786817225268853e-01 
 6.0194434285581111e-01  5.8605973449367077e-01  5.7023315200188029e-01  5.5448252573658074e-01 
 5.3882492938277116e-01  5.2327659894381273e-01  5.0785295234070138e-01  4.9256860913714318e-01 
 4.7743740999470624e-01  4.6247243554884127e-01  4.4768602447918227e-01  4.3308979062441955e-01 
 4.1869463906168336e-01  4.0451078113171779e-01  3.9054774844343892e-01  3.7681440593441889e-01 
 3.6331896409740938e-01  3.5006899050750134e-01  3.3707142080045466e-01  3.2433256926086573e-01 
 3.1185813918006866e-01  2.9965323313898728e-01  2.8772236336161766e-01  2.7606946227149576e-01 
 2.6469789336742322e-01  2.5361046251685881e-01  2.4280942974664244e-01  2.3229652159187708e-01 
 2.2207294404553465e-01  2.1213939613419897e-01  2.0249608412978926e-01  1.9314273639335905e-01 
 1.8407861883533475e-01  1.7530255096689931e-01  1.6681292250954202e-01  1.5860771052465611e-01 
 1.5068449702004552e-01  1.4304048698780270e-01  1.3567252682791364e-01  1.2857712310997019e-01 
 1.2175046162560166e-01  1.1518842668452584e-01  1.0888662060717294e-01  1.0284038336671358e-01 
 9.7044812332859359e-02  9.1494782068923794e-02  8.6184964132349481e-02  8.1109846827283852e-02 
 7.6263754855956600e-02  7.1640868813755143e-02  6.7235244470977479e-02  6.3040831782883583e-02 
 5.9051493569054751e-02  5.5261023802267877e-02  5.1663165447559570e-02  4.8251627793846161e-02 
 4.5020103222401305e-02  4.1962283359602878e-02  3.9071874565313490e-02  3.6342612712577223e-02 
 3.3768277219852580e-02  3.1342704303282974e-02  2.9059799421725364e-02  2.6913548893818792e-02 
 2.4898030673395060e-02  2.3007424275540450e-02  2.1236019851923315e-02  1.9578226419962690e-02 
 1.8028579255972881e-02  1.6581746467506018e-02  1.5232534764662979e-02  1.3975894454102506e-02 
 1.2806923682819394e-02  1.1720871961470536e-02  1.0713142999108293e-02  9.7792968826553913e-03 
 8.9150516353623845e-03  8.1162841888800918e-03  7.3790308035195677e-03  6.6994869708340392e-03 
 6.0740068319204837e-03  5.4991021438830518e-03  4.9714408258057863e-03  4.4878451144209483e-03 
 4.0452893584965195e-03  3.6408974798553349e-03  3.2719401279190556e-03  2.9358315537703523e-03 
 2.6301262289582261e-03  2.3525152336360856e-03  2.1008224381088986e-03  1.8730005014548257e-03 
 1.6671267105531908e-03  1.4813986825626890e-03  1.3141299536209719e-03  1.1637454762468626e-03 
 1.0287770475906151e-03  9.0785869026988617e-04  7.9972200702999909e-04  7.0319152985930209e-04 
 6.1718008346618985e-04  5.4068418217847938e-04  4.7277947835968459e-04  4.1261627935616524e-04 
 3.5941514880395736e-04  3.1246260684749500e-04  2.7110694247009157e-04  2.3475414972541937e-04 
 2.0286399820878341e-04  1.7494624663559884e-04  1.5055700692078694e-04  1.2929526469473545e-04 
 1.1079956076583002e-04  9.4744836661702511e-05  8.0839446064919339e-05  6.8822332715641265e-05 
 5.8460374193678077e-05  4.9545889923181039e-05  4.1894310770856114e-05  3.5342006737012242e-05 
 2.9744268470151880e-05  2.4973437670647658e-05  2.0917180886285009e-05  1.7476900739680766e-05 
 1.4566278260954052e-05  1.2109939724733542e-05  1.0042241201658488e-05  8.3061639263327569e-06 
 6.8523135486920852e-06  5.6380163672043245e-06  4.6265057330341829e-06  3.7861919570102646e-06 
 3.0900092387425183e-06  2.5148333625266785e-06  2.0409641609738304e-06  1.6516670281860239e-06 
 1.3327680637309173e-06  1.0722977410631644e-06  8.6017831429338536e-07  6.8795050071702814e-07 
 5.4853529920111088e-07  4.3602712281960878e-07  3.4551473497009968e-07  2.7292677902370751e-07 
 2.1489898028412665e-07  1.6866037396867708e-07  1.3193617287244877e-07  1.0286513244621693e-07 
 7.9929498688510672e-08  6.1895835293466050e-08  4.7765220942448835e-08  3.6731485736720848e-08 
 2.8146317984482126e-08  2.1490219482182303e-08  1.6348419776261534e-08  1.2390978476961398e-08 
 9.3564103879777484e-09  7.0382619290463395e-09  5.2741499941617746e-09  3.9368469374525866e-09 
 2.9270587281810252e-09  2.1675983543901334e-09  1.5987041336572108e-09  1.1742935133409682e-09 
 8.5897796897818598e-10  6.2569443811389396e-10  4.5383400328122899e-10  3.2776985060763866e-10 
 2.3570441234572630e-10  1.6877053117619953e-10  1.2033388854451465e-10  8.5454197385650070e-11 
 6.0471105610296373e-11  4.2687684611261170e-11  0.0000000000000000e+00  0.0000000000000000e+00 
 0.0000000000000000e+00  0.0000000000000000e+00  0.0000000000000000e+00  0.0000000000000000e+00 
 0.0000000000000000e+00  0.0000000000000000e+00  0.0000000000000000e+00  0.0000000000000000e+00 
 0.0000000000000000e+00  0.0000000000000000e+00  0.0000000000000000e+00  0.0000000000000000e+00 
 0.0000000000000000e+00  0.0000000000000000e+00  0.0000000000000000e+00  0.0000000000000000e+00 
 0.0000000000000000e+00  0.0000000000000000e+00  0.0000000000000000e+00  0.0000000000000000e+00 
 0.0000000000000000e+00  0.0000000000000000e+00  0.0000000000000000e+00  0.0000000000000000e+00 
 0.0000000000000000e+00  0.0000000000000000e+00  0.0000000000000000e+00  0.0000000000000000e+00 
 0.0000000000000000e+00  0.0000000000000000e+00  0.0000000000000000e+00  0.0000000000000000e+00 
 0.0000000000000000e+00  0.0000000000000000e+00  0.0000000000000000e+00  0.0000000000000000e+00 
 0.0000000000000000e+00  0.0000000000000000e+00  0.0000000000000000e+00  0.0000000000000000e+00 
 0.0000000000000000e+00  0.0000000000000000e+00  0.0000000000000000e+00  0.0000000000000000e+00 
 0.0000000000000000e+00  0.0000000000000000e+00  0.0000000000000000e+00  0.0000000000000000e+00 
 0.0000000000000000e+00  0.0000000000000000e+00  0.0000000000000000e+00  0.0000000000000000e+00 
 0.0000000000000000e+00  0.0000000000000000e+00  0.0000000000000000e+00  0.0000000000000000e+00 
 0.0000000000000000e+00  0.0000000000000000e+00  0.0000000000000000e+00  0.0000000000000000e+00 
 0.0000000000000000e+00  0.0000000000000000e+00  0.0000000000000000e+00  0.0000000000000000e+00 
 0.0000000000000000e+00  0.0000000000000000e+00  0.0000000000000000e+00  0.0000000000000000e+00 
 0.0000000000000000e+00  0.0000000000000000e+00  0.0000000000000000e+00  0.0000000000000000e+00 
 0.0000000000000000e+00  0.0000000000000000e+00  0.0000000000000000e+00  0.0000000000000000e+00 
 0.0000000000000000e+00  0.0000000000000000e+00  0.0000000000000000e+00  0.0000000000000000e+00 
 0.0000000000000000e+00  0.0000000000000000e+00  0.0000000000000000e+00  0.0000000000000000e+00 
 0.0000000000000000e+00  0.0000000000000000e+00  0.0000000000000000e+00  0.0000000000000000e+00 
 0.0000000000000000e+00  0.0000000000000000e+00  0.0000000000000000e+00  0.0000000000000000e+00 
 0.0000000000000000e+00  0.0000000000000000e+00  0.0000000000000000e+00  0.0000000000000000e+00 
 0.0000000000000000e+00  0.0000000000000000e+00  0.0000000000000000e+00  0.0000000000000000e+00 
 0.0000000000000000e+00  0.0000000000000000e+00  0.0000000000000000e+00  0.0000000000000000e+00 
 0.0000000000000000e+00  0.0000000000000000e+00  0.0000000000000000e+00  0.0000000000000000e+00 
 0.0000000000000000e+00  0.0000000000000000e+00  0.0000000000000000e+00  0.0000000000000000e+00 
 0.0000000000000000e+00  0.0000000000000000e+00  0.0000000000000000e+00  0.0000000000000000e+00 
 0.0000000000000000e+00  0.0000000000000000e+00  0.0000000000000000e+00  0.0000000000000000e+00 
 0.0000000000000000e+00  0.0000000000000000e+00  0.0000000000000000e+00  0.0000000000000000e+00 
 0.0000000000000000e+00  0.0000000000000000e+00  0.0000000000000000e+00  0.0000000000000000e+00 
 0.0000000000000000e+00  0.0000000000000000e+00  0.0000000000000000e+00  0.0000000000000000e+00 
 0.0000000000000000e+00  0.0000000000000000e+00  0.0000000000000000e+00  0.0000000000000000e+00 
 0.0000000000000000e+00  0.0000000000000000e+00  0.0000000000000000e+00  0.0000000000000000e+00 
 0.0000000000000000e+00  0.0000000000000000e+00  0.0000000000000000e+00  0.0000000000000000e+00 
 0.0000000000000000e+00 
D    2   5.70          Wavefunction
 9.2498867527127553e-15  9.6177592235917394e-15  1.0000262160674825e-14  1.0397977424684223e-14 
 1.0811510017224849e-14  1.1241489001108435e-14  1.1688568457279409e-14  1.2153428479798124e-14 
 1.2636776210395118e-14  1.3139346914170047e-14  1.3661905098071711e-14  1.4205245673860574e-14 
 1.4770195167322866e-14  1.5357612975575706e-14  1.5968392674375879e-14  1.6603463377420896e-14 
 1.7263791149710142e-14  1.7950380477116063e-14  1.8664275794400933e-14  1.9406563074003549e-14 
 2.0178371478012795e-14  2.0980875075840992e-14  2.1815294630209899e-14  2.2682899454166313e-14 
 2.3585009341952026e-14  2.4522996576665472e-14  2.5498288017769014e-14  2.6512367271617411e-14 
 2.7566776948309292e-14  2.8663121008294684e-14  2.9803067202308245e-14  3.0988349608339891e-14 
 3.2220771269501928e-14  3.3502206936805435e-14  3.4834605921018235e-14  3.6219995057942651e-14 
 3.7660481791623764e-14  3.9158257380178373e-14  4.0715600229121399e-14  4.2334879357260185e-14 
 4.4018558000429196e-14  4.5769197358546997e-14  4.7589460491695467e-14  4.9482116371148029e-14 
 5.1450044091509231e-14  5.3496237250373131e-14  5.5623808502162943e-14  5.7835994293078990e-14 
 6.0136159784357886e-14  6.2527803971332243e-14  6.5014565006077685e-14  6.7600225731744284e-14 
 7.0288719436991019e-14  7.3084135839276952e-14  7.5990727306110736e-14  7.9012915323722207e-14 
 8.2155297222996471e-14  8.5422653172901384e-14  8.8819953452047272e-14  9.2352366009440036e-14 
 9.6025264325929106e-14  9.9844235588309083e-14  1.0381508918850951e-13  1.0794386556080120e-13 
 1.1223684537046317e-13  1.1670055906788677e-13  1.2134179682265192e-13  1.2616761885268550e-13 
 1.3118536616421644e-13  1.3640267171886341e-13  1.4182747204484339e-13  1.4746801930996355e-13 
 1.5333289387476214e-13  1.5943101734489380e-13  1.6577166614261482e-13  1.7236448561801287e-13 
 1.7921950472144751e-13  1.8634715125952059e-13  1.9375826775778475e-13  2.0146412795431871e-13 
 2.0947645394926110e-13  2.1780743403638888e-13  2.2646974124386786e-13  2.3547655261237587e-13 
 2.4484156923992876e-13  2.5457903712389744e-13  2.6470376883192272e-13  2.7523116603469351e-13 
 2.8617724293486452e-13  2.9755865062775382e-13  3.0939270243087682e-13  3.2169740022084975e-13 
 3.3449146181772292e-13  3.4779434945840497e-13  3.6162629940248725e-13  3.7600835271550772e-13 
 3.9096238727648069e-13  4.0651115105838144e-13  4.2267829673221244e-13  4.3948841764729143e-13 
 4.5696708524249229e-13  4.7514088794535097e-13  4.9403747161820741e-13  5.1368558161291184e-13 
 5.3411510649806639e-13  5.5535712352532299e-13  5.7744394590389669e-13  6.0040917195521359e-13 
 6.2428773622245889e-13  6.4911596261278329e-13  6.7493161965299684e-13  7.0177397794281299e-13 
 7.2968386989303586e-13  7.5870375183956560e-13  7.8887776862771115e-13  8.2025182076504954e-13 
 8.5287363424499467e-13  8.8679283314728002e-13  9.2206101512580326e-13  9.5873182989865743e-13 
 9.9686106085975564e-13  1.0365067099361869e-12  1.0777290858203972e-12  1.1205908957114061e-12 
 1.1651573407046218e-12  1.2114962149753572e-12  1.2596780089069241e-12  1.3097760163201893e-12 
 1.3618664459677020e-12  1.4160285374620033e-12  1.4723446818144626e-12  1.5309005467680078e-12 
 1.5917852071144056e-12  1.6550912801943246e-12  1.7209150667863105e-12  1.7893566975989870e-12 
 1.8605202855893335e-12  1.9345140843387358e-12  2.0114506527277398e-12  2.0914470261600072e-12 
 2.1746248945959377e-12  2.2611107876667858e-12  2.3510362671508637e-12  2.4445381271046251e-12 
 2.5417586019530731e-12  2.6428455828560308e-12  2.7479528426794203e-12  2.8572402699137720e-12 
 2.9708741118957944e-12  3.0890272277030047e-12  3.2118793511061136e-12  3.3396173639791738e-12 
 3.4724355805833956e-12  3.6105360431570929e-12  3.7541288292614031e-12  3.9034323713493157e-12 
 4.0586737890441385e-12  4.2200892346328688e-12  4.3879242523000300e-12  4.5624341516484340e-12 
 4.7438843960750832e-12  4.9325510065929988e-12  5.1287209817132736e-12  5.3326927340260805e-12 
 5.5447765441447501e-12  5.7652950327034713e-12  5.9945836511266125e-12  6.2329911919162316e-12 
 6.4808803192340066e-12  6.7386281205847357e-12  7.0066266804405960e-12  7.2852836766788102e-12 
 7.5750230007399606e-12  7.8762854024503989e-12  8.1895291604896139e-12  8.5152307795224976e-12 
 8.8538857150570002e-12  9.2060091271297887e-12  9.5721366639664807e-12  9.9528252768084949e-12 
 1.0348654067146110e-11  1.0760225167646492e-11  1.1188164658116785e-11  1.1633123517895632e-11 
 1.2095778616121936e-11  1.2576833741387214e-11  1.3077020672337907e-11  1.3597100290856262e-11 
 1.4137863739513076e-11  1.4700133625053202e-11  1.5284765269744375e-11  1.5892648012493096e-11 
 1.6524706561706692e-11  1.7181902401959716e-11  1.7865235256604332e-11  1.8575744608549782e-11 
 1.9314511281524335e-11  2.0082659084225004e-11  2.0881356519856449e-11  2.1711818563659279e-11 
 2.2575308511132058e-11  2.3473139899758364e-11  2.4406678507162355e-11  2.5377344428732489e-11 
 2.6386614237873853e-11  2.7436023232175332e-11  2.8527167768908582e-11  2.9661707693411588e-11 
 3.0841368864050878e-11  3.2067945777603480e-11  3.3343304299052377e-11  3.4669384499948106e-11 
 3.6048203609654301e-11  3.7481859083966597e-11  3.8972531795773156e-11  4.0522489352610243e-11 
 4.2134089546159941e-11  4.3809783938937204e-11  4.5552121593622577e-11  4.7363752950713697e-11 
 4.9247433860394405e-11  5.1206029774754893e-11  5.3242520106740177e-11  5.5360002762457928e-11 
 5.7561698853740339e-11  5.9850957598128971e-11  6.2231261413736677e-11  6.4706231216736860e-11 
 6.7279631929539133e-11  6.9955378208030577e-11  7.2737540396594692e-11  7.5630350719967830e-11 
 7.8638209721351725e-11  8.1765692956576321e-11  8.5017557954496672e-11  8.8398751454211772e-11 
 9.1914416930115497e-11  9.5569902416226435e-11  9.9370768641700514e-11  1.0332279748990113e-10 
 1.0743200079389617e-10  1.1170462948176174e-10  1.1614718308560486e-10  1.2076641962877092e-10 
 1.2556936590627658e-10  1.3056332817410766e-10  1.3575590326364244e-10  1.4115499013810946e-10 
 1.4676880190865858e-10  1.5260587832832651e-10  1.5867509878290188e-10  1.6498569579845345e-10 
 1.7154726908606927e-10  1.7836980014517285e-10  1.8546366744763228e-10  1.9283966222576008e-10 
 2.0050900488822376e-10  2.0848336208883835e-10  2.1677486447420838e-10  2.2539612513721835e-10 
 2.3436025880444518e-10  2.4368090178668221e-10  2.5337223272292563e-10  2.6344899414938228e-10 
 2.7392651492631133e-10  2.8482073355682013e-10  2.9614822243308884e-10  3.0792621304691277e-10 
 3.2017262220291549e-10  3.3290607927431502e-10  3.4614595454270882e-10  3.5991238866499460e-10 
 3.7422632331225917e-10  3.8910953302724968e-10  4.0458465834889739e-10  4.2067524025429153e-10 
 4.3740575597050537e-10  4.5480165621075967e-10  4.7288940389157865e-10  4.9169651438984413e-10 
 5.1125159740099682e-10  5.3158440046206950e-10  5.5272585420576729e-10  5.7470811941444771e-10 
 5.9756463594558223e-10  6.2133017360313578e-10  6.4604088503225248e-10  6.7173436071771670e-10 
 6.9844968616985677e-10  7.2622750138488192e-10  7.5511006267010764e-10  7.8514130692794776e-10 
 8.1636691849534345e-10  8.4883439864210662e-10  8.8259313783412918e-10  9.1769449087079165e-10 
 9.5419185501083181e-10  9.9214075120554510e-10  1.0315989085629089e-09  1.0726263521711408e-09 
 1.1152854944153219e-09  1.1596412299260191e-09  1.2057610343043696e-09  1.2537150667738513e-09 
 1.3035762769149142e-09  1.3554205156448867e-09  1.4093266506120124e-09  1.4653766861791968e-09 
 1.5236558881800320e-09  1.5842529136369216e-09  1.6472599456386914e-09  1.7127728335829029e-09 
 1.7808912389962895e-09  1.8517187871551680e-09  1.9253632247365643e-09  2.0019365837399270e-09 
 2.0815553519288724e-09  2.1643406500523094e-09  2.2504184161146294e-09  2.3399195969753560e-09 
 2.4329803475698179e-09  2.5297422380540138e-09  2.6303524691888735e-09  2.7349640962916942e-09 
 2.8437362620955395e-09  2.9568344388709836e-09  3.0744306801786402e-09  3.1967038826356161e-09 
 3.3238400580942464e-09  3.4560326166473185e-09  3.5934826608905163e-09  3.7363992918898682e-09 
 3.8849999273198984e-09  4.0395106322566289e-09  4.2001664631289235e-09  4.3672118253515960e-09 
 4.5409008451846538e-09  4.7214977563846105e-09  4.9092773022363690e-09  5.1045251535776133e-09 
 5.3075383434519203e-09  5.5186257190522313e-09  5.7381084116425477e-09  5.9663203251731647e-09 
 6.2036086443332096e-09  6.4503343628137810e-09  6.7068728325859093e-09  6.9736143350293730e-09 
 7.2509646747818954e-09  7.5393457972126345e-09  7.8391964304600522e-09  8.1509727530115099e-09 
 8.4751490878409588e-09  8.8122186241614659e-09  9.1626941678914270e-09  9.5271089219770406e-09 
 9.9060172977590950e-09  1.0299995758619451e-08  1.0709643697191701e-08  1.1135584347471719e-08 
 1.1578465733216947e-08  1.2038961654078490e-08  1.2517772710967755e-08  1.3015627372218938e-08 
 1.3533283082171062e-08  1.4071527413857653e-08  1.4631179267559695e-08  1.5213090117047020e-08 
 1.5818145305406345e-08  1.6447265392429412e-08  1.7101407555613643e-08  1.7781567046909063e-08 
 1.8488778707430542e-08  1.9224118542442661e-08  1.9988705359016311e-08  2.0783702468851921e-08 
 2.1610319458863329e-08  2.2469814032219835e-08  2.3363493922651344e-08  2.4292718884933245e-08 
 2.5258902764583878e-08  2.6263515649928301e-08  2.7308086109807657e-08  2.8394203520344159e-08 
 2.9523520484307571e-08  3.0697755346770338e-08  3.1918694810885430e-08  3.3188196657773807e-08 
 3.4508192574667440e-08  3.5880691095618624e-08  3.7307780659258695e-08  3.8791632788267604e-08 
 4.0334505395401625e-08  4.1938746221120050e-08  4.3606796408052215e-08  4.5341194217755466e-08 
 4.7144578895432047e-08  4.9019694688498793e-08  5.0969395025138464e-08  5.2996646859206268e-08 
 5.5104535188118920e-08  5.7296267750618497e-08  5.9575179911577695e-08  6.1944739741299329e-08 
 6.4408553297060249e-08  6.6970370114958943e-08  6.9634088920447836e-08  7.2403763566265723e-08 
 7.5283609206833533e-08  7.8278008718538337e-08  8.1391519375707043e-08  8.4628879792462261e-08 
 8.7995017141059636e-08  9.1495054657729538e-08  9.5134319447485788e-08  9.8918350599822529e-08 
 1.0285290762769573e-07  1.0694397924268141e-07  1.1119779247971805e-07  1.1562082218537573e-07 
 1.2021980088415217e-07  1.2500172903787536e-07  1.2997388571389475e-07  1.3514383967837067e-07 
 1.4051946093162297e-07  1.4610893270317893e-07  1.5192076392486497e-07  1.5796380220102143e-07 
 1.6424724729568239e-07  1.7078066515735689e-07  1.7757400250287299e-07  1.8463760198260562e-07 
 1.9198221795030328e-07  1.9961903286165630e-07  2.0755967432671884e-07  2.1581623284229944e-07 
 2.2440128023148477e-07  2.3332788881854501e-07  2.4260965136860706e-07  2.5226070182265387e-07 
 2.6229573685963733e-07  2.7273003831876546e-07  2.8357949651634994e-07  2.9486063449298064e-07 
 3.0659063322822875e-07  3.1878735786157222e-07  3.3146938495979106e-07  3.4465603087269822e-07 
 3.5836738122074867e-07  3.7262432155982299e-07  3.8744856927030027e-07  4.0286270671942682e-07 
 4.1889021574796424e-07  4.3555551353413982e-07  4.5288398989006829e-07  4.7090204604802129e-07 
 4.8963713499624274e-07  5.0911780342640043e-07  5.2937373535727392e-07  5.5043579750187782e-07 
 5.7233608644792631e-07  5.9510797772436982e-07  6.1878617682965908e-07  6.4340677230045228e-07 
 6.6900729090265246e-07  6.9562675502997525e-07  7.2330574239867839e-07  7.5208644813067700e-07 
 7.8201274932099062e-07  8.1313027218934819e-07  8.4548646191981733e-07  8.7913065529653142e-07 
 9.1411415624795753e-07  9.5049031441670978e-07  9.8831460687665408e-07  1.0276447231239855e-06 
 1.0685406534740977e-06  1.1110647810014218e-06  1.1552819771649755e-06  1.2012597012681688e-06 
 1.2490681039074468e-06  1.2987801345706466e-06  1.3504716535524842e-06  1.4042215483614142e-06 
 1.4601118547991955e-06  1.5182278829019044e-06  1.5786583479388183e-06  1.6414955066736331e-06 
 1.7068352991008174e-06  1.7747774958786065e-06  1.8454258516892083e-06  1.9188882647662207e-06 
 1.9952769428391138e-06  2.0747085757548403e-06  2.1573045150473386e-06  2.2431909607367961e-06 
 2.3324991556521198e-06  2.4253655875821402e-06  2.5219321995736386e-06  2.6223466087073987e-06 
 2.7267623336971296e-06  2.8353390316703597e-06  2.9482427445051908e-06  3.0656461551123057e-06 
 3.1877288540676998e-06  3.3146776170184223e-06  3.4466866933011036e-06  3.5839581062313185e-06 
 3.7267019655408344e-06  3.8751367924596560e-06  4.0294898579604668e-06  4.1899975347046114e-06 
 4.3569056632512847e-06  4.5304699331150594e-06  4.7109562792813121e-06  4.8986412948146874e-06 
 5.0938126602223123e-06  5.2967695902612926e-06  5.5078232989089354e-06  5.7272974832444762e-06 
 5.9555288270225129e-06  6.1928675247513673e-06  6.4396778271239138e-06  6.6963386086842426e-06 
 6.9632439586510330e-06  7.2408037958574681e-06  7.5294445088084391e-06  7.8296096218982391e-06 
 8.1417604888765473e-06  8.4663770146968191e-06  8.8039584069297686e-06  9.1550239579752263e-06 
 9.5201138593586127e-06  9.8997900494535127e-06  1.0294637096029529e-05  1.0705263115085012e-05 
 1.1132300727487245e-05  1.1576408055008595e-05  1.2038269757415929e-05  1.2518598112342719e-05 
 1.3018134139748303e-05  1.3537648772847742e-05  1.4077944077477644e-05  1.4639854521949699e-05 
 1.5224248299533400e-05  1.5832028705803675e-05  1.6464135573187710e-05  1.7121546765148020e-05 
 1.7805279732546900e-05  1.8516393134850073e-05  1.9255988528945510e-05  2.0025212128476892e-05 
 2.0825256636720828e-05  2.1657363156172177e-05  2.2522823178143921e-05  2.3422980655836687e-05 
 2.4359234164488396e-05  2.5333039152378011e-05  2.6345910286627952e-05  2.7399423897928931e-05 
 2.8495220528498566e-05  2.9635007587781942e-05  3.0820562120608402e-05  3.2053733692735160e-05 
 3.3336447398935120e-05  3.4670706999023899e-05  3.6058598187470802e-05  3.7502292002499892e-05 
 3.9004048380862198e-05  4.0566219864748048e-05  4.2191255467611112e-05  4.3881704705993106e-05 
 4.5640221804771554e-05  4.7469570083603231e-05  4.9372626532702883e-05  5.1352386586483622e-05 
 5.3411969103990863e-05  5.5554621565487472e-05  5.7783725494996170e-05  6.0102802119075691e-05 
 6.2515518272602156e-05  6.5025692562847140e-05  6.7637301803691376e-05  7.0354487732387488e-05 
 7.3181564021891694e-05  7.6123023602418986e-05  7.9183546306548329e-05  8.2368006852907342e-05 
 8.5681483184208880e-05  8.9129265176192575e-05  9.2716863734845892e-05  9.6450020300146275e-05 
 1.0033471677547588e-04  1.0437718590282210e-04  1.0858392210488770e-04  1.1296169281630060e-04 
 1.1751755032723633e-04  1.2225884416394915e-04  1.2719323403195682e-04  1.3232870334893695e-04 
 1.3767357339578251e-04  1.4323651811572316e-04  1.4902657959296324e-04  1.5505318424391393e-04 
 1.6132615975581179e-04  1.6785575280932772e-04  1.7465264762368002e-04  1.8172798536478192e-04 
 1.8909338445908164e-04  1.9676096185800013e-04  2.0474335530024193e-04  2.1305374662175958e-04 
 2.2170588616579650e-04  2.3071411834822407e-04  2.4009340843634012e-04  2.4985937060241004e-04 
 2.6002829731652306e-04  2.7061719014681443e-04  2.8164379203877694e-04  2.9312662114926852e-04 
 3.0508500631492615e-04  3.1753912423902790e-04  3.3051003848543875e-04  3.4401974037310515e-04 
 3.5809119186969851e-04  3.7274837058841212e-04  3.8801631699764545e-04  4.0392118395935601e-04 
 4.2049028871826141e-04  4.3775216747083512e-04  4.5573663265019660e-04  4.7447483307055531e-04 
 4.9399931708286968e-04  5.1434409890183694e-04  5.3554472827327458e-04  5.5763836366040545e-04 
 5.8066384913756282e-04  6.0466179519040239e-04  6.2967466363288182e-04  6.5574685686309395e-04 
 6.8292481169253470e-04  7.1125709799658716e-04  7.4079452244797889e-04  7.7159023760971863e-04 
 8.0369985667962649e-04  8.3718157419504534e-04  8.7209629302375028e-04  9.0850775798546511e-04 
 9.4648269646783925e-04  9.8609096642126681e-04  1.0274057121386047e-03  1.0705035282487418e-03 
 1.1154646323771151e-03  1.1623730469517786e-03  1.2113167906605024e-03  1.2623880800927694e-03 
 1.3156835421304172e-03  1.3713044376822076e-03  1.4293568973908334e-03  1.4899521699758089e-03 
 1.5532068839125670e-03  1.6192433231868089e-03  1.6881897179039311e-03  1.7601805505761941e-03 
 1.8353568789553525e-03  1.9138666763257098e-03  1.9958651902222246e-03  2.0815153205902982e-03 
 2.1709880184584249e-03  2.2644627062519715e-03  2.3621277209361045e-03  2.4641807812383096e-03 
 2.5708294802661447e-03  2.6822918049038882e-03  2.7987966834425808e-03  2.9205845629716666e-03 
 3.0479080181370962e-03  3.1810323929501545e-03  3.3202364774136627e-03  3.4658132208173157e-03 
 3.6180704836417440e-03  3.7773318301013601e-03  3.9439373634490025e-03  4.1182446062605531e-03 
 4.3006294280150395e-03  4.4914870223847205e-03  4.6912329367501913e-03  4.9003041565570003e-03 
 5.1191602472323980e-03  5.3482845564828156e-03  5.5881854798941304e-03  5.8393977928566897e-03 
 6.1024840519347942e-03  6.3780360688946965e-03  6.6666764606952431e-03  6.9690602788294786e-03 
 7.2858767214827756e-03  7.6178509320414169e-03  7.9657458875432713e-03  8.3303643807073752e-03 
 8.7125510992093497e-03  9.1131948058822618e-03  9.5332306235148753e-03  9.9736424278882487e-03 
 1.0435465352633544e-02  1.0919788409405551e-02  1.1427757226742961e-02  1.1960576910823835e-02 
 1.2519515031117949e-02  1.3105904733681308e-02  1.3721147984526453e-02  1.4366718945128918e-02 
 1.5044167481689011e-02  1.5755122809250826e-02  1.6501297271181086e-02  1.7284490253819163e-02 
 1.8106592235319421e-02  1.8969588966807786e-02  1.9875565782957873e-02  2.0826712037947469e-02 
 2.1825325661474586e-02  2.2873817828083107e-02  2.3974717731461218e-02  2.5130677453621564e-02 
 2.6344476916939898e-02  2.7619028904910317e-02  2.8957384135160521e-02  3.0362736365752464e-02 
 3.1838427513065336e-02  3.3387952756613958e-02  3.5014965602993893e-02  3.6723282877761845e-02 
 3.8516889610461701e-02  4.0399943774194771e-02  4.2376780837118079e-02  4.4451918079051474e-02 
 4.6630058621998718e-02  4.8916095118866840e-02  5.1315113040029746e-02  5.3832393492663923e-02 
 5.6473415503030595e-02  5.9243857687138496e-02  6.2149599230554686e-02  6.5196720093599683e-02 
 6.8391500353839590e-02  7.1740418593745414e-02  7.5250149237706607e-02  7.8927558739338141e-02 
 8.2779700517284976e-02  8.6813808535563974e-02  9.1037289422951098e-02  9.5457713025045521e-02 
 1.0008280128242961e-01  1.0492041532876131e-01  1.0997854070360695e-01  1.1526527057622021e-01 
 1.2078878687810965e-01  1.2655733924386922e-01  1.3257922166106534e-01  1.3886274673063173e-01 
 1.4541621743883121e-01  1.5224789634002825e-01  1.5936597204593808e-01  1.6677852291145967e-01 
 1.7449347779962515e-01  1.8251857379884651e-01  1.9086131075514459e-01  1.9952890247148997e-01 
 2.0852822441747010e-01  2.1786575778751144e-01  2.2754752974782441e-01  2.3757904972471647e-01 
 2.4796524161409006e-01  2.5871037183832335e-01  2.6981797324691625e-01  2.8129076495556321e-01 
 2.9313056834820728e-01  3.0533821963023805e-01  3.1791347951832288e-01  3.3085494088039963e-01 
 3.4415993539121492e-01  3.5782444053279966e-01  3.7184298852839348e-01  3.8620857903030681e-01 
 4.0091259756077369e-01  4.1594474180260271e-01  4.3129295782953758e-01  4.4694338824030289e-01 
 4.6288033391653682e-01  4.7908623078398910e-01  4.9554164255868943e-01  5.1222527005892682e-01 
 5.2911397731561338e-01  5.4618283446179816e-01  5.6340517724612749e-01  5.8075268298289251e-01 
 5.9819546278028224e-01  6.1570216991295101e-01  6.3324012414800923e-01  6.5077545161892458e-01 
 6.6827323940577765e-01  6.8569770328290225e-01  7.0301236613445117e-01  7.2018024336997510e-01 
 7.3716403042867840e-01  7.5392628636713566e-01  7.7042960688856765e-01  7.8663678033440354e-01 
 8.0251092140156233e-01  8.1801557976382100e-01  8.3311482415469085e-01  8.4777330627229786e-01 
 8.6195631231739844e-01  8.7562981227500658e-01  8.8876051763214092e-01  9.0131595694209332e-01 
 9.1326457625755075e-01  9.2457587118706519e-01  9.3522054018228407e-01  9.4517062837508348e-01 
 9.5439975711082559e-01  9.6288330891145524e-01  9.7059862123774976e-01  9.7752517299959163e-01 
 9.8364475591570033e-01  9.8894162596474999e-01  9.9340263166646814e-01  9.9701731726221821e-01 
 9.9977799994549732e-01  1.0016798211041065e+00  1.0027207721019258e+00  1.0029016954967569e+00 
 1.0022262628159595e+00  1.0007009301439505e+00  9.9833487285575873e-01  9.9513990088804127e-01 
 9.9113035599188537e-01  9.8632299247002087e-01  9.8073684296791552e-01  9.7439307096209538e-01 
 9.6731481166590227e-01  9.5952700314707362e-01  9.5105620951712200e-01  9.4193043810378130e-01 
 9.3217895254975802e-01  9.2183208378967973e-01  9.1092104083957459e-01  8.9947772328770426e-01 
 8.8753453730161347e-01  8.7512421686438746e-01  8.6227965182501964e-01  8.4903372419595668e-01 
 8.3541915395871646e-01  8.2146835544970664e-01  8.0721330519677947e-01  7.9268542146261245e-01 
 7.7791545799864226e-01  7.6293340815919908e-01  7.4776842349707595e-01  7.3244874466797216e-01 
 7.1700164472352945e-01  7.0145338430979531e-01  6.8582917815325328e-01  6.7015317210010794e-01 
 6.5444842988199881e-01  6.3873692871259302e-01  6.2303956277421835e-01  6.0737615363097774e-01 
 5.9176546660324236e-01  5.7622523215613008e-01  5.6077217138933788e-01  5.4542202476500146e-01 
 5.3018958327130039e-01  5.1508872128961813e-01  5.0013243050945733e-01  4.8533285431528922e-01 
 4.7070132215066396e-01  4.5624838344496543e-01  4.4198384076525837e-01  4.2791678192812416e-01 
 4.1405561087297027e-01  4.0040807715810994e-01  3.8698130399338682e-01  3.7378181476800248e-01 
 3.6081555806953958e-01  3.4808793122024190e-01  3.3560380237990495e-01  3.2336753128188434e-01 
 3.1138298868051550e-01  2.9965357459545239e-01  2.8818223544194244e-01  2.7697148013665757e-01 
 2.6602339526720975e-01  2.5533965941056413e-01  2.4492155668188612e-01  2.3476998959140385e-01 
 2.2488549128306437e-01  2.1526823722537963e-01  2.0591805642213976e-01  1.9683444220864682e-01 
 1.8801656269780725e-01  1.7946327093971320e-01  1.7117311485803030e-01  1.6314434702708575e-01 
 1.5537493435249744e-01  1.4786256771803905e-01  1.4060467166191157e-01  1.3359841414246537e-01 
 1.2684071645096134e-01  1.2032826332509657e-01  1.1405751331158979e-01  1.0802470941935077e-01 
 1.0222589009665897e-01  9.6656900556465059e-02  9.1313404463626138e-02  8.6190895986847871e-02 
 8.1284712206692783e-02  7.6590045859587105e-02  7.2101958386473403e-02  6.7815393244427605e-02 
 6.3725189430534859e-02  5.9826095158714662e-02  5.6112781623655565e-02  5.2579856781592389e-02 
 4.9221879074325285e-02  4.6033371021655722e-02  4.3008832607945038e-02  4.0142754390234146e-02 
 3.7429630259193471e-02  3.4863969789531220e-02  3.2440310121312127e-02  3.0153227320492186e-02 
 2.7997347174826263e-02  2.5967355388433006e-02  2.4058007146081171e-02  2.2264136025905733e-02 
 2.0580662246641502e-02  1.9002600242434595e-02  1.7525065564731337e-02  1.6143281116547850e-02 
 1.4852582729522017e-02  1.3648424098495709e-02  1.2526381091952516e-02  1.1482155459452307e-02 
 1.0511577959289746e-02  9.6106109310122277e-03  8.7753503382343775e-03  8.0020273074645296e-03 
 7.2870091885092842e-03  6.6268001615427232e-03  6.0180414152173397e-03  5.4575109193485067e-03 
 4.9421228148095395e-03  4.4689264424042034e-03  4.0351050316971230e-03  3.6379740701245234e-03 
 3.2749793722037118e-03  2.9436948683226483e-03  2.6418201324168726e-03  2.3671776678145734e-03 
 2.1177099706277871e-03  1.8914763902544739e-03  1.6866498067981289e-03  1.5015131454695562e-03 
 1.3344557482726979e-03  1.1839696234578177e-03  1.0486455933220956e-03  9.2716936092208566e-04 
 8.1831751611775687e-04  7.2095350107940907e-04  6.3402355494998923e-04  5.5655265676481406e-04 
 4.8764048499225454e-04  4.2645741118085958e-04  3.7224054419281833e-04  3.2428984038560058e-04 
 2.8196429389039612e-04  2.4467821984631169e-04  2.1189764210270709e-04  1.8313679551826907e-04 
 1.5795475158376826e-04  1.3595217469447040e-04  1.1676821501525319e-04  1.0007754253253174e-04 
 8.5587525586403723e-05  7.3035555936431094e-05  6.2186521245774276e-05  5.2830424779645100e-05 
 4.4780151112023117e-05  3.7869375724217742e-05  3.1950615563343066e-05  2.6893416909671602e-05 
 2.2582676278813347e-05  1.8917089557690374e-05  1.5807724137532452e-05  1.3176708461331306e-05 
 1.0956033141561489e-05  9.0864576217025262e-06  7.5165162463971210e-06  6.2016175637674503e-06 
 5.1032307030259232e-06  4.1881527444470577e-06  3.4278511203695892e-06  2.7978752485993405e-06 
 2.2773317969776038e-06  1.8484182038049111e-06  1.4960093274168567e-06  1.2072923640142949e-06 
 9.7144545078045430e-07  7.7935565673689852e-07  6.2337235252194510e-07  4.9709223859812425e-07 
 3.9517259610574879e-07  3.1316960282649269e-07  2.4739882623705766e-07  1.9481526446552088e-07 
 1.5291055261142105e-07  1.1962518521267816e-07  9.3273824835503627e-08  7.2481971331153765e-08 
 5.6132456017730136e-08  4.3320399928845138e-08  3.3315435520254301e-08  2.5530137245424056e-08 
 1.9493738715032463e-08  1.4830333381861590e-08  1.1240862559299626e-08  8.4882898655145071e-09 
 6.3854457001484892e-09  4.7850999371451955e-09  3.5718864914348164e-09  2.6557606051566383e-09 
 1.9667194018356174e-09  1.4505592357057044e-09  1.0654803427446789e-09  7.7938095876097514e-10 
 5.6771003863405574e-10  4.1177057009438298e-10  2.9738475521070875e-10  2.1384851302837700e-10 
 1.5311626908493759e-10  1.0916822707885570e-10  7.7521606628925677e-11  5.4854980611887053e-11 
 3.8721121518089943e-11  0.0000000000000000e+00  0.0000000000000000e+00  0.0000000000000000e+00 
 0.0000000000000000e+00  0.0000000000000000e+00  0.0000000000000000e+00  0.0000000000000000e+00 
 0.0000000000000000e+00  0.0000000000000000e+00  0.0000000000000000e+00  0.0000000000000000e+00 
 0.0000000000000000e+00  0.0000000000000000e+00  0.0000000000000000e+00  0.0000000000000000e+00 
 0.0000000000000000e+00  0.0000000000000000e+00  0.0000000000000000e+00  0.0000000000000000e+00 
 0.0000000000000000e+00  0.0000000000000000e+00  0.0000000000000000e+00  0.0000000000000000e+00 
 0.0000000000000000e+00  0.0000000000000000e+00  0.0000000000000000e+00  0.0000000000000000e+00 
 0.0000000000000000e+00  0.0000000000000000e+00  0.0000000000000000e+00  0.0000000000000000e+00 
 0.0000000000000000e+00  0.0000000000000000e+00  0.0000000000000000e+00  0.0000000000000000e+00 
 0.0000000000000000e+00  0.0000000000000000e+00  0.0000000000000000e+00  0.0000000000000000e+00 
 0.0000000000000000e+00  0.0000000000000000e+00  0.0000000000000000e+00  0.0000000000000000e+00 
 0.0000000000000000e+00  0.0000000000000000e+00  0.0000000000000000e+00  0.0000000000000000e+00 
 0.0000000000000000e+00  0.0000000000000000e+00  0.0000000000000000e+00  0.0000000000000000e+00 
 0.0000000000000000e+00  0.0000000000000000e+00  0.0000000000000000e+00  0.0000000000000000e+00 
 0.0000000000000000e+00  0.0000000000000000e+00  0.0000000000000000e+00  0.0000000000000000e+00 
 0.0000000000000000e+00  0.0000000000000000e+00  0.0000000000000000e+00  0.0000000000000000e+00 
 0.0000000000000000e+00  0.0000000000000000e+00  0.0000000000000000e+00  0.0000000000000000e+00 
 0.0000000000000000e+00  0.0000000000000000e+00  0.0000000000000000e+00  0.0000000000000000e+00 
 0.0000000000000000e+00  0.0000000000000000e+00  0.0000000000000000e+00  0.0000000000000000e+00 
 0.0000000000000000e+00  0.0000000000000000e+00  0.0000000000000000e+00  0.0000000000000000e+00 
 0.0000000000000000e+00  0.0000000000000000e+00  0.0000000000000000e+00  0.0000000000000000e+00 
 0.0000000000000000e+00  0.0000000000000000e+00  0.0000000000000000e+00  0.0000000000000000e+00 
 0.0000000000000000e+00  0.0000000000000000e+00  0.0000000000000000e+00  0.0000000000000000e+00 
 0.0000000000000000e+00  0.0000000000000000e+00  0.0000000000000000e+00  0.0000000000000000e+00 
 0.0000000000000000e+00  0.0000000000000000e+00  0.0000000000000000e+00  0.0000000000000000e+00 
 0.0000000000000000e+00  0.0000000000000000e+00  0.0000000000000000e+00  0.0000000000000000e+00 
 0.0000000000000000e+00  0.0000000000000000e+00  0.0000000000000000e+00  0.0000000000000000e+00 
 0.0000000000000000e+00  0.0000000000000000e+00  0.0000000000000000e+00  0.0000000000000000e+00 
 0.0000000000000000e+00  0.0000000000000000e+00  0.0000000000000000e+00  0.0000000000000000e+00 
 0.0000000000000000e+00  0.0000000000000000e+00  0.0000000000000000e+00  0.0000000000000000e+00 
 0.0000000000000000e+00  0.0000000000000000e+00  0.0000000000000000e+00  0.0000000000000000e+00 
 0.0000000000000000e+00  0.0000000000000000e+00  0.0000000000000000e+00  0.0000000000000000e+00 
 0.0000000000000000e+00  0.0000000000000000e+00  0.0000000000000000e+00  0.0000000000000000e+00 
 0.0000000000000000e+00  0.0000000000000000e+00  0.0000000000000000e+00  0.0000000000000000e+00 
 0.0000000000000000e+00  0.0000000000000000e+00  0.0000000000000000e+00  0.0000000000000000e+00 
 0.0000000000000000e+00  0.0000000000000000e+00  0.0000000000000000e+00  0.0000000000000000e+00 
 0.0000000000000000e+00 
</PP_PSWFC>


<PP_RHOATOM>
 1.8301131185958709e-16  1.8783200356745034e-16  1.9277967687638468e-16  1.9785767660269148e-16 
 2.0306943566833242e-16  2.0841847742171664e-16  2.1390841801962189e-16  2.1954296887185571e-16 
 2.2532593915031205e-16  2.3126123836411977e-16  2.3735287900262198e-16  2.4360497924797451e-16 
 2.5002176575919672e-16  2.5660757652955735e-16  2.6336686381922654e-16  2.7030419716517623e-16 
 2.7742426647036534e-16  2.8473188517429665e-16  2.9223199350708883e-16  2.9992966182926499e-16 
 3.0783009405951352e-16  3.1593863119274044e-16  3.2426075491078972e-16  3.3280209128827580e-16 
 3.4156841459602742e-16  3.5056565120472287e-16  3.5979988359134653e-16  3.6927735445118295e-16 
 3.7900447091812265e-16  3.8898780889613573e-16  3.9923411750484127e-16  4.0975032364217745e-16 
 4.2054353666725667e-16  4.3162105320657138e-16  4.4299036208680157e-16  4.5465914939755642e-16 
 4.6663530368747329e-16  4.7892692129718920e-16  4.9154231183278625e-16  5.0449000378341392e-16 
 5.1777875028688537e-16  5.3141753504714510e-16  5.4541557840761061e-16  5.5978234358448877e-16 
 5.7452754306428703e-16  5.8966114516984056e-16  6.0519338079929612e-16  6.2113475034260636e-16 
 6.3749603078021374e-16  6.5428828296871920e-16  6.7152285911846450e-16  6.8921141046808172e-16 
 7.0736589516119736e-16  7.2599858633061924e-16  7.4512208039546681e-16  7.6474930557685876e-16 
 7.8489353063791314e-16  8.0556837385396614e-16  8.2678781221907783e-16  8.4856619089504799e-16 
 8.7091823290932699e-16  8.9385904910838135e-16  9.1740414837324311e-16  9.4156944810414275e-16 
 9.6637128498132838e-16  9.9182642600932410e-16  1.0179520798521205e-15  1.0447659084669316e-15 
 1.0722860390444112e-15  1.1005310762633800e-15  1.1295201148683593e-15  1.1592727525784072e-15 
 1.1898091033359936e-15  1.2211498109048619e-15  1.2533160628260740e-15  1.2863296047416757e-15 
 1.3202127550956607e-15  1.3549884202221794e-15  1.3906801098311819e-15  1.4273119529019792e-15 
 1.4649087139954539e-15  1.5034958099959498e-15  1.5430993272941798e-15  1.5837460394227274e-15 
 1.6254634251561092e-15  1.6682796870876037e-15  1.7122237706954185e-15  1.7573253839110863e-15 
 1.8036150172033118e-15  1.8511239641908635e-15  1.8998843427984088e-15  1.9499291169696526e-15 
 2.0012921189524032e-15  2.0540080721706695e-15  2.1081126146992253e-15  2.1636423233565363e-15 
 2.2206347384323155e-15  2.2791283890664414e-15  2.3391628192963884e-15  2.4007786147907820e-15 
 2.4640174302871428e-15  2.5289220177523898e-15  2.5955362552851234e-15  2.6639051767792344e-15 
 2.7340750023688860e-15  2.8060931696754780e-15  2.8800083658776720e-15  2.9558705606262139e-15 
 3.0337310398257587e-15  3.1136424403065697e-15  3.1956587854095117e-15  3.2798355215084086e-15 
 3.3662295554944599e-15  3.4548992932480341e-15  3.5459046791238921e-15  3.6393072364764818e-15 
 3.7351701092527676e-15  3.8335581046806347e-15  3.9345377370818172e-15  4.0381772728388921e-15 
 4.1445467765468029e-15  4.2537181583800634e-15  4.3657652227077162e-15  4.4807637179888685e-15 
 4.5987913879825707e-15  4.7199280243066525e-15  4.8442555203810344e-15  4.9718579267920102e-15 
 5.1028215081149341e-15  5.2372348012336767e-15  5.3751886751963813e-15  5.5167763926478601e-15 
 5.6620936728802958e-15  5.8112387565447786e-15  5.9643124720674747e-15  6.1214183038153371e-15 
 6.2826624620574263e-15  6.4481539547691325e-15  6.6180046613279028e-15  6.7923294081502322e-15 
 6.9712460463210972e-15  7.1548755312683172e-15  7.3433420045356989e-15  7.5367728777102893e-15 
 7.7352989185603930e-15  7.9390543394427490e-15  8.1481768880384646e-15  8.3628079404791994e-15 
 8.5830925969264890e-15  8.8091797796688521e-15  9.0412223338030394e-15  9.2793771305674413e-15 
 9.5238051733975605e-15  9.7746717067752885e-15  1.0032146327945536e-14  1.0296403101575753e-14 
 1.0567620677435910e-14  1.0845982411178501e-14  1.1131676488300226e-14  1.1424896051369156e-14 
 1.1725839330603462e-14  1.2034709777889929e-14  1.2351716204333004e-14  1.2677072921427205e-14 
 1.3010999885948557e-14  1.3353722848662822e-14  1.3705473506951326e-14  1.4066489661457318e-14 
 1.4437015376859040e-14  1.4817301146878104e-14  1.5207604063634646e-14  1.5608187991464137e-14 
 1.6019323745312993e-14  1.6441289273833861e-14  1.6874369847304357e-14  1.7318858250496349e-14 
 1.7775054980626149e-14  1.8243268450519563e-14  1.8723815197129202e-14  1.9217020095544996e-14 
 1.9723216578642710e-14  2.0242746862519081e-14  2.0775962177865856e-14  2.1323223007439398e-14 
 2.1884899329786437e-14  2.2461370869390703e-14  2.3053027353409775e-14  2.3660268775175742e-14 
 2.4283505664637841e-14  2.4923159365930166e-14  2.5579662322252000e-14  2.6253458368253590e-14 
 2.6945003030125214e-14  2.7654763833592324e-14  2.8383220620025290e-14  2.9130865870877568e-14 
 2.9898205040671824e-14  3.0685756898758892e-14  3.1494053880081495e-14  3.2323642445179442e-14 
 3.3175083449680023e-14  3.4048952523523649e-14  3.4945840460181476e-14  3.5866353616127936e-14 
 3.6811114320838955e-14  3.7780761297592992e-14  3.8775950095359624e-14  3.9797353532068273e-14 
 4.0845662149556683e-14  4.1921584680507198e-14  4.3025848527686734e-14  4.4159200255815169e-14 
 4.5322406096394523e-14  4.6516252465841108e-14  4.7741546497271036e-14  4.8999116586299197e-14 
 5.0289812951221425e-14  5.1614508207958385e-14  5.2974097960151525e-14  5.4369501404809440e-14 
 5.5801661953915683e-14  5.7271547872418325e-14  5.8780152933033731e-14  6.0328497088307645e-14 
 6.1917627160388833e-14  6.3548617548982965e-14  6.5222570957965184e-14  6.6940619141144885e-14 
 6.8703923667686803e-14  7.0513676707707983e-14  7.2371101838581756e-14  7.4277454872496271e-14 
 7.6234024705827844e-14  7.8242134190904362e-14  8.0303141030750586e-14  8.2418438697421142e-14 
 8.4589457374543925e-14  8.6817664924712794e-14  8.9104567882386574e-14  9.1451712472965770e-14 
 9.3860685658740243e-14  9.6333116212415641e-14  9.8870675818947717e-14  1.0147508020643238e-13 
 1.0414809030681812e-13  1.0689151344722886e-13  1.0970720457270602e-13  1.1259706750120016e-13 
 1.1556305621166374e-13  1.1860717616612001e-13  1.2173148566660638e-13  1.2493809724791437e-13 
 1.2822917910707145e-13  1.3160695657053803e-13  1.3507371360011649e-13  1.3863179433859516e-13 
 1.4228360469618180e-13  1.4603161397880343e-13  1.4987835655938180e-13  1.5382643359322412e-13 
 1.5787851477869498e-13  1.6203734016437292e-13  1.6630572200392101e-13  1.7068654665993900e-13 
 1.7518277655809556e-13  1.7979745219287602e-13  1.8453369418631580e-13  1.8939470540112728e-13 
 1.9438377310966721e-13  1.9950427122022770e-13  2.0475966256217835e-13  2.1015350123152493e-13 
 2.1568943499849472e-13  2.2137120777879975e-13  2.2720266217027955e-13  2.3318774205666324e-13 
 2.3933049528024458e-13  2.4563507638531001e-13  2.5210574943420719e-13  2.5874689089799854e-13 
 2.6556299262368767e-13  2.7255866488007200e-13  2.7973863948431612e-13  2.8710777301141212e-13 
 2.9467105008873678e-13  3.0243358677798669e-13  3.1040063404682642e-13  3.1857758133265133e-13 
 3.2696996020093201e-13  3.3558344810067476e-13  3.4442387221959744e-13  3.5349721344155410e-13 
 3.6280961040792702e-13  3.7236736368748815e-13  3.8217694005782420e-13  3.9224497690077305e-13 
 4.0257828671490357e-13  4.1318386174822724e-13  4.2406887875440466e-13  4.3524070387581421e-13 
 4.4670689765694240e-13  4.5847522019166236e-13  4.7055363640805871e-13  4.8295032149457766e-13 
 4.9567366647138373e-13  5.0873228391091916e-13  5.2213501381179231e-13  5.3589092963022424e-13 
 5.5000934447342682e-13  5.6449981745941322e-13  5.7937216024787883e-13  5.9463644374691932e-13 
 6.1030300500053192e-13  6.2638245426195935e-13  6.4288568225812125e-13  6.5982386765053805e-13 
 6.7720848469831153e-13  6.9505131112892067e-13  7.1336443622276471e-13  7.3216026911758155e-13 
 7.5145154733907142e-13  7.7125134556426501e-13  7.9157308462439131e-13  8.1243054075422669e-13 
 8.3383785509514670e-13  8.5580954345935033e-13  8.7836050636298083e-13  9.0150603933614083e-13 
 9.2526184351808700e-13  9.4964403654616552e-13  9.7466916374739932e-13  1.0003542096419160e-12 
 1.0267166097677798e-12  1.0537742628371376e-12  1.0815455432339647e-12  1.1100493138640874e-12 
 1.1393049393685865e-12  1.1693322997121031e-12  1.2001518041580501e-12  1.2317844056432010e-12 
 1.2642516155646411e-12  1.2975755189926134e-12  1.3317787903233463e-12  1.3668847093865651e-12 
 1.4029171780230128e-12  1.4399007371479858e-12  1.4778605843175893e-12  1.5168225918151739e-12 
 1.5568133252762470e-12  1.5978600628709106e-12  1.6399908150638778e-12  1.6832343449729980e-12 
 1.7276201893482700e-12  1.7731786801943810e-12  1.8199409670609553e-12  1.8679390400259217e-12 
 1.9172057533986901e-12  1.9677748501712241e-12  2.0196809872465397e-12  2.0729597614757726e-12 
 2.1276477365365770e-12  2.1837824706874394e-12  2.2414025454344012e-12  2.3005475951486901e-12 
 2.3612583376759748e-12  2.4235766059802389e-12  2.4875453808678424e-12  2.5532088248399106e-12 
 2.6206123171241006e-12  2.6898024899398645e-12  2.7608272660545620e-12  2.8337358976913240e-12 
 2.9085790068533307e-12  2.9854086271331832e-12  3.0642782470804185e-12  3.1452428552048701e-12 
 3.2283589866985286e-12  3.3136847719639854e-12  3.4012799870432782e-12  3.4912061060471428e-12 
 3.5835263556913735e-12  3.6783057720541238e-12  3.7756112596756950e-12  3.8755116531306315e-12 
 3.9780777812109227e-12  4.0833825338685715e-12  4.1915009320762630e-12  4.3025102007758887e-12 
 4.4164898450966993e-12  4.5335217300377214e-12  4.6536901638229956e-12  4.7770819851531331e-12 
 4.9037866545927973e-12  5.0338963503511912e-12  5.1675060687311825e-12  5.3047137295430779e-12 
 5.4456202868007143e-12  5.5903298450410264e-12  5.7389497816336038e-12  5.8915908754740497e-12 
 6.0483674424843175e-12  6.2093974783751052e-12  6.3748028091596454e-12  6.5447092499450622e-12 
 6.7192467725676563e-12  6.8985496826812813e-12  7.0827568069546613e-12  7.2720116910836627e-12 
 7.4664628093785411e-12  7.6662637867449584e-12  7.8715736339403819e-12  8.0825569970560098e-12 
 8.2993844222476396e-12  8.5222326368186262e-12  8.7512848478438348e-12  8.9867310596162374e-12 
 9.2287684112979123e-12  9.4776015362653421e-12  9.7334429447558432e-12  9.9965134315479477e-12 
 1.0267042510545124e-11  1.0545268878279320e-11  1.0831440908509891e-11  1.1125817180265524e-11 
 1.1428667041862346e-11  1.1740271213632075e-11  1.2060922432310996e-11  1.2390926140274531e-11 
 1.2730601223055770e-11  1.3080280798859496e-11  1.3440313064078923e-11  1.3811062199142063e-11 
 1.4192909339359652e-11  1.4586253615819704e-11  1.4991513271777230e-11  1.5409126860423219e-11 
 1.5839554530388304e-11  1.6283279405845295e-11  1.6740809068625873e-11  1.7212677150360331e-11 
 1.7699445043293593e-11  1.8201703739124567e-11  1.8720075805968062e-11  1.9255217514349879e-11 
 1.9807821124024226e-11  2.0378617344350999e-11  2.0968377981996867e-11  2.1577918790833064e-11 
 2.2208102540101416e-11  2.2859842318216897e-11  2.3534105090976034e-11  2.4231915534455417e-11 
 2.4954360164523136e-11  2.5702591786655860e-11  2.6477834291670093e-11  2.7281387825045231e-11 
 2.8114634359755247e-11  2.8979043704944841e-11  2.9876179985403264e-11  3.0807708629618304e-11 
 3.1775403907251142e-11  3.2781157060181943e-11  3.3826985074851721e-11  3.4915040147494104e-11 
 3.6047619898032532e-11  3.7227178392941161e-11  3.8456338042257163e-11  3.9737902441220996e-11 
 4.1074870232739596e-11  4.2470450073051032e-11  4.3928076789657540e-11  4.5451428827824766e-11 
 4.7044447089767606e-11  4.8711355279099533e-11  5.0456681872271710e-11  5.2285283848618878e-11 
 5.4202372321329660e-11  5.6213540223229811e-11  5.8324792213781481e-11  6.0542576987237546e-11 
 6.2873822176529268e-11  6.5325972063299954e-11  6.7907028321622496e-11  7.0625594041464298e-11 
 7.3490921297996913e-11  7.6512962554522114e-11  7.9702426210226775e-11  8.3070836629337022e-11 
 8.6630599015671201e-11  9.0395069526260923e-11  9.4378631049807743e-11  9.8596775110460698e-11 
 1.0306619039496442e-10  1.0780485844185492e-10  1.1283215707534302e-10  1.1816897221407705e-10 
 1.2383781873642714e-10  1.2986297113959406e-10  1.3627060479006675e-10  1.4308894862810865e-10 
 1.5034845025944561e-10  1.5808195444360684e-10  1.6632489607089277e-10  1.7511550880925008e-10 
 1.8449505069895382e-10  1.9450804807755919e-10  2.0520255933072223e-10  2.1663046008693078e-10 
 2.2884775160667245e-10  2.4191489425995825e-10  2.5589716814128957e-10  2.7086506303909045e-10 
 2.8689470015838025e-10  3.0406828819217764e-10  3.2247461655003003e-10  3.4220958878251451e-10 
 3.6337679948999296e-10  3.8608815827390477e-10  4.1046456458114470e-10  4.3663663760847142e-10 
 4.6474550577637141e-10  4.9494366065260385e-10  5.2739588060706672e-10  5.6228022991421676e-10 
 5.9978913948982865e-10  6.4013057595833891e-10  6.8352930629868382e-10  7.3022826591385745e-10 
 7.8049003861628041e-10  8.3459845772151090e-10  8.9286033820143113e-10  9.5560735066956771e-10 
 1.0231980488609939e-09  1.0960200632329758e-09  1.1744924743563589e-09  1.2590683808984254e-09 
 1.3502376782227604e-09  1.4485300649585756e-09  1.5545182963293976e-09  1.6688217045884802e-09 
 1.7921100085956624e-09  1.9251074363988431e-09  2.0685971866643869e-09  2.2234262569478081e-09 
 2.3905106691227631e-09  2.5708411248080136e-09  2.7654891263651978e-09  2.9756136020025862e-09 
 3.2024680767313529e-09  3.4474084344020203e-09  3.7119013198228064e-09  3.9975332340534109e-09 
 4.3060203804044856e-09  4.6392193234839105e-09  4.9991385288481192e-09  5.3879508564748092e-09 
 5.8080070874098565e-09  6.2618505695977083e-09  6.7522330761248789e-09  7.2821319769393611e-09 
 7.8547688336071809e-09  8.4736295358884018e-09  9.1424861089208794e-09  9.8654203306586083e-09 
 1.0646849310996777e-08  1.1491553196806837e-08  1.2404705180990790e-08  1.3391904008737680e-08 
 1.4459209190532069e-08  1.5613179149234969e-08  1.6860912547856178e-08  1.8210093065595534e-08 
 1.9669037912495198e-08  2.1246750397773962e-08  2.2952976893778855e-08  2.4798268566679158e-08 
 2.6794048276745652e-08  2.8952683085527527e-08  3.1287562844704660e-08  3.3813185382117383e-08 
 3.6545248844750478e-08  3.9500751806585775e-08  4.2698101801585426e-08  4.6157232998996490e-08 
 4.9899733800092222e-08  5.3948985202825408e-08  5.8330310854161371e-08  6.3071139789605236e-08 
 6.8201182946230076e-08  7.3752624629978794e-08  7.9760330220848753e-08  8.6262071511533918e-08 
 9.3298771197018524e-08  1.0091476816539934e-07  1.0915810538484746e-07  1.1808084233918724e-07 
 1.2773939413625476e-07  1.3819489960029427e-07  1.4951362086357875e-07  1.6176737719474101e-07 
 1.7503401604368899e-07  1.8939792454728713e-07  2.0495058502827284e-07  2.2179117833435836e-07 
 2.4002723920758221e-07  2.5977536824840887e-07  2.8116200544774721e-07  3.0432427070619259e-07 
 3.2941087724690850e-07  3.5658312436052611e-07  3.8601597650147672e-07  4.1789923638995304e-07 
 4.5243882046731374e-07  4.8985814581079218e-07  5.3039963844202986e-07  5.7432637386993884e-07 
 6.2192386169915918e-07  6.7350198721905309e-07  7.2939712407372130e-07  7.8997443341079336e-07 
 8.5563036632655952e-07  9.2679538797923474e-07  1.0039369434439919e-06  1.0875626872470438e-06 
 1.1782240005576361e-06  1.2765198222535048e-06  1.3831008225265377e-06  1.4986739503820992e-06 
 1.6240073893310853e-06  1.7599359588038551e-06  1.9073670023580896e-06  2.0672868076393856e-06 
 2.2407676073184587e-06  2.4289752149099938e-06  2.6331773545171816e-06  2.8547527491888919e-06 
 3.0952010387740680e-06  3.3561536049662829e-06  3.6393853887123579e-06  3.9468277933808501e-06 
 4.2805827761244363e-06  4.6429382398078581e-06  5.0363848488024543e-06  5.4636344039706337e-06 
 5.9276399253913882e-06  6.4316176059349844e-06  6.9790708148186955e-06  7.5738163479168288e-06 
 8.2200131410257153e-06  8.9221936836821740e-06  9.6852983947077360e-06  1.0514713246627129e-05 
 1.1416310954738365e-05  1.2396496078171690e-05  1.3462254415070900e-05  1.4621207112404614e-05 
 1.5881669953240812e-05  1.7252718331012715e-05  1.8744258471828097e-05  2.0367105522734858e-05 
 2.2133069186621167e-05  2.4055047653718834e-05  2.6147130656187867e-05  2.8424712556752363e-05 
 3.0904616475680834e-05  3.3605230563493605e-05  3.6546657640677835e-05  3.9750879551540857e-05 
 4.3241937718411799e-05  4.7046131536113121e-05  5.1192236416528289e-05  5.5711743480910574e-05 
 6.0639123105218456e-05  6.6012114753334362e-05  7.1872045786856137e-05  7.8264182220824104e-05 
 8.5238114705112676e-05  9.2848183354417155e-05  1.0115394542929151e-04  1.1022069029037595e-04 
 1.2012000651203747e-04  1.3093040655481189e-04  1.4273801496344170e-04  1.5563732668463738e-04 
 1.6973204279222166e-04  1.8513599167393829e-04  2.0197414458152151e-04  2.2038373538196354e-04 
 2.4051549538246824e-04  2.6253501524439108e-04  2.8662424726358957e-04  3.1298316268812742e-04 
 3.4183158028243030e-04  3.7341118404423767e-04  4.0798774985284177e-04  4.4585360289132770e-04 
 4.8733032996061418e-04  5.3277177330934465e-04  5.8256733536320973e-04  6.3714562677396865e-04 
 6.9697849354809747e-04  7.6258546268543280e-04  8.3453864978926223e-04  9.1346817653307978e-04 
 1.0000681507197945e-03  1.0951032669829937e-03  1.1994160919953536e-03  1.3139351044071357e-03 
 1.4396835666804935e-03  1.5777893135574313e-03  1.7294955501466953e-03  1.8961727615847543e-03 
 2.0793318459663948e-03  2.2806385927991472e-03  2.5019296406607280e-03  2.7452300600755994e-03 
 3.0127727209194946e-03  3.3070196179487404e-03  3.6306853433688609e-03  3.9867629117308102e-03 
 4.3785521598908124e-03  4.8096909632959813e-03  5.2841895294528556e-03  5.8064680500709001e-03 
 6.3813980149967694e-03  7.0143475135897443e-03  7.7112308725240429e-03  8.4785630029924723e-03 
 9.3235188547367252e-03  1.0253998399001601e-02  1.1278697587104619e-02  1.2407185755463953e-02 
 1.3649989971200274e-02  1.5018686834300302e-02  1.6526002272192024e-02  1.8185919879723692e-02 
 2.0013798371140715e-02  2.2026498719783669e-02  2.4242521564826772e-02  2.6682155461251699e-02 
 2.9367636538084746e-02  3.2323320109256343e-02  3.5575864749676202e-02  3.9154429304526076e-02 
 4.3090883240500047e-02  4.7420030671796551e-02  5.2179848299012621e-02  5.7411737383545026e-02 
 6.3160789741443013e-02  6.9476067576600561e-02  7.6410896781441959e-02  8.4023173111532984e-02 
 9.2375680386567183e-02  1.0153641958166487e-01  1.1157894734764087e-01  1.2258272213460103e-01 
 1.3463345568764043e-01  1.4782346723418532e-01  1.6225203718714287e-01  1.7802575664379894e-01 
 1.9525886836437217e-01  2.1407359426307282e-01  2.3460044373499789e-01  2.5697849637078390e-01 
 2.8135565177455585e-01  3.0788883829722202e-01  3.3674417152637082e-01  3.6809705233881040e-01 
 4.0213219323003757e-01  4.3904356050128734e-01  4.7903421873348118e-01  5.2231606284448562e-01 
 5.6910942196250836e-01  6.1964251842227824e-01  6.7415076448895950e-01  7.3287587904427665e-01 
 7.9606480655552092e-01  8.6396842133129004e-01  9.3684000149644187e-01  1.0149334594376904e+00 
 1.0985013188054782e+00  1.1877924325904723e+00  1.2830494423399221e+00  1.3845059851623347e+00 
 1.4923836625965439e+00  1.6068887933811338e+00  1.7282089802389549e+00  1.8565095285222708e+00 
 1.9919297615052178e+00  2.1345792829368642e+00  2.2845342420521768e+00  2.4418336596833399e+00 
 2.6064758767202463e+00  2.7784151883246220e+00  2.9575587293258225e+00  3.1437636782069123e+00 
 3.3368348487703243e+00  3.5365227393072662e+00  3.7425221078824915e+00  3.9544711379248247e+00 
 4.1719512493131354e+00  4.3944875953020883e+00  4.6215502640971957e+00  4.8525561756829854e+00 
 5.0868716310655540e+00  5.3238154357809631e+00  5.5626624878643636e+00  5.8026476996653029e+00 
 6.0429701203325568e+00  6.2827971466836914e+00  6.5212687548642201e+00  6.7575017474292398e+00 
 6.9905940777837854e+00  7.2196293705937782e+00  7.4436817885412720e+00  7.6618213942412554e+00 
 7.8731201288896662e+00  8.0766585300196088e+00  8.2715330089447292e+00  8.4568631154050333e+00 
 8.6318004340494205e+00  8.7955367770635018e+00  8.9473125148326957e+00  9.0864246745051442e+00 
 9.2122345661638381e+00  9.3241747497124425e+00  9.4217551862862940e+00  9.5045684507070920e+00 
 9.5722939134372353e+00  9.6247008300826611e+00  9.6616503031264749e+00  9.6830961042638339e+00 
 9.6890843667912172e+00  9.6797521764089627e+00  9.6553251058945975e+00  9.6161137546345774e+00 
 9.5625093680561211e+00  9.4949786245424050e+00  9.4140576883158875e+00  9.3203456358547392e+00 
 9.2144973704749393e+00  9.0972161445886925e+00  8.9692458117086122e+00  8.8313629304346222e+00 
 8.6843688404359511e+00  8.5290818258968120e+00  8.3663294751776558e+00  8.1969413367657733e+00 
 8.0217419612211494e+00  7.8415444070808036e+00  7.6571442759178900e+00  7.4693143283264831e+00 
 7.2787997188922713e+00  7.0863138745712959e+00  6.8925350276624329e+00  6.6981033984232390e+00 
 6.5036190306910999e+00  6.3096402323885616e+00  6.1166826011814415e+00  5.9252186024675364e+00 
 5.7356776452094991e+00  5.5484466083318473e+00  5.3638707650140223e+00  5.1822550507571599e+00 
 5.0038656209763364e+00  4.8289316449238822e+00  4.6576472848223389e+00  4.4901738120071926e+00 
 4.3266418154740638e+00  4.1671534623170698e+00  4.0117847739671291e+00  3.8605878867343764e+00 
 3.7135932697839249e+00  3.5708118782063174e+00  3.4322372231781455e+00  3.2978473452597035e+00 
 3.1676066805822507e+00  3.0414678129931518e+00  2.9193731081283656e+00  2.8012562278599664e+00 
 2.6870435256284688e+00  2.5766553248343862e+00  2.4700070837596559e+00  2.3670104514530022e+00 
 2.2675742196848994e+00  2.1716051765004596e+00  2.0790088671160705e+00  1.9896902679598529e+00 
 1.9035543795866015e+00  1.8205067440401526e+00  1.7404538920211203e+00  1.6633037249714417e+00 
 1.5889658369301334e+00  1.5173517807625538e+00  1.4483752831298478e+00  1.3819524123526499e+00 
 1.3180017031371776e+00  1.2564442419725061e+00  1.1972037168738396e+00  1.1402064350334795e+00 
 1.0853813118444589e+00  1.0326598346756530e+00  9.8197600469532853e-01  9.3326625896484827e-01 
 8.8646938095418326e-01  8.4152639238333926e-01  7.9838043949510618e-01  7.5697667141884506e-01 
 7.1726211428392184e-01  6.7918554354097049e-01  6.4269735675436768e-01  6.0774944891534011e-01 
 5.7429509209393170e-01  5.4228882100265563e-01  5.1168632578935358e-01  4.8244435311609168e-01 
 4.5452061632029772e-01  4.2787371519918621e-01  4.0246306558846079e-01  3.7824883942028692e-01 
 3.5519191387459537e-01  3.3325383054254726e-01  3.1239676347940132e-01  2.9258349565127456e-01 
 2.7377740304651743e-01  2.5594244564727642e-01  2.3904316440943779e-01  2.2304468320696821e-01 
 2.0791271570320277e-01  1.9361357462354165e-01  1.8011418430309842e-01  1.6738209490099382e-01 
 1.5538549776591237e-01  1.4409324133591983e-01  1.3347484703573129e-01  1.2350052471625139e-01 
 1.1414118726228023e-01  1.0536846407261873e-01  9.7154713190449729e-02  8.9473031929186042e-02 
 8.2297265898741812e-02  7.5602016388504681e-02  6.9362646105692233e-02  6.3555283301123977e-02 
 5.8156824338949212e-02  5.3144934783070849e-02  4.8498049081695450e-02  4.4195368933634099e-02 
 4.0216860416866944e-02  3.6543249952727806e-02  3.3156019169165649e-02  3.0037398715156656e-02 
 2.7170361066628845e-02  2.4538612353233017e-02  2.2126583225768031e-02  1.9919418776672755e-02 
 1.7902967521113311e-02  1.6063769444028105e-02  1.4389043119030361e-02  1.2866671908136973e-02 
 1.1485189256601011e-02  1.0233763104249902e-02  9.1021794432293232e-03  8.0808250614210243e-03 
 7.1606695205596186e-03  6.3332464277527185e-03  5.5906340683170071e-03  4.9254354762016872e-03 
 4.3307580255261798e-03  3.8001926326853498e-03  3.3277926629384745e-03  2.9080526383235689e-03 
 2.5358868451126762e-03  2.2066079388822885e-03  1.9159056436958463e-03  1.6598256389933142e-03 
 1.4347487236930764e-03  1.2373703418862164e-03  1.0646805485051453e-03  9.1394448664302728e-04 
 7.8268344095181179e-04  6.6865652391346448e-04  5.6984304391128552e-04  4.8442559606523311e-04 
 4.1077390886397021e-04  3.4742947184041500e-04  2.9309096199698541e-04  2.4660047947743739e-04 
 2.0693059617671368e-04  1.7317221463767143e-04  1.4452322875050378e-04  1.2027797248167391e-04 
 9.9817438134473712e-05  8.2600241506571620e-05  6.8154307743838793e-05  5.6069248710005019e-05 
 4.5989400271828889e-05  3.7607486022909528e-05  3.0658872609204617e-05  2.4916380944117844e-05 
 2.0185617174998289e-05  1.6300787247174967e-05  1.3120959265076458e-05  1.0526738529960723e-05 
 8.4173210971366853e-06  6.7078928992898830e-06  5.3273428845157879e-06  4.2162601773072083e-06 
 3.3251869494880773e-06  2.6131004499009087e-06  2.0460994533857615e-06  1.5962722211712832e-06 
 1.2407248898070617e-06  9.6075100051408536e-07  7.4112462601518853e-07  5.6950123083075692e-07 
 4.3591200064679017e-07  3.3233888662785900e-07  2.5235902427471684e-07  1.9084849904574298e-07 
 1.4373664022195130e-07  1.0780313025153576e-07  8.0511220507496021e-08  5.9871249135428919e-08 
 4.4329466554528452e-08  3.2677894290835462e-08  2.3981578888045886e-08  1.7520160814000461e-08 
 1.2741164955619743e-08  9.2228409342684498e-09  6.6447444785402761e-09  4.7645616502298438e-09 
 3.3999417756496142e-09  2.4143280555099002e-09  1.7059622003217042e-09  1.1993958250642344e-09 
 8.3897106020676126e-10  5.8383978199744294e-10  4.0417849141405672e-10  2.7832722692067518e-10 
 1.9063864441875048e-10  1.2986984472886053e-10  8.7986654647702768e-11  5.9279558049815535e-11 
 3.9713752311020349e-11  2.6454065689720162e-11  1.7519704153518012e-11  1.1534819564797986e-11 
 7.5493742756387763e-12  4.9112629639328294e-12  3.1755795835967732e-12  2.0406354161210464e-12 
 1.3031216803376904e-12  8.2688602460315207e-13  5.2132791169143132e-13  3.2654637301252741e-13 
 2.0319363106255260e-13  1.2559398747220622e-13  7.7105051707181048e-14  4.7012487889722648e-14 
 2.8465625883207902e-14  1.7114550900433025e-14  1.0216618791795453e-14  6.0548507106145069e-15 
 3.5621808635600469e-15  2.0801807581837579e-15  1.2056361251164283e-15  6.9345523407651180e-16 
 3.9578923736611591e-16  2.2413450149444481e-16  1.2592381915319727e-16  7.0180461443779371e-17 
 3.8796087477839368e-17  2.1270456835807455e-17  1.1564754628248660e-17  6.2347687131762637e-18 
 3.3325977081267245e-18  1.7659577819235506e-18  9.2762700296131170e-19  4.8298367935451428e-19 
 2.4925733261518265e-19  1.2575491185162837e-19  6.3795447113066177e-20  3.2095003335253620e-20 
 1.6029174892616900e-20  7.9649895957573608e-21  0.0000000000000000e+00  0.0000000000000000e+00 
 0.0000000000000000e+00  0.0000000000000000e+00  0.0000000000000000e+00  0.0000000000000000e+00 
 0.0000000000000000e+00  0.0000000000000000e+00  0.0000000000000000e+00  0.0000000000000000e+00 
 0.0000000000000000e+00  0.0000000000000000e+00  0.0000000000000000e+00  0.0000000000000000e+00 
 0.0000000000000000e+00  0.0000000000000000e+00  0.0000000000000000e+00  0.0000000000000000e+00 
 0.0000000000000000e+00  0.0000000000000000e+00  0.0000000000000000e+00  0.0000000000000000e+00 
 0.0000000000000000e+00  0.0000000000000000e+00  0.0000000000000000e+00  0.0000000000000000e+00 
 0.0000000000000000e+00  0.0000000000000000e+00  0.0000000000000000e+00  0.0000000000000000e+00 
 0.0000000000000000e+00  0.0000000000000000e+00  0.0000000000000000e+00  0.0000000000000000e+00 
 0.0000000000000000e+00  0.0000000000000000e+00  0.0000000000000000e+00  0.0000000000000000e+00 
 0.0000000000000000e+00  0.0000000000000000e+00  0.0000000000000000e+00  0.0000000000000000e+00 
 0.0000000000000000e+00  0.0000000000000000e+00  0.0000000000000000e+00  0.0000000000000000e+00 
 0.0000000000000000e+00  0.0000000000000000e+00  0.0000000000000000e+00  0.0000000000000000e+00 
 0.0000000000000000e+00  0.0000000000000000e+00  0.0000000000000000e+00  0.0000000000000000e+00 
 0.0000000000000000e+00  0.0000000000000000e+00  0.0000000000000000e+00  0.0000000000000000e+00 
 0.0000000000000000e+00  0.0000000000000000e+00  0.0000000000000000e+00  0.0000000000000000e+00 
 0.0000000000000000e+00  0.0000000000000000e+00  0.0000000000000000e+00  0.0000000000000000e+00 
 0.0000000000000000e+00  0.0000000000000000e+00  0.0000000000000000e+00  0.0000000000000000e+00 
 0.0000000000000000e+00  0.0000000000000000e+00  0.0000000000000000e+00  0.0000000000000000e+00 
 0.0000000000000000e+00  0.0000000000000000e+00  0.0000000000000000e+00  0.0000000000000000e+00 
 0.0000000000000000e+00  0.0000000000000000e+00  0.0000000000000000e+00  0.0000000000000000e+00 
 0.0000000000000000e+00  0.0000000000000000e+00  0.0000000000000000e+00  0.0000000000000000e+00 
 0.0000000000000000e+00  0.0000000000000000e+00  0.0000000000000000e+00  0.0000000000000000e+00 
 0.0000000000000000e+00  0.0000000000000000e+00  0.0000000000000000e+00  0.0000000000000000e+00 
 0.0000000000000000e+00  0.0000000000000000e+00  0.0000000000000000e+00  0.0000000000000000e+00 
 0.0000000000000000e+00  0.0000000000000000e+00  0.0000000000000000e+00  0.0000000000000000e+00 
 0.0000000000000000e+00 
</PP_RHOATOM>


<PP_ADDINFO>
 6S  6  0   0.50  1.50 
 6P  6  1   0.50  0.17 
 6P  6  1   1.50  0.33 
 5D  5  2   1.50  3.80 
 5D  5  2   2.50  5.70 
  1   0.50 
  1   1.50 
  2   1.50 
  2   2.50 
 -6.28070760,  117.78291693,   81.00000000,    0.01300000 
</PP_ADDINFO>
