  <PP_INFO>

############################################################
#    Opium Parameter File                                  #
############################################################
#-----------------------------------------------------------
#Command line   : opium Tl Tl.log ae ps nl tc2 ke upf qmcpack rpt 
 
#Opium version  : 4.1 
#Compile Host   : py-garuda.cos.ncsu.edu 
#Compile OS     : Linux 5.15.0-113-generic x86_64 
#Compile Date   : Sat Jul 13 02:11:52 EDT 2024 
#-----------------------------------------------------------
#Execution Host : py-garuda.cos.ncsu.edu 
#Execution Date : Fri Jan 23 17:52:47 2026
 
#-----------------------------------------------------------
############################################################
[Atom]
Tl
15
100   2.00  -
200   2.00  -
210   6.00  -
300   2.00  -
310   6.00  -
320   10.00  -
400   2.00  -
410   6.00  -
420   10.00  -
430   14.00  -
500   2.00  -
510   6.00  -
520   10.00  -
600   2.00  -
610   0.50  -

[Pseudo]
2 -1 -1
g

[Gaussinfo]
3 5
2 2 2 2 4
2 0.2799128 -1.0635224  
2 2.1048015 51.7062697
2 0.4781879 -2.9665997
2 1.0059051 19.7301107
2 0.4329228 2.7924102
2 0.7778788 -3.9697644
2 0.9382001 -7.2111924
2 0.4399336 2.7943249
1 0.9719772 3.0
3 0.8644574 2.91593160
2 0.9730732 0.8002987
2 0.8799441 -6.0335309

[KBdesign]
s

[Relativity]
nrl

[XC]
pbe

[Configs]
7

600   2.00 -
610   1.00 -

600   1.00 -
610   2.00 -

600   2.00 -
610   0.00 -

600   0.00 -
610   2.00 -

600   1.00 -
610   1.00 -

600   1.00 -
610   0.00 -

600   0.00 -
610   1.00 -
############################################################
  </PP_INFO>



<PP_HEADER>
   0         Version Number
   Tl        Element
   NC        Norm - Conserving pseudopotential
    F      Nonlinear Core Correction
SLA  PW   PBE  PBE     PBE  Exchange-Correlation functional
 3          Z valence
 0          Total energy
 0.000000   0.000000     Suggested cutoff for wfc and rho
 1           Max angular momentum component
 1189           Number of points in mesh
 2  1     Number of Wavefuncitons, Number of Projectors
 Wavefunctions         nl  l   occ
                      6S  0  2.000000
                      6P  1  0.500000
</PP_HEADER>
<PP_MESH>
  <PP_R>
 2.3112042478354488e-05  2.3414460488598028e-05  2.3720835598392826e-05  2.4031219585861634e-05 
 2.4345664906637075e-05  2.4664224702726803e-05  2.4986952811494510e-05  2.5313903774758726e-05 
 2.5645132848010410e-05  2.5980696009751310e-05  2.6320649970954424e-05  2.6665052184648326e-05 
 2.7013960855626835e-05  2.7367434950285787e-05  2.7725534206588507e-05  2.8088319144161564e-05 
 2.8455851074522903e-05  2.8828192111443519e-05  2.9205405181444849e-05  2.9587554034433531e-05 
 2.9974703254475282e-05  3.0366918270709726e-05  3.0764265368408128e-05  3.1166811700175742e-05 
 3.1574625297300686e-05  3.1987775081251538e-05  3.2406330875325119e-05  3.2830363416446834e-05 
 3.3259944367125367e-05  3.3695146327563830e-05  3.4136042847929360e-05  3.4582708440783273e-05 
 3.5035218593673902e-05  3.5493649781894043e-05  3.5958079481405639e-05  3.6428586181933306e-05 
 3.6905249400229282e-05  3.7388149693511949e-05  3.7877368673080241e-05  3.8372989018106078e-05 
 3.8875094489607405e-05  3.9383769944604003e-05  3.9899101350458379e-05  4.0421175799404708e-05 
 4.0950081523267445e-05  4.1485907908372764e-05  4.2028745510655072e-05  4.2578686070961162e-05 
 4.3135822530554639e-05  4.3700249046823256e-05  4.4272061009191553e-05  4.4851355055242200e-05 
 4.5438229087047747e-05  4.6032782287716386e-05  4.6635115138154121e-05  4.7245329434046292e-05 
 4.7863528303061270e-05  4.8489816222279296e-05  4.9124299035849338e-05  4.9767083972877066e-05 
 5.0418279665546639e-05  5.1077996167480074e-05  5.1746344972336391e-05  5.2423439032654337e-05 
 5.3109392778941651e-05  5.3804322139014108e-05  5.4508344557587534e-05  5.5221579016126399e-05 
 5.5944146052951625e-05  5.6676167783612271e-05  5.7417767921523126e-05  5.8169071798872564e-05 
 5.8930206387804010e-05  5.9701300321874597e-05  6.0482483917794462e-05  6.1273889197450583e-05 
 6.2075649910218867e-05  6.2887901555568016e-05  6.3710781405959413e-05  6.4544428530046176e-05 
 6.5388983816176506e-05  6.6244589996203882e-05  6.7111391669609141e-05  6.7989535327938176e-05 
 6.8879169379559304e-05  6.9780444174744714e-05  7.0693512031079803e-05  7.1618527259205552e-05 
 7.2555646188897136e-05  7.3505027195484087e-05  7.4466830726616147e-05  7.5441219329379269e-05 
 7.6428357677766468e-05  7.7428412600508086e-05  7.8441553109266304e-05  7.9467950427198467e-05 
 8.0507778017894311e-05  8.1561211614691401e-05  8.2628429250374959e-05  8.3709611287265497e-05 
 8.4804940447700533e-05  8.5914601844915204e-05  8.7038783014326720e-05  8.8177673945228461e-05 
 8.9331467112898263e-05  9.0500357511127694e-05  9.1684542685176092e-05  9.2884222765156379e-05 
 9.4099600499857394e-05  9.5330881291009066e-05  9.6578273227995617e-05  9.7841987123023323e-05 
 9.9122236546748258e-05  1.0041923786437006e-04  1.0173321027219856e-04  1.0306437583469782e-04 
 1.0441295952201636e-04  1.0577918924800707e-04  1.0716329590874537e-04  1.0856551342155127e-04 
 1.0998607876452184e-04  1.1142523201658124e-04  1.1288321639805412e-04  1.1436027831177130e-04 
 1.1585666738471167e-04  1.1737263651019015e-04  1.1890844189059705e-04  1.2046434308069708e-04 
 1.2204060303149453e-04  1.2363748813467275e-04  1.2525526826761492e-04  1.2689421683901396e-04 
 1.2855461083507942e-04  1.3023673086634831e-04  1.3194086121510960e-04  1.3366728988344829e-04 
 1.3541630864191838e-04  1.3718821307885285e-04  1.3898330265031886e-04  1.4080188073072660e-04 
 1.4264425466409980e-04  1.4451073581601840e-04  1.4640163962623939e-04  1.4831728566200731e-04 
 1.5025799767206158e-04  1.5222410364135099e-04  1.5421593584646391e-04  1.5623383091178369e-04 
 1.5827812986637924e-04  1.6034917820163946e-04  1.6244732592966241e-04  1.6457292764240772e-04 
 1.6672634257162408e-04  1.6890793464955988e-04  1.7111807257046865e-04  1.7335712985291958e-04 
 1.7562548490292223e-04  1.7792352107787908e-04  1.8025162675137333e-04  1.8261019537880487e-04 
 1.8499962556388537e-04  1.8742032112600311e-04  1.8987269116846971e-04  1.9235715014765911e-04 
 1.9487411794305213e-04  1.9742401992819676e-04  2.0000728704259749e-04  2.0262435586454515e-04 
 2.0527566868489946e-04  2.0796167358183768e-04  2.1068282449657991e-04  2.1343958131010758e-04 
 2.1623240992088352e-04  2.1906178232359032e-04  2.2192817668889787e-04  2.2483207744427639e-04 
 2.2777397535586496e-04  2.3075436761141286e-04  2.3377375790430496e-04  2.3683265651868685e-04 
 2.3993158041570511e-04  2.4307105332087395e-04  2.4625160581258679e-04  2.4947377541178448e-04 
 2.5273810667279843e-04  2.5604515127538132e-04  2.5939546811794192e-04  2.6278962341200088e-04 
 2.6622819077788110e-04  2.6971175134165161e-04  2.7324089383333889e-04  2.7681621468642395e-04 
 2.8043831813864020e-04  2.8410781633409231e-04  2.8782532942670886e-04  2.9159148568505067e-04 
 2.9540692159848937e-04  2.9927228198477511e-04  3.0318822009901326e-04  3.0715539774406548e-04 
 3.1117448538239611e-04  3.1524616224938156e-04  3.1937111646810360e-04  3.2355004516564285e-04 
 3.2778365459089554e-04  3.3207266023393099e-04  3.3641778694691094e-04  3.4081976906659173e-04 
 3.4527935053842889e-04  3.4979728504230535e-04  3.5437433611990531e-04  3.5901127730375462e-04 
 3.6370889224794986e-04  3.6846797486059739e-04  3.7328932943798591e-04  3.7817377080051401e-04 
 3.8312212443039764e-04  3.8813522661117764e-04  3.9321392456905446e-04  3.9835907661607052e-04 
 4.0357155229516780e-04  4.0885223252714237e-04  4.1420200975952182e-04  4.1962178811739162e-04 
 4.2511248355619368e-04  4.3067502401652547e-04  4.3631034958096425e-04  4.4201941263294326e-04 
 4.4780317801770608e-04  4.5366262320536873e-04  4.5959873845611399e-04  4.6561252698754785e-04 
 4.7170500514424560e-04  4.7787720256951610e-04  4.8413016237941486e-04  4.9046494133903236e-04 
 4.9688261004109027e-04  5.0338425308687367e-04  5.0997096926953193e-04  5.1664387175977700e-04 
 5.2340408829401196e-04  5.3025276136492113e-04  5.3719104841455363e-04  5.4422012202993476e-04 
 5.5134117014123563e-04  5.5855539622253587e-04  5.6586401949521329e-04  5.7326827513399657e-04 
 5.8076941447571153e-04  5.8836870523076010e-04  5.9606743169736745e-04  6.0386689497862961e-04 
 6.1176841320240464e-04  6.1977332174407897e-04  6.2788297345224878e-04  6.3609873887735403e-04 
 6.4442200650330600e-04  6.5285418298214378e-04  6.6139669337176167e-04  6.7005098137674771e-04 
 6.7881850959237229e-04  6.8770075975177177e-04  6.9669923297636363e-04  7.0581545002954037e-04 
 7.1505095157368092e-04  7.2440729843052773e-04  7.3388607184496878e-04  7.4348887375227154e-04 
 7.5321732704881417e-04  7.6307307586635776e-04  7.7305778584991071e-04  7.8317314443922433e-04 
 7.9342086115397655e-04  8.0380266788268183e-04  8.1432031917538729e-04  8.2497559254019468e-04 
 8.3577028874366299e-04  8.4670623211514353e-04  8.5778527085509379e-04  8.6900927734743063e-04 
 8.8038014847596530e-04  8.9189980594498277e-04  9.0357019660401217e-04  9.1539329277685248e-04 
 9.2737109259489635e-04  9.3950562033482169e-04  9.5179892676069847e-04  9.6425308947057080e-04 
 9.7687021324757923e-04  9.8965243041567222e-04  1.0026019011999746e-03  1.0157208140918685e-03 
 1.0290113862188579e-03  1.0424758637192649e-03  1.0561165221218338e-03  1.0699356667303013e-03 
 1.0839356330129963e-03  1.0981187869975419e-03  1.1124875256707193e-03  1.1270442773835632e-03 
 1.1417915022617589e-03  1.1567316926214112e-03  1.1718673733902500e-03  1.1872011025343490e-03 
 1.2027354714904306e-03  1.2184731056038203e-03  1.2344166645721409e-03  1.2505688428948052e-03 
 1.2669323703283937e-03  1.2835100123479892e-03  1.3003045706145508e-03  1.3173188834483956e-03 
 1.3345558263088897e-03  1.3520183122804018e-03  1.3697092925646238e-03  1.3876317569793298e-03 
 1.4057887344636631e-03  1.4241832935900339e-03  1.4428185430827157e-03  1.4616976323432271e-03 
 1.4808237519825852e-03  1.5002001343605322e-03  1.5198300541318073e-03  1.5397168287995735e-03 
 1.5598638192760820e-03  1.5802744304506747e-03  1.6009521117652194e-03  1.6219003577970733e-03 
 1.6431227088496763e-03  1.6646227515508649e-03  1.6864041194590280e-03  1.7084704936771852e-03 
 1.7308256034750987e-03  1.7534732269195317e-03  1.7764171915127501e-03  1.7996613748393791e-03 
 1.8232097052217238e-03  1.8470661623836684e-03  1.8712347781232501e-03  1.8957196369940546e-03 
 1.9205248769955073e-03  1.9456546902722070e-03  1.9711133238224090e-03  1.9969050802157778e-03 
 2.0230343183205300e-03  2.0495054540400960e-03  2.0763229610594176e-03  2.1034913716010063e-03 
 2.1310152771909082e-03  2.1588993294346780e-03  2.1871482408035115e-03  2.2157667854306655e-03 
 2.2447597999182959e-03  2.2741321841548584e-03  2.3038889021431974e-03  2.3340349828394795e-03 
 2.3645755210030882e-03  2.3955156780576647e-03  2.4268606829633927e-03  2.4586158331007042e-03 
 2.4907864951655531e-03  2.5233781060763983e-03  2.5563961738930543e-03  2.5898462787475682e-03 
 2.6237340737872775e-03  2.6580652861301957e-03  2.6928457178329221e-03  2.7280812468711956e-03 
 2.7637778281332879e-03  2.7999414944263929e-03  2.8365783574961878e-03  2.8736946090597306e-03 
 2.9112965218518754e-03  2.9493904506853832e-03  2.9879828335248890e-03  3.0270801925749487e-03 
 3.0666891353822970e-03  3.1068163559525418e-03  3.1474686358814665e-03  3.1886528455011345e-03 
 3.2303759450409949e-03  3.2726449858041739e-03  3.3154671113591687e-03  3.3588495587471121e-03 
 3.4027996597048721e-03  3.4473248419041136e-03  3.4924326302066028e-03  3.5381306479359258e-03 
 3.5844266181658431e-03  3.6313283650255112e-03  3.6788438150217829e-03  3.7269809983787997e-03 
 3.7757480503951154e-03  3.8251532128185930e-03  3.8752048352392720e-03  3.9259113765004686e-03 
 3.9772814061283428e-03  4.0293236057801661e-03  4.0820467707115482e-03  4.1354598112628453e-03 
 4.1895717543650440e-03  4.2443917450653134e-03  4.2999290480725616e-03  4.3561930493231813e-03 
 4.4131932575672975e-03  4.4709393059757692e-03  4.5294409537682189e-03  4.5887080878623627e-03 
 4.6487507245449242e-03  4.7095790111644151e-03  4.7712032278460423e-03  4.8336337892291008e-03 
 4.8968812462270549e-03  4.9609562878106727e-03  5.0258697428144858e-03  5.0916325817668903e-03 
 5.1582559187441932e-03  5.2257510132489105e-03  5.2941292721126647e-03  5.3634022514239422e-03 
 5.4335816584811254e-03  5.5046793537710421e-03  5.5767073529734154e-03  5.6496778289915443e-03 
 5.7236031140095534e-03  5.7984957015765580e-03  5.8743682487181099e-03  5.9512335780752658e-03 
 6.0291046800716227e-03  6.1079947151087633e-03  6.1879170157903771e-03  6.2688850891754987e-03 
 6.3509126190612461e-03  6.4340134682953996e-03  6.5182016811192690e-03  6.6034914855412005e-03 
 6.6898972957411410e-03  6.7774337145066589e-03  6.8661155357008768e-03  6.9559577467626470e-03 
 7.0469755312394730e-03  7.1391842713535610e-03  7.2325995506014578e-03  7.3272371563876922e-03 
 7.4231130826928901e-03  7.5202435327767969e-03  7.6186449219166428e-03  7.7183338801814052e-03 
 7.8193272552422987e-03  7.9216421152200848e-03  8.0252957515696156e-03  8.1303056820021431e-03 
 8.2366896534458427e-03  8.3444656450450926e-03  8.4536518711989996e-03  8.5642667846396407e-03 
 8.6763290795506681e-03  8.7898576947266441e-03  8.9048718167737389e-03  9.0213908833523242e-03 
 9.1394345864619798e-03  9.2590228757694869e-03  9.3801759619803679e-03  9.5029143202545602e-03 
 9.6272586936667209e-03  9.7532300967119179e-03  9.8808498188570921e-03  1.0010139428139029e-02 
 1.0141120774809423e-02  1.0273815995027608e-02  1.0408247514601629e-02  1.0544438052778255e-02 
 1.0682410626082590e-02  1.0822188552207896e-02  1.0963795453956380e-02  1.1107255263231476e-02 
 1.1252592225082403e-02  1.1399830901801623e-02  1.1548996177075950e-02  1.1700113260191932e-02 
 1.1853207690296286e-02  1.2008305340712093e-02  1.2165432423311397e-02  1.2324615492945145e-02 
 1.2485881451930981e-02  1.2649257554599799e-02  1.2814771411901798e-02  1.2982450996072807e-02 
 1.3152324645361643e-02  1.3324421068819347e-02  1.3498769351151104e-02  1.3675398957631573e-02 
 1.3854339739084653e-02  1.4035621936928307e-02  1.4219276188285439e-02  1.4405333531161645e-02 
 1.4593825409690704e-02  1.4784783679448719e-02  1.4978240612837776e-02  1.5174228904540076e-02 
 1.5372781677043364e-02  1.5573932486238781e-02  1.5777715327091837e-02  1.5984164639387659e-02 
 1.6193315313551396e-02  1.6405202696544781e-02  1.6619862597839853e-02  1.6837331295470839e-02 
 1.7057645542165253e-02  1.7280842571555124e-02  1.7506960104469664e-02  1.7736036355310115e-02 
 1.7968110038508098e-02  1.8203220375068430e-02  1.8441407099197577e-02  1.8682710465018820e-02 
 1.8927171253375306e-02  1.9174830778722132e-02  1.9425730896108492e-02  1.9679914008251420e-02 
 1.9937423072701833e-02  2.0198301609104536e-02  2.0462593706553085e-02  2.0730344031040997e-02 
 2.1001597833010380e-02  2.1276400954999372e-02  2.1554799839389675e-02  2.1836841536255321e-02 
 2.2122573711314389e-02  2.2412044653984536e-02  2.2705303285544043e-02  2.3002399167399625e-02 
 2.3303382509462432e-02  2.3608304178633643e-02  2.3917215707401088e-02  2.4230169302548392e-02 
 2.4547217853977957e-02  2.4868414943649594e-02  2.5193814854635944e-02  2.5523472580296441e-02 
 2.5857443833571345e-02  2.6195785056397341e-02  2.6538553429246364e-02  2.6885806880789259e-02 
 2.7237604097685855e-02  2.7594004534503065e-02  2.7955068423763007e-02  2.8320856786122336e-02 
 2.8691431440684895e-02  2.9066855015449308e-02  2.9447190957893266e-02  2.9832503545696262e-02 
 3.0222857897602737e-02  3.0618319984427253e-02  3.1018956640203675e-02  3.1424835573480407e-02 
 3.1836025378763205e-02  3.2252595548107839e-02  3.2674616482864398e-02  3.3102159505575310e-02 
 3.3535296872029004e-02  3.3974101783471322e-02  3.4418648398976730e-02  3.4869011847981239e-02 
 3.5325268242979692e-02  3.5787494692388754e-02  3.6255769313578531e-02  3.6730171246074542e-02 
 3.7210780664932497e-02  3.7697678794288085e-02  3.8190947921084031e-02  3.8690671408976827e-02 
 3.9196933712425247e-02  3.9709820390963560e-02  4.0229418123661161e-02  4.0755814723771565e-02 
 4.1289099153573067e-02  4.1829361539403580e-02  4.2376693186892168e-02  4.2931186596389975e-02 
 4.3492935478602994e-02  4.4062034770429248e-02  4.4638580651003609e-02  4.5222670557952128e-02 
 4.5814403203859273e-02  4.6413878592950583e-02  4.7021198037993622e-02  4.7636464177420082e-02 
 4.8259780992671919e-02  4.8891253825774507e-02  4.9530989397139534e-02  5.0179095823601208e-02 
 5.0835682636688181e-02  5.1500860801134592e-02  5.2174742733633421e-02  5.2857442321835181e-02 
 5.3549074943595149e-02  5.4249757486472566e-02  5.4959608367484918e-02  5.5678747553120508e-02 
 5.6407296579613388e-02  5.7145378573483042e-02  5.7893118272343135e-02  5.8650642045982485e-02 
 5.9418077917721801e-02  6.0195555586049998e-02  6.0983206446543474e-02  6.1781163614072397e-02 
 6.2589561945297204e-02  6.3408538061459963e-02  6.4238230371473581e-02  6.5078779095313163e-02 
 6.5930326287713656e-02  6.6793015862177313e-02  6.7666993615295531e-02  6.8552407251388725e-02 
 6.9449406407468758e-02  7.0358142678527955e-02  7.1278769643159018e-02  7.2211442889510133e-02 
 7.3156320041579931e-02  7.4113560785855750e-02  7.5083326898301814e-02  7.6065782271699273e-02 
 7.7061092943344567e-02  7.8069427123110158e-02  7.9090955221872331e-02  8.0125849880311129e-02 
 8.1174285998086973e-02  8.2236440763399157e-02  8.3312493682931019e-02  8.4402626612187101e-02 
 8.5507023786227071e-02  8.6625871850801880e-02  8.7759359893897437e-02  8.8907679477690835e-02 
 9.0071024670924843e-02  9.1249592081705980e-02  9.2443580890731944e-02  9.3653192884952954e-02 
 9.4878632491675177e-02  9.6120106813108813e-02  9.7377825661369030e-02  9.8652001593934655e-02 
 9.9942849949570964e-02  1.0125058888472238e-01  1.0257543941038154e-01  1.0391762542944052e-01 
 1.0527737377453107e-01  1.0665491424635984e-01  1.0805047965254527e-01  1.0946430584696257e-01 
 1.1089663176960365e-01  1.1234769948695851e-01  1.1381775423292505e-01  1.1530704445025422e-01 
 1.1681582183253759e-01  1.1834434136674345e-01  1.1989286137631125e-01  1.2146164356480825e-01 
 1.2305095306015819e-01  1.2466105845944844e-01  1.2629223187432373e-01  1.2794474897697350e-01 
 1.2961888904672125e-01  1.3131493501722341e-01  1.3303317352428573e-01  1.3477389495430547e-01 
 1.3653739349334740e-01  1.3832396717686191e-01  1.4013391794005373e-01  1.4196755166890970e-01 
 1.4382517825189420e-01  1.4570711163232114e-01  1.4761366986141122e-01  1.4954517515204244e-01 
 1.5150195393320631e-01  1.5348433690517424e-01  1.5549265909538668e-01  1.5752725991507383e-01 
 1.5958848321661673e-01  1.6167667735165928e-01  1.6379219522998037e-01  1.6593539437913662e-01 
 1.6810663700488523e-01  1.7030629005239770e-01  1.7253472526827451e-01  1.7479231926337099e-01 
 1.7707945357644558e-01  1.7939651473864082e-01  1.8174389433880797e-01  1.8412198908968644e-01 
 1.8653120089494954e-01  1.8897193691712583e-01  1.9144460964641263e-01  1.9394963697038636e-01 
 1.9648744224462700e-01  1.9905845436426609e-01  2.0166310783647109e-01  2.0430184285387820e-01 
 2.0697510536898575e-01  2.0968334716952144e-01  2.1242702595479543e-01  2.1520660541305262e-01 
 2.1802255529983719e-01  2.2087535151738219e-01  2.2376547619503837e-01  2.2669341777075494e-01 
 2.2965967107362703e-01  2.3266473740752283e-01  2.3570912463580546e-01  2.3879334726716170e-01 
 2.4191792654255734e-01  2.4508339052332673e-01  2.4829027418041674e-01  2.5153911948479812e-01 
 2.5483047549905985e-01  2.5816489847020213e-01  2.6154295192364330e-01  2.6496520675845708e-01 
 2.6843224134385590e-01  2.7194464161693649e-01  2.7550300118170490e-01  2.7910792140939683e-01 
 2.8276001154011077e-01  2.8645988878577122e-01  2.9020817843443869e-01  2.9400551395598518e-01 
 2.9785253710915222e-01  3.0174989805000813e-01  3.0569825544182833e-01  3.0969827656640969e-01 
 3.1375063743684262e-01  3.1785602291175924e-01  3.2201512681107602e-01  3.2622865203325108e-01 
 3.3049731067407551e-01  3.3482182414701933e-01  3.3920292330515239e-01  3.4364134856465983e-01 
 3.4813785002997427e-01  3.5269318762054563e-01  3.5730813119926869e-01  3.6198346070259241e-01 
 3.6671996627233050e-01  3.7151844838919756e-01  3.7637971800809294e-01  3.8130459669515115e-01 
 3.8629391676659275e-01  3.9134852142938470e-01  3.9646926492374562e-01  4.0165701266751375e-01 
 4.0691264140240541e-01  4.1223703934218536e-01  4.1763110632277822e-01  4.2309575395434218e-01 
 4.2863190577533306e-01  4.3424049740858550e-01  4.3992247671943435e-01  4.4567880397590687e-01 
 4.5151045201100998e-01  4.5741840638714149e-01  4.6340366556265244e-01  4.6946724106058907e-01 
 4.7561015763964321e-01  4.8183345346733586e-01  4.8813818029547462e-01  4.9452540363789943e-01 
 5.0099620295055747e-01  5.0755167181393346e-01  5.1419291811786816e-01  5.2092106424879359e-01 
 5.2773724727941962e-01  5.3464261916090150e-01  5.4163834691752288e-01  5.4872561284392485e-01 
 5.5590561470491762e-01  5.6317956593790452e-01  5.7054869585795687e-01  5.7801424986557026e-01 
 5.8557748965714085e-01  5.9323969343819449e-01  6.0100215613940811e-01  6.0886618963545147e-01 
 6.1683312296670378e-01  6.2490430256385987e-01  6.3308109247548194e-01  6.4136487459852665e-01 
 6.4975704891188890e-01  6.5825903371300198e-01  6.6687226585753268e-01  6.7559820100221379e-01 
 6.8443831385085330e-01  6.9339409840356314e-01  7.0246706820924809e-01  7.1165875662140010e-01 
 7.2097071705723781e-01  7.3040452326023819e-01  7.3996176956610293e-01  7.4964407117220500e-01 
 7.5945306441056193e-01  7.6939040702437467e-01  7.7945777844819808e-01  7.8965688009176416e-01 
 7.9998943562752556e-01  8.1045719128196025e-01  8.2106191613068802e-01  8.3180540239744882e-01 
 8.4268946575699211e-01  8.5371594564193054e-01  8.6488670555360936e-01  8.7620363337704044e-01 
 8.8766864169996185e-01  8.9928366813606764e-01  9.1105067565247055e-01  9.2297165290144767e-01 
 9.3504861455652677e-01  9.4728360165297221e-01  9.5967868193272521e-01  9.7223595019385123e-01 
 9.8495752864457586e-01  9.9784556726193541e-01  1.0109022441551312e+00  1.0241297659336346e+00 
 1.0375303680801085e+00  1.0511063153282103e+00  1.0648599020453378e+00  1.0787934526203804e+00 
 1.0929093218565484e+00  1.1072098953693401e+00  1.1216975899897159e+00  1.1363748541725489e+00 
 1.1512441684104191e+00  1.1663080456528232e+00  1.1815690317308685e+00  1.1970297057875248e+00 
 1.2126926807135081e+00  1.2285606035888557e+00  1.2446361561303028e+00  1.2609220551444902e+00 
 1.2774210529871137e+00  1.2941359380280777e+00  1.3110695351227373e+00  1.3282247060893049e+00 
 1.3456043501925048e+00  1.3632114046335557e+00  1.3810488450465648e+00  1.3991196860014166e+00 
 1.4174269815132428e+00  1.4359738255585581e+00  1.4547633525981494e+00  1.4737987381068074e+00 
 1.4930831991099889e+00  1.5126199947275025e+00  1.5324124267243098e+00  1.5524638400685205e+00 
 1.5727776234967168e+00  1.5933572100866471e+00  1.6142060778374261e+00  1.6353277502573267e+00 
 1.6567257969592588e+00  1.6784038342640444e+00  1.7003655258115844e+00  1.7226145831800210e+00 
 1.7451547665130043e+00  1.7679898851551656e+00  1.7911237982959050e+00  1.8145604156216044e+00 
 1.8383036979763729e+00  1.8623576580314403e+00  1.8867263609633065e+00  1.9114139251407665e+00 
 1.9364245228209287e+00  1.9617623808543223e+00  1.9874317813992644e+00  2.0134370626455427e+00 
 2.0397826195475832e+00  2.0664729045672070e+00  2.0935124284261084e+00  2.1209057608681756e+00 
 2.1486575314317906e+00  2.1767724302322304e+00  2.2052552087543082e+00  2.2341106806553865e+00 
 2.2633437225788948e+00  2.2929592749784962e+00  2.3229623429530339e+00  2.3533579970924059e+00 
 2.3841513743345057e+00  2.4153476788333794e+00  2.4469521828387411e+00  2.4789702275869812e+00 
 2.5114072242038725e+00  2.5442686546190463e+00  2.5775600724924566e+00  2.6112871041529599e+00 
 2.6454554495491815e+00  2.6800708832128164e+00  2.7151392552345426e+00  2.7506664922526971e+00 
 2.7866585984548951e+00  2.8231216565927491e+00  2.8600618290098692e+00  2.8974853586833165e+00 
 2.9353985702786765e+00  2.9738078712189462e+00  3.0127197527674019e+00  3.0521407911246401e+00 
 3.0920776485399739e+00  3.1325370744373502e+00  3.1735259065560473e+00  3.2150510721062506e+00 
 3.2571195889397728e+00  3.2997385667360861e+00  3.3429152082038738e+00  3.3866568102983101e+00 
 3.4309707654542572e+00  3.4758645628356089e+00  3.5213457896009732e+00  3.5674221321859241e+00 
 3.6141013776020245e+00  3.6613914147528499e+00  3.7093002357672344e+00  3.7578359373499572e+00 
 3.8070067221501054e+00  3.8568209001473415e+00  3.9072868900563158e+00  3.9584132207494229e+00 
 4.0102085326982442e+00  4.0626815794337743e+00  4.1158412290258051e+00  4.1696964655816418e+00 
 4.2242563907644426e+00  4.2795302253314205e+00  4.3355273106921759e+00  4.3922571104874129e+00 
 4.4497292121883190e+00  4.5079533287168703e+00  4.5669393000873404e+00  4.6266970950692823e+00 
 4.6872368128722783e+00  4.7485686848527262e+00  4.8107030762429668e+00  4.8736504879030313e+00 
 4.9374215580953198e+00  5.0020270642824594e+00  5.0674779249487703e+00  5.1337852014454848e+00 
 5.2009600998601497e+00  5.2690139729104786e+00  5.3379583218629936e+00  5.4078047984767599e+00 
 5.4785652069725668e+00  5.5502515060278679e+00  5.6228758107978232e+00  5.6964503949627918e+00 
 5.7709876928026116e+00  5.8465003012980237e+00  5.9230009822595919e+00  6.0005026644844781e+00 
 6.0790184459414380e+00  6.1585615959844144e+00  6.2391455575950951e+00  6.3207839496547686e+00 
 6.4034905692460118e+00  6.4872793939843838e+00  6.5721645843806922e+00  6.6581604862341477e+00 
 6.7452816330568437e+00  6.8335427485299487e+00  6.9229587489920483e+00  7.0135447459600391e+00 
 7.1053160486830125e+00  7.1982881667295509e+00  7.2924768126088910e+00  7.3878979044263620e+00 
 7.4845675685735920e+00  7.5825021424539063e+00  7.6817181772433827e+00  7.7822324406880474e+00 
 7.8840619199376665e+00  7.9872238244165725e+00  8.0917355887321705e+00  8.1976148756213778e+00 
 8.3048795789356813e+00  8.4135478266652406e+00  8.5236379840025656e+00  8.6351686564462700e+00 
 8.7481586929454505e+00  8.8626271890852006e+00  8.9785934903138180e+00  9.0960771952122190e+00 
 9.2150981588061569e+00  9.3356764959217546e+00  9.4578325845849776e+00  9.5815870694655523e+00 
 9.7069608653659696e+00  9.8339751607561414e+00  9.9626514213543107e+00  1.0093011393754745e+01 
 1.0225077109103067e+01  1.0358870886819501e+01  1.0494415338370922e+01  1.0631733371092251e+01 
 1.0770848192057848e+01  1.0911783312003566e+01  1.1054562549300108e+01  1.1199210033978414e+01 
 1.1345750211807664e+01  1.1494207848426692e+01  1.1644608033529432e+01  1.1796976185105132e+01 
 1.1951338053734059e+01  1.2107719726939408e+01  1.2266147633596153e+01  1.2426648548397596e+01 
 1.2589249596380364e+01  1.2753978257508530e+01  1.2920862371317918e+01  1.3089930141620963e+01 
 1.3261210141273237e+01  1.3434731317002351e+01  1.3610522994300002e+01  1.3788614882378049e+01 
 1.3969037079189455e+01  1.4151820076514904e+01  1.4336994765115982e+01  1.4524592439955802e+01 
 1.4714644805487907e+01  1.4907183981014422e+01  1.5102242506114267e+01  1.5299853346142443e+01 
 1.5500049897801246e+01  1.5702865994784425e+01  1.5908335913495037e+01  1.6116494378838404e+01 
 1.6327376570090614e+01  1.6541018126843905e+01  1.6757455155029856e+01  1.6976724233021368e+01 
 1.7198862417814507e+01  1.7423907251291219e+01  1.7651896766563976e+01  1.7882869494403508e+01 
 1.8116864469750553e+01  1.8353921238312878e+01  1.8594079863248584e+01  1.8837380931936888e+01 
 1.9083865562837477e+01  1.9333575412439632e+01  1.9586552682302273e+01  1.9842840126186147e+01 
 2.0102481057279189e+01  2.0365519355516760e+01  2.0631999474997322e+01  2.0901966451495312e+01 
 2.1175465910072308e+01  2.1452544072787763e+01  2.1733247766510647e+01  2.2017624430833308e+01 
 2.2305722126088853e+01  2.2597589541473479e+01  2.2893276003275073e+01  2.3192831483209424e+01 
 2.3496306606865623e+01  2.3803752662261864e+01  2.4115221608513263e+01  2.4430766084613062e+01 
 2.4750439418328746e+01  2.5074295635214611e+01  2.5402389467742037e+01  2.5734776364549649e+01 
 2.6071512499814130e+01  2.6412654782743797e+01  2.6758260867196430e+01  2.7108389161422863e+01 
 2.7463098837938166e+01  2.7822449843521913e+01  2.8186502909349343e+01  2.8555319561255047e+01 
 2.8928962130131030e+01  2.9307493762460734e+01  2.9690978430990963e+01  3.0079480945543434e+01 
 3.0473066963967771e+01  3.0871803003237869e+01  3.1275756450693393e+01  3.1684995575428466e+01 
 3.2099589539829083e+01  3.2519608411262062e+01  3.2945123173916357e+01  3.3376205740799627e+01 
 3.3812928965891686e+01  3.4255366656457021e+01  3.4703593585518384e+01  3.5157685504493614e+01 
 3.5617719155997797e+01  3.6083772286812959e+01  3.6555923661027457e+01  3.7034253073347308e+01 
 3.7518841362581661e+01  3.8009770425304758e+01  3.8507123229696667e+01  3.9010983829565070e+01 
 3.9521437378550580e+01  4.0038570144517990e+01  4.0562469524135416e+01  4.1093224057645024e+01 
 4.1630923443826227e+01  4.2175658555155053e+01  4.2727521453161856e+01  4.3286605403989881e+01 
 4.3853004894157479e+01  4.4426815646526585e+01  4.5008134636480072e+01  4.5597060108310842e+01 
 4.6193691591825335e+01  4.6798129919164296e+01  4.7410477241843672e+01  4.8030837048018441e+01 
 4.8659314179972370e+01  4.9296014851836581e+01  4.9941046667540043e+01  5.0594518638994927e+01 
 5.1256541204519557e+01  5.1927226247503292e+01  5.2606687115314656e+01  5.3295038638457534e+01 
 5.3992397149977648e+01  5.4698880505123235e+01  5.5414608101262822e+01  5.6139700898063644e+01 
 5.6874281437934165e+01  5.7618473866733979e+01  5.8372403954754816e+01  5.9136199117975977e+01 
 5.9909988439597946e+01  6.0693902691857787e+01  6.1488074358129900e+01  6.2292637655316106e+01 
 6.3107728556528564e+01  6.3933484814069686e+01  6.4770045982712148e+01  6.5617553443284692e+01 
 6.6476150426565241e+01  6.7345982037487559e+01  6.8227195279664173e+01  6.9119939080230367e+01 
 7.0024364315013258e+01  7.0940623834030163e+01  7.1868872487320559e+01  7.2809267151116174e+01 
 7.3761966754353423e+01  7.4727132305532791e+01  7.5704926919929591e+01  7.6695515847160905e+01 
 7.7699066499113144e+01  7.8715748478235014e+01  7.9745733606200815e+01  8.0789195952948759e+01 
 8.1846311866098716e+01  8.2917260000756201e+01  8.4002221349704882e+01  8.5101379273995093e+01 
 8.6214919533932118e+01  8.7343030320470234e+01  8.8485902287017382e+01  8.9643728581656021e+01 
 9.0816704879785718e+01  9.2005029417192631e+01  9.3208903023551926e+01  9.4428529156368413e+01 
 9.5664113935361357e+01  9.6915866177299222e+01  9.8183997431290180e+01  9.9468722014534436e+01 
 1.0077025704854435e+02  1.0208882249583860e+02  1.0342464119711575e+02  1.0477793890891584e+02 
 1.0614894434177319e+02  1.0753788919886904e+02  1.0894500821519007e+02  1.1037053919719916e+02 
 1.1181472306302510e+02  1.1327780388317858e+02  1.1476002892180043e+02  1.1626164867845004e+02 
 1.1778291693044028e+02 
  </PP_R>
  <PP_RAB>
 3.0045655221860832e-07  3.0438798635177436e-07  3.0837086277910673e-07  3.1240585461620125e-07 
 3.1649364378628197e-07  3.2063492113544845e-07  3.2483038654942861e-07  3.2908074907186344e-07 
 3.3338672702413534e-07  3.3774904812676701e-07  3.4216844962240747e-07  3.4664567840042820e-07 
 3.5118149112314886e-07  3.5577665435371520e-07  3.6043194468565058e-07  3.6514814887410032e-07 
 3.6992606396879774e-07  3.7476649744876574e-07  3.7967026735878301e-07  3.8463820244763587e-07 
 3.8967114230817863e-07  3.9476993751922640e-07  3.9993544978930562e-07  4.0516855210228464e-07 
 4.1047012886490893e-07  4.1584107605626997e-07  4.2128230137922650e-07  4.2679472441380880e-07 
 4.3237927677262976e-07  4.3803690225832976e-07  4.4376855702308166e-07  4.4957520973018255e-07 
 4.5545784171776072e-07  4.6141744716462251e-07  4.6745503325827328e-07  4.7357162036513295e-07 
 4.7976824220298069e-07  4.8604594601565529e-07  4.9240579275004310e-07  4.9884885723537900e-07 
 5.0537622836489620e-07  5.1198900927985204e-07  5.1868831755595895e-07  5.2547528539226118e-07 
 5.3235105980247679e-07  5.3931680280884588e-07  5.4637369163851592e-07  5.5352291892249511e-07 
 5.6076569289721028e-07  5.6810323760870234e-07  5.7553679311949019e-07  5.8306761571814854e-07 
 5.9069697813162073e-07  5.9842616974031296e-07  6.0625649679600353e-07  6.1418928264260172e-07 
 6.2222586793979647e-07  6.3036761088963083e-07  6.3861588746604139e-07  6.4697209164740178e-07 
 6.5543763565210626e-07  6.6401395017724091e-07  6.7270248464037305e-07  6.8150470742450632e-07 
 6.9042210612624139e-07  6.9945618780718336e-07  7.0860847924863787e-07  7.1788052720964312e-07 
 7.2727389868837106e-07  7.3679018118695948e-07  7.4643098297980061e-07  7.5619793338534332e-07 
 7.6609268304145209e-07  7.7611690418436973e-07  7.8627229093132793e-07  7.9656055956685753e-07 
 8.0698344883284520e-07  8.1754272022238413e-07  8.2824015827747238e-07  8.3907757089060029e-07 
 8.5005678961029452e-07  8.6117966995065044e-07  8.7244809170491878e-07  8.8386395926319626e-07 
 8.9542920193427086e-07  9.0714577427168125e-07  9.1901565640403741e-07  9.3104085436967210e-07 
 9.4322340045566275e-07  9.5556535354129302e-07  9.6806879944600996e-07  9.8073585128193038e-07 
 9.9356864981096395e-07  1.0065693638066051e-06  1.0197401904204619e-06  1.0330833555535801e-06 
 1.0466011142326260e-06  1.0602957509909882e-06  1.0741695802548743e-06  1.0882249467344513e-06 
 1.1024642258201068e-06  1.1168898239838977e-06  1.1315041791862472e-06  1.1463097612879699e-06 
 1.1613090724676775e-06  1.1765046476446599e-06  1.1918990549072891e-06  1.2074948959470329e-06 
 1.2232948064981460e-06  1.2393014567831179e-06  1.2555175519639429e-06  1.2719458325993032e-06 
 1.2885890751077272e-06  1.3054500922368108e-06  1.3225317335385813e-06  1.3398368858510717e-06 
 1.3573684737862126e-06  1.3751294602240918e-06  1.3931228468136898e-06  1.4113516744801664e-06 
 1.4298190239387839e-06  1.4485280162155561e-06  1.4674818131747034e-06  1.4866836180530268e-06 
 1.5061366760012516e-06  1.5258442746324718e-06  1.5458097445777617e-06  1.5660364600490619e-06 
 1.5865278394094289e-06  1.6072873457507456e-06  1.6283184874789939e-06  1.6496248189071813e-06 
 1.6712099408560323e-06  1.6930775012625279e-06  1.7152311957964247e-06  1.7376747684848277e-06 
 1.7604120123449390e-06  1.7834467700250870e-06  1.8067829344541451e-06  1.8304244494994457e-06 
 1.8543753106332973e-06  1.8786395656082391e-06  1.9032213151411121e-06  1.9281247136060948e-06 
 1.9533539697368005e-06  1.9789133473375630e-06  2.0048071660040308e-06  2.0310398018531879e-06 
 2.0576156882629302e-06  2.0845393166213131e-06  2.1118152370856113e-06  2.1394480593513003e-06 
 2.1674424534311130e-06  2.1958031504442785e-06  2.2245349434160925e-06  2.2536426880879544e-06 
 2.2831313037379888e-06  2.3130057740124282e-06  2.3432711477678533e-06  2.3739325399244630e-06 
 2.4049951323305097e-06  2.4364641746380404e-06  2.4683449851901061e-06  2.5006429519195681e-06 
 2.5333635332596774e-06  2.5665122590665577e-06  2.6000947315537672e-06  2.6341166262390868e-06 
 2.6685836929036930e-06  2.7035017565638898e-06  2.7388767184555387e-06  2.7747145570313983e-06 
 2.8110213289714855e-06  2.8478031702066739e-06  2.8850662969556720e-06  2.9228170067755928e-06 
 2.9610616796262444e-06  2.9998067789483672e-06  3.0390588527559643e-06  3.0788245347429291e-06 
 3.1191105454041664e-06  3.1599236931713614e-06  3.2012708755636281e-06  3.2431590803531983e-06 
 3.2855953867463795e-06  3.3285869665799568e-06  3.3721410855332447e-06  3.4162651043560112e-06 
 3.4609664801124541e-06  3.5062527674414707e-06  3.5521316198334053e-06  3.5986107909235112e-06 
 3.6456981358023225e-06  3.6934016123432000e-06  3.7417292825472149e-06  3.7906893139056587e-06 
 3.8402899807803621e-06  3.8905396658020763e-06  3.9414468612871718e-06  3.9930201706728506e-06 
 4.0452683099711497e-06  4.0982001092419603e-06  4.1518245140853466e-06  4.2061505871533571e-06 
 4.2611875096816416e-06  4.3169445830411029e-06  4.3734312303098425e-06  4.4306569978656926e-06 
 4.4886315569995753e-06  4.5473647055499692e-06  4.6068663695587692e-06  4.6671466049488097e-06 
 4.7282155992233476e-06  4.7900836731877657e-06  4.8527612826938169e-06  4.9162590204066815e-06 
 4.9805876175951691e-06  5.0457579459453094e-06  5.1117810193977080e-06  5.1786679960089163e-06 
 5.2464301798371809e-06  5.3150790228528509e-06  5.3846261268737833e-06  5.4550832455260911e-06 
 5.5264622862305176e-06  5.5987753122148312e-06  5.6720345445525349e-06  5.7462523642282618e-06 
 5.8214413142301791e-06  5.8976141016697933e-06  5.9747835999294817e-06  6.0529628508381222e-06 
 6.1321650668751922e-06  6.2124036334037094e-06  6.2936921109323926e-06  6.3760442374074202e-06 
 6.4594739305341735e-06  6.5439952901293572e-06  6.6296226005039150e-06  6.7163703328771011e-06 
 6.8042531478221554e-06  6.8932858977439741e-06  6.9834836293891972e-06  7.0748615863891515e-06 
 7.1674352118360631e-06  7.2612201508929663e-06  7.3562322534377729e-06  7.4524875767419552e-06 
 7.5500023881842495e-06  7.6487931679998807e-06  7.7488766120657763e-06  7.8502696347221843e-06 
 7.9529893716312602e-06  8.0570531826730271e-06  8.1624786548792338e-06  8.2692836054056020e-06 
 8.3774860845429775e-06  8.4871043787678684e-06  8.5981570138329010e-06  8.7106627578977192e-06 
 8.8246406247008386e-06  8.9401098767730319e-06  9.0570900286927272e-06  9.1756008503840238e-06 
 9.2956623704578512e-06  9.4172948795968603e-06  9.5405189339845931e-06  9.6653553587795302e-06 
 9.7918252516345846e-06  9.9199499862626500e-06  1.0049751216048839e-05  1.0181250877709916e-05 
 1.0314471195001694e-05  1.0449434682474864e-05  1.0586164149280035e-05  1.0724682703022530e-05 
 1.0865013753667618e-05  1.1007181017496865e-05  1.1151208521116219e-05  1.1297120605516597e-05 
 1.1444941930187549e-05  1.1594697477284776e-05  1.1746412555852157e-05  1.1900112806099082e-05 
 1.2055824203733651e-05  1.2213573064352682e-05  1.2373386047889079e-05  1.2535290163117420e-05 
 1.2699312772218530e-05  1.2865481595403738e-05  1.3033824715599669e-05  1.3204370583194290e-05 
 1.3377148020845153e-05  1.3552186228350444e-05  1.3729514787583839e-05  1.3909163667493917e-05 
 1.4091163229168950e-05  1.4275544230968044e-05  1.4462337833719351e-05  1.4651575605986321e-05 
 1.4843289529402865e-05  1.5037512004078346e-05  1.5234275854073249e-05  1.5433614332946536e-05 
 1.5635561129375599e-05  1.5840150372849664e-05  1.6047416639437832e-05  1.6257394957632467e-05 
 1.6470120814269118e-05  1.6685630160523860e-05  1.6903959417989161e-05  1.7125145484829143e-05 
 1.7349225742015564e-05  1.7576238059645221e-05  1.7806220803340108e-05  1.8039212840731288e-05 
 1.8275253548027619e-05  1.8514382816670439e-05  1.8756641060075305e-05  1.9002069220461952e-05 
 1.9250708775773607e-05  1.9502601746686917e-05  1.9757790703713494e-05  2.0016318774394454e-05 
 2.0278229650589064e-05  2.0543567595858768e-05  2.0812377452947851e-05  2.1084704651361952e-05 
 2.1360595215045792e-05  2.1640095770161244e-05  2.1923253552967362e-05  2.2210116417803406e-05 
 2.2500732845176282e-05  2.2795151949953912e-05  2.3093423489665750e-05  2.3395597872911927e-05 
 2.3701726167882409e-05  2.4011860110987689e-05  2.4326052115602250e-05  2.4644355280922710e-05 
 2.4966823400941595e-05  2.5293510973538688e-05  2.5624473209691315e-05  2.5959766042805110e-05 
 2.6299446138166890e-05  2.6643570902521247e-05  2.6992198493772429e-05  2.7345387830813081e-05 
 2.7703198603481807e-05  2.8065691282650812e-05  2.8432927130445650e-05  2.8804968210598651e-05 
 2.9181877398937847e-05  2.9563718394013156e-05  2.9950555727861566e-05  3.0342454776913233e-05 
 3.0739481773040148e-05  3.1141703814749637e-05  3.1549188878524108e-05  3.1962005830309153e-05 
 3.2380224437152191e-05  3.2803915378993177e-05  3.3233150260609705e-05  3.3668001623718389e-05 
 3.4108542959234606e-05  3.4554848719692543e-05  3.5006994331827985e-05  3.5465056209325545e-05 
 3.5929111765732738e-05  3.6399239427543108e-05  3.6875518647450442e-05  3.7358029917776498e-05 
 3.7846854784074377e-05  3.8342075858909981e-05  3.8843776835823554e-05  3.9352042503474331e-05 
 3.9866958759969861e-05  4.0388612627383041e-05  4.0917092266459062e-05  4.1452486991514750e-05 
 4.1994887285532934e-05  4.2544384815454260e-05  4.3101072447669194e-05  4.3665044263712456e-05 
 4.4236395576163332e-05  4.4815222944753476e-05  4.5401624192685835e-05  4.5995698423167034e-05 
 4.6597546036155955e-05  4.7207268745331643e-05  4.7824969595283174e-05  4.8450752978924396e-05 
 4.9084724655136495e-05  4.9726991766641710e-05  5.0377662858110532e-05  5.1036847894506089e-05 
 5.1704658279668451e-05  5.2381206875142158e-05  5.3066608019250124e-05  5.3760977546416983e-05 
 5.4464432806745567e-05  5.5177092685849071e-05  5.5899077624943299e-05  5.6630509641201357e-05 
 5.7371512348374864e-05  5.8122210977684999e-05  5.8882732398986845e-05  5.9653205142210713e-05 
 6.0433759419084010e-05  6.1224527145137392e-05  6.2025641961998551e-05  6.2837239259978307e-05 
 6.3659456200951711e-05  6.4492431741538738e-05  6.5336306656588319e-05  6.6191223562969573e-05 
 6.7057326943674504e-05  6.7934763172235833e-05  6.8823680537464640e-05  6.9724229268511252e-05 
 7.0636561560254629e-05  7.1560831599023543e-05  7.2497195588654397e-05  7.3445811776890079e-05 
 7.4406840482124184e-05  7.5380444120495249e-05  7.6366787233335425e-05  7.7366036514978450e-05 
 7.8378360840931097e-05  7.9403931296413913e-05  8.0442921205274904e-05  8.1495506159281485e-05 
 8.2561864047796200e-05  8.3642175087840192e-05  8.4736621854550489e-05  8.5845389312035601e-05 
 8.6968664844634829e-05  8.8106638288586563e-05  8.9259501964111397e-05  9.0427450707914411e-05 
 9.1610681906113145e-05  9.2809395527596283e-05  9.4023794157818951e-05  9.5254083033039991e-05 
 9.6500470075007566e-05  9.7763165926098361e-05  9.9042383984916351e-05  1.0033834044235826e-04 
 1.0165125431814988e-04  1.0298134749786110e-04  1.0432884477040500e-04  1.0569397386602785e-04 
 1.0707696549479595e-04  1.0847805338558619e-04  1.0989747432558699e-04  1.1133546820031533e-04 
 1.1279227803415868e-04  1.1426815003144637e-04  1.1576333361805860e-04  1.1727808148358022e-04 
 1.1881264962400573e-04  1.2036729738500332e-04  1.2194228750574478e-04  1.2353788616330927e-04 
 1.2515436301766737e-04  1.2679199125725492e-04  1.2845104764514219e-04  1.3013181256580738e-04 
 1.3183457007252250e-04  1.3355960793535890e-04  1.3530721768982118e-04  1.3707769468611732e-04 
 1.3887133813907367e-04  1.4068845117870264e-04  1.4252934090143294e-04  1.4439431842200919e-04 
 1.4628369892607124e-04  1.4819780172342108e-04  1.5013695030198734e-04  1.5210147238249510e-04 
 1.5409169997385172e-04  1.5610796942925719e-04  1.5815062150304816e-04  1.6022000140828688e-04 
 1.6231645887510276e-04  1.6444034820979739e-04  1.6659202835472337e-04  1.6877186294894647e-04 
 1.7098022038970135e-04  1.7321747389465150e-04  1.7548400156496433e-04  1.7778018644921045e-04 
 1.8010641660810048e-04  1.8246308518006800e-04  1.8485059044771068e-04  1.8726933590510137e-04 
 1.8971973032597914e-04  1.9220218783283334e-04  1.9471712796689108e-04  1.9726497575902097e-04 
 1.9984616180156374e-04  2.0246112232110414e-04  2.0511029925219387e-04  2.0779414031203957e-04 
 2.1051309907616815e-04  2.1326763505508215e-04  2.1605821377191809e-04  2.1888530684112091e-04 
 2.2174939204814829e-04  2.2465095343021660e-04  2.2759048135810562e-04  2.3056847261903148e-04 
 2.3358543050060526e-04  2.3664186487588957e-04  2.3973829228956850e-04  2.4287523604524466e-04 
 2.4605322629387896e-04  2.4927280012338772e-04  2.5253450164941038e-04  2.5583888210726845e-04 
 2.5918649994512383e-04  2.6257792091835894e-04  2.6601371818519009e-04  2.6949447240353296e-04 
 2.7302077182913490e-04  2.7659321241499185e-04  2.8021239791206577e-04  2.8387893997131915e-04 
 2.8759345824708703e-04  2.9135658050179897e-04  2.9516894271207253e-04  2.9903118917619511e-04 
 3.0294397262301161e-04  3.0690795432223732e-04  3.1092380419621413e-04  3.1499220093312907e-04 
 3.1911383210171343e-04  3.2328939426744469e-04  3.2751959311026725e-04  3.3180514354385374e-04 
 3.3614676983642746e-04  3.4054520573316541e-04  3.4500119458020270e-04  3.4951548945026033e-04 
 3.5408885326991611e-04  3.5872205894853986e-04  3.6341588950891907e-04  3.6817113821959032e-04 
 3.7298860872890359e-04  3.7786911520084097e-04  3.8281348245261244e-04  3.8782254609405140e-04 
 3.9289715266883554e-04  3.9803815979755428e-04  4.0324643632264778e-04  4.0852286245524527e-04 
 4.1386832992392164e-04  4.1928374212540188e-04  4.2477001427723715e-04  4.3032807357247900e-04 
 4.3595885933637703e-04  4.4166332318512717e-04  4.4744242918669746e-04  4.5329715402375606e-04 
 4.5922848715873599e-04  4.6523743100105377e-04  4.7132500107652090e-04  4.7749222619896899e-04 
 4.8374014864412243e-04  4.9006982432574513e-04  4.9648232297409237e-04  5.0297872831669879e-04 
 5.0956013826152814e-04  5.1622766508252623e-04  5.2298243560759509e-04  5.2982559140903030e-04 
 5.3675828899644984e-04  5.4378170001224654e-04  5.5089701142959822e-04  5.5810542575306966e-04 
 5.6540816122183893e-04  5.7280645201558016e-04  5.8030154846304687e-04  5.8789471725337761e-04 
 5.9558724165017054e-04  6.0338042170835751e-04  6.1127557449391706e-04  6.1927403430646105e-04 
 6.2737715290473492e-04  6.3558629973506852e-04  6.4390286216281392e-04  6.5232824570681566e-04 
 6.6086387427694634e-04  6.6951119041474964e-04  6.7827165553723445e-04  6.8714675018385733e-04 
 6.9613797426673694e-04  7.0524684732414333e-04  7.1447490877730394e-04  7.2382371819056655e-04 
 7.3329485553497403e-04  7.4288992145527953e-04  7.5261053754046073e-04  7.6245834659777222e-04 
 7.7243501293038335e-04  7.8254222261864997e-04  7.9278168380506509e-04  8.0315512698294115e-04 
 8.1366430528886360e-04  8.2431099479897949e-04  8.3509699482915657e-04  8.4602412823907107e-04 
 8.5709424174027751e-04  8.6830920620830504e-04  8.7967091699884192e-04  8.9118129426805340e-04 
 9.0284228329709385e-04  9.1465585482086340e-04  9.2662400536106719e-04  9.3874875756363172e-04 
 9.5103216054053907e-04  9.6347629021612468e-04  9.7608324967792350e-04  9.8885516953209048e-04 
 1.0017942082634792e-03  1.0149025526004320e-03  1.0281824178843403e-03  1.0416360484440446e-03 
 1.0552657179751306e-03  1.0690737299241890e-03  1.0830624178781031e-03  1.0972341459584323e-03 
 1.1115913092209519e-03  1.1261363340604243e-03  1.1408716786206667e-03  1.1557998332099807e-03 
 1.1709233207220229e-03  1.1862446970621777e-03  1.2017665515795153e-03  1.2174915075043884e-03 
 1.2334222223917772e-03  1.2495613885704145e-03  1.2659117335977973e-03  1.2824760207211505e-03 
 1.2992570493444225e-03  1.3162576555013909e-03  1.3334807123349599e-03  1.3509291305827268e-03 
 1.3686058590689039e-03  1.3865138852026779e-03  1.4046562354830885e-03  1.4230359760105133e-03 
 1.4416562130048474e-03  1.4605200933304606e-03  1.4796308050280256e-03  1.4989915778533048e-03 
 1.5186056838229886e-03  1.5384764377676648e-03  1.5586071978920461e-03  1.5790013663425071e-03 
 1.5996623897820564e-03  1.6205937599728297e-03  1.6417990143662083e-03  1.6632817367006555e-03 
 1.6850455576073761e-03  1.7070941552239042e-03  1.7294312558157143e-03  1.7520606344059711e-03 
 1.7749861154135161e-03  1.7982115732992046e-03  1.8217409332206983e-03  1.8455781716958260e-03 
 1.8697273172746244e-03  1.8941924512201748e-03  1.9189777081983458e-03  1.9440872769765517e-03 
 1.9695254011316819e-03  1.9952963797672651e-03  2.0214045682400267e-03  2.0478543788959597e-03 
 2.0746502818160175e-03  2.1017968055715703e-03  2.1292985379897447e-03  2.1571601269287761e-03 
 2.1853862810635081e-03  2.2139817706811698e-03  2.2429514284875687e-03  2.2723001504238228e-03 
 2.3020328964937927e-03  2.3321546916023304e-03  2.3626706264045037e-03  2.3935858581659235e-03 
 2.4249056116343441e-03  2.4566351799226358e-03  2.4887799254033642e-03  2.5213452806150225e-03 
 2.5543367491801510e-03  2.5877599067354591e-03  2.6216204018741241e-03  2.6559239571004164e-03 
 2.6906763697968146e-03  2.7258835132037786e-03  2.7615513374123404e-03  2.7976858703696837e-03 
 2.8342932188978832e-03  2.8713795697259685e-03  2.9089511905354987e-03  2.9470144310198140e-03 
 2.9855757239571515e-03  3.0246415862977966e-03  3.0642186202654710e-03  3.1043135144731017e-03 
 3.1449330450532454e-03  3.1860840768032474e-03  3.2277735643454174e-03  3.2700085533023753e-03 
 3.3127961814877777e-03  3.3561436801126275e-03  3.4000583750073629e-03  3.4445476878599418e-03 
 3.4896191374701267e-03  3.5352803410201744e-03  3.5815390153621637e-03  3.6284029783221587e-03 
 3.6758801500214400e-03  3.7239785542150256e-03  3.7727063196477026e-03  3.8220716814278072e-03 
 3.8720829824189784e-03  3.9227486746501051e-03  3.9740773207437678e-03  4.0260775953633258e-03 
 4.0787582866789540e-03  4.1321282978528696e-03  4.1861966485439881e-03  4.2409724764322634e-03 
 4.2964650387629817e-03  4.3526837139112508e-03  4.4096380029669813e-03  4.4673375313405775e-03 
 4.5257920503896654e-03  4.5850114390670934e-03  4.6450057055904929e-03  4.7057849891337013e-03 
 4.7673595615402966e-03  4.8297398290595680e-03  4.8929363341052084e-03  4.9569597570369647e-03 
 5.0218209179657058e-03  5.0875307785820008e-03  5.1541004440086927e-03  5.2215411646776783e-03 
 5.2898643382312703e-03  5.3590815114484096e-03  5.4292043821961167e-03  5.5002448014064478e-03 
 5.5722147750793295e-03  5.6451264663116112e-03  5.7189921973526464e-03  5.7938244516867890e-03 
 5.8696358761431292e-03  5.9464392830328389e-03  6.0242476523144819e-03  6.1030741337876580e-03 
 6.1829320493153612e-03  6.2638348950753656e-03  6.3457963438411698e-03  6.4288302472926924e-03 
 6.5129506383572464e-03  6.5981717335811350e-03  6.6845079355322854e-03  6.7719738352343163e-03 
 6.8605842146324545e-03  6.9503540490917191e-03  7.0412985099277976e-03  7.1334329669710227e-03 
 7.2267729911639289e-03  7.3213343571927585e-03  7.4171330461534389e-03  7.5141852482524130e-03 
 7.6125073655428305e-03  7.7121160146965285e-03  7.8130280298123050e-03  7.9152604652608684e-03 
 8.0188305985671483e-03  8.1237559333301786e-03  8.2300542021812653e-03  8.3377433697808465e-03 
 8.4468416358545548e-03  8.5573674382690250e-03  8.6693394561479249e-03  8.7827766130287796e-03 
 8.8976980800610922e-03  9.0141232792463211e-03  9.1320718867202253e-03  9.2515638360782006e-03 
 9.3726193217440919e-03  9.4952588023830952e-03  9.6195030043593373e-03  9.7453729252386639e-03 
 9.8728898373373047e-03  1.0002075291316871e-02  1.0132951119826575e-02  1.0265539441192933e-02 
 1.0399862663157832e-02  1.0535943486665483e-02  1.0673804909698943e-02  1.0813470231166834e-02 
 1.0954963054840897e-02  1.1098307293345096e-02  1.1243527172196921e-02  1.1390647233901525e-02 
 1.1539692342099504e-02  1.1690687685768879e-02  1.1843658783482116e-02  1.1998631487718819e-02 
 1.2155631989234847e-02  1.2314686821488638e-02  1.2475822865125427e-02  1.2639067352520066e-02 
 1.2804447872379486e-02  1.2971992374405160e-02  1.3141729174016705e-02  1.3313686957137250e-02 
 1.3487894785041409e-02  1.3664382099266733e-02  1.3843178726589390e-02  1.4024314884064944e-02 
 1.4207821184135130e-02  1.4393728639801422e-02  1.4582068669866307e-02  1.4772873104243136e-02 
 1.4966174189335447e-02  1.5162004593486701e-02  1.5360397412501290e-02  1.5561386175237821e-02 
 1.5765004849275604e-02  1.5971287846655122e-02  1.6180270029693935e-02  1.6391986716878370e-02 
 1.6606473688832477e-02  1.6823767194365010e-02  1.7043903956595583e-02  1.7266921179160961e-02 
 1.7492856552502562e-02  1.7721748260236224e-02  1.7953634985605340e-02  1.8188555918018413e-02 
 1.8426550759672155e-02  1.8667659732261255e-02  1.8911923583775941e-02  1.9159383595388494e-02 
 1.9410081588429856e-02  1.9664059931457530e-02  1.9921361547416028e-02  2.0182029920890764e-02 
 2.0446109105457317e-02  2.0713643731126410e-02  2.0984679011886540e-02  2.1259260753345246e-02 
 2.1537435360470362e-02  2.1819249845432577e-02  2.2104751835550596e-02  2.2393989581340274e-02 
 2.2687011964669053e-02  2.2983868507017152e-02  2.3284609377846762e-02  2.3589285403080855e-02 
 2.3897948073692846e-02  2.4210649554408721e-02  2.4527442692522983e-02  2.4848381026829965e-02 
 2.5173518796672071e-02  2.5502910951106190e-02  2.5836613158190434e-02  2.6174681814392052e-02 
 2.6517174054118582e-02  2.6864147759373690e-02  2.7215661569539407e-02  2.7571774891286281e-02 
 2.7932547908613277e-02  2.8298041593018994e-02  2.8668317713806006e-02  2.9043438848520023e-02 
 2.9423468393525630e-02  2.9808470574720448e-02  3.0198510458389439e-02  3.0593653962201275e-02 
 3.0993967866348573e-02  3.1399519824833931e-02  3.1810378376903634e-02  3.2226612958630753e-02 
 3.2648293914650343e-02  3.3075492510047599e-02  3.3508280942401936e-02  3.3946732353988478e-02 
 3.4390920844139361e-02  3.4840921481766610e-02  3.5296810318049050e-02  3.5758664399285059e-02 
 3.6226561779913631e-02  3.6700581535705733e-02  3.7180803777128298e-02  3.7667309662883112e-02 
 3.8160181413622790e-02  3.8659502325846300e-02  3.9165356785976220e-02  3.9677830284620318e-02 
 4.0197009431019656e-02  4.0722981967685548e-02  4.1255836785228615e-02  4.1795663937381260e-02 
 4.2342554656217044e-02  4.2896601367569120e-02  4.3457897706650359e-02  4.4026538533878029e-02 
 4.4602619950905344e-02  4.5186239316862914e-02  4.5777495264812652e-02  4.6376487718417014e-02 
 4.6983317908826316e-02  4.7598088391787044e-02  4.8220903064974042e-02  4.8851867185549444e-02 
 4.9491087387951369e-02  5.0138671701915438e-02  5.0794729570732104e-02  5.1459371869742497e-02 
 5.2132710925077173e-02  5.2814860532639063e-02  5.3505935977335460e-02  5.4206054052561341e-02 
 5.4915333079937755e-02  5.5633892929308461e-02  5.6361855038998286e-02  5.7099342436336367e-02 
 5.7846479758448144e-02  5.8603393273319308e-02  5.9370210901135423e-02  6.0147062235900668e-02 
 6.0934078567339615e-02  6.1731392903085436e-02  6.2539139991158565e-02  6.3357456342739399e-02 
 6.4186480255239153e-02  6.5026351835671972e-02  6.5877213024334011e-02  6.6739207618791305e-02 
 6.7612481298181940e-02  6.8497181647836219e-02  6.9393458184218909e-02  7.0301462380197868e-02 
 7.1221347690643366e-02  7.2153269578362281e-02  7.3097385540371693e-02  7.4053855134516289e-02 
 7.5022840006433944e-02  7.6004503916874300e-02  7.6999012769374695e-02  7.8006534638298208e-02 
 7.9027239797238691e-02  8.0061300747797381e-02  8.1108892248736228e-02  8.2170191345511984e-02 
 8.3245377400198148e-02  8.4334632121796982e-02  8.5438139596949000e-02  8.6556086321043918e-02 
 8.7688661229738965e-02  8.8836055730889332e-02  8.9998463736896628e-02  9.1176081697480510e-02 
 9.2369108632879157e-02  9.3577746167484155e-02  9.4802198563915585e-02  9.6042672757542705e-02 
 9.7299378391456692e-02  9.8572527851900779e-02  9.9862336304163968e-02  1.0116902172894461e-01 
 1.0249280495918967e-01  1.0383390971741543e-01  1.0519256265351822e-01  1.0656899338307790e-01 
 1.0796343452616385e-01  1.0937612174664813e-01  1.1080729379203334e-01  1.1225719253380151e-01 
 1.1372606300829086e-01  1.1521415345810761e-01  1.1672171537407963e-01  1.1824900353775884e-01 
 1.1979627606448004e-01  1.2136379444698281e-01  1.2295182359960470e-01  1.2456063190305218e-01 
 1.2619049124975759e-01  1.2784167708982982e-01  1.2951446847760603e-01  1.3120914811881168e-01 
 1.3292600241833985e-01  1.3466532152865351e-01  1.3642739939882198e-01  1.3821253382419926e-01 
 1.4002102649675202e-01  1.4185318305604636e-01  1.4370931314090141e-01  1.4558973044171938e-01 
 1.4749475275349963e-01  1.4942470202954700e-01  1.5137990443588259e-01  1.5336069040636671e-01 
 1.5536739469854274e-01  1.5740035645021230e-01  1.5945991923674999e-01  1.6154643112916875e-01 
 1.6366024475294472e-01  1.6580171734761087e-01  1.6797121082713293e-01  1.7016909184107251e-01 
 1.7239573183655207e-01  1.7465150712103056e-01  1.7693679892590003e-01  1.7925199347091464e-01 
 1.8159748202946291e-01  1.8397366099469373e-01  1.8638093194650776e-01  1.8881970171942541e-01 
 1.9129038247134278e-01  1.9379339175318747e-01  1.9632915257948547e-01  1.9889809349985174e-01 
 2.0150064867141618e-01  2.0413725793219750e-01  2.0680836687543547e-01  2.0951442692489924e-01 
 2.1225589541117798e-01  2.1503323564897076e-01  2.1784691701538811e-01  2.2069741502927778e-01 
 2.2358521143158858e-01  2.2651079426678583e-01  2.2947465796533167e-01  2.3247730342724560e-01 
 2.3551923810675718e-01  2.3860097609806741e-01  2.4172303822223160e-01  2.4488595211517952e-01 
 2.4809025231688719e-01  2.5133648036171519e-01  2.5462518486992952e-01  2.5795692164041989e-01 
 2.6133225374462943e-01  2.6475175162171788e-01  2.6821599317496519e-01  2.7172556386943902e-01 
 2.7528105683094001e-01  2.7888307294624093e-01  2.8253222096463843e-01  2.8622911760083297e-01 
 2.8997438763915506e-01  2.9376866403915519e-01  2.9761258804257595e-01  3.0150680928172252e-01 
 3.0545198588925310e-01  3.0944878460940423e-01  3.1349788091067238e-01  3.1759995909996980e-01 
 3.2175571243827367e-01  3.2596584325778993e-01  3.3023106308064648e-01  3.3455209273914543e-01 
 3.3892966249758366e-01  3.4336451217566932e-01  3.4785739127355358e-01  3.5240905909849723e-01 
 3.5702028489319615e-01  3.6169184796578485e-01  3.6642453782154144e-01  3.7121915429631558e-01 
 3.7607650769170337e-01  3.8099741891198952e-01  3.8598271960288250e-01  3.9103325229206465e-01 
 3.9614987053158102e-01  4.0133343904209229e-01  4.0658483385901412e-01  4.1190494248057002e-01 
 4.1729466401777804e-01  4.2275490934640680e-01  4.2828660126091261e-01  4.3389067463039510e-01 
 4.3956807655659191e-01  4.4531976653394123e-01  4.5114671661173894e-01  4.5704991155841695e-01 
 4.6303034902797136e-01  4.6908903972856847e-01  4.7522700759335690e-01  4.8144528995351499e-01 
 4.8774493771356159e-01  4.9412701552896182e-01  5.0059260198605660e-01  5.0714278978434590e-01 
 5.1377868592115750e-01  5.2050141187873389e-01  5.2731210381376037e-01  5.3421191274938529e-01 
 5.4120200476974090e-01  5.4828356121701571e-01  5.5545777889110415e-01  5.6272587025186838e-01 
 5.7008906362404721e-01  5.7754860340484560e-01  5.8510575027424094e-01  5.9276178140804092e-01 
 6.0051799069372935e-01  6.0837568894913585e-01  6.1633620414396773e-01  6.2440088162423968e-01 
 6.3257108433964082e-01  6.4084819307387553e-01  6.4923360667802055e-01  6.5772874230693401e-01 
 6.6633503565875418e-01  6.7505394121754281e-01  6.8388693249909049e-01  6.9283550229994795e-01 
 7.0190116294970939e-01  7.1108544656660200e-01  7.2038990531641667e-01  7.2981611167482729e-01 
 7.3936565869314408e-01  7.4904016026754172e-01  7.5884125141181258e-01  7.6877058853368763e-01 
 7.7882984971477331e-01  7.8902073499415115e-01  7.9934496665568866e-01  8.0980428951910932e-01 
 8.2040047123487125e-01  8.3113530258290591e-01  8.4201059777525789e-01  8.5302819476270098e-01 
 8.6418995554534805e-01  8.7549776648733824e-01  8.8695353863563420e-01  8.9855920804299472e-01 
 9.1031673609517227e-01  9.2222810984239212e-01  9.3429534233516720e-01  9.4652047296451025e-01 
 9.5890556780659442e-01  9.7145271997192628e-01  9.8416404995908469e-01  9.9704170601309172e-01 
 1.0100878644884708e+00  1.0233047302170550e+00  1.0366945368806106e+00  1.0502595473883338e+00 
 1.0640020542592832e+00  1.0779243800098306e+00  1.0920288775461635e+00  1.1063179305619362e+00 
 1.1207939539411176e+00  1.1354593941661131e+00  1.1503167297312260e+00  1.1653684715615282e+00 
 1.1806171634372142e+00  1.1960653824235041e+00  1.2117157393061750e+00  1.2275708790327893e+00 
 1.2436334811596976e+00  1.2599062603048898e+00  1.2763919666067722e+00  1.2930933861889475e+00 
 1.3100133416310764e+00  1.3271546924459017e+00  1.3445203355625046e+00  1.3621132058159060e+00 
 1.3799362764430514e+00  1.3979925595852973e+00  1.4162851067974709e+00  1.4348170095635890e+00 
 1.4535913998193262e+00  1.4726114504813215e+00  1.4918803759834054e+00  1.5114014328198504e+00 
 1.5311779200957236e+00 
  </PP_RAB>
</PP_MESH>


<PP_LOCAL>
9.0819030088903119e+01 9.0819030085943155e+01 9.0819030082939790e+01 9.0819030079900728e+01 
9.0819030076683518e+01 9.0819030073490453e+01 9.0819030070165496e+01 9.0819030066715598e+01 
9.0819030063183689e+01 9.0819030059579532e+01 9.0819030055931748e+01 9.0819030052118194e+01 
9.0819030048185454e+01 9.0819030044205462e+01 9.0819030040095654e+01 9.0819030035881070e+01 
9.0819030031547470e+01 9.0819030027170669e+01 9.0819030022567134e+01 9.0819030017890483e+01 
9.0819030013105191e+01 9.0819030008192357e+01 9.0819030003128390e+01 9.0819029997942891e+01 
9.0819029992623442e+01 9.0819029987159368e+01 9.0819029981576406e+01 9.0819029975773446e+01 
9.0819029969901379e+01 9.0819029963838588e+01 9.0819029957614035e+01 9.0819029951230036e+01 
9.0819029944699409e+01 9.0819029937953331e+01 9.0819029931026634e+01 9.0819029923961111e+01 
9.0819029916692386e+01 9.0819029909255150e+01 9.0819029901576130e+01 9.0819029893701540e+01 
9.0819029885644639e+01 9.0819029877361046e+01 9.0819029868863879e+01 9.0819029860158366e+01 
9.0819029851187153e+01 9.0819029841999736e+01 9.0819029832576689e+01 9.0819029822883024e+01 
9.0819029812966335e+01 9.0819029802749853e+01 9.0819029792312222e+01 9.0819029781559337e+01 
9.0819029770557833e+01 9.0819029759234581e+01 9.0819029747624242e+01 9.0819029735714167e+01 
9.0819029723442497e+01 9.0819029710927936e+01 9.0819029698043835e+01 9.0819029684822496e+01 
9.0819029671243968e+01 9.0819029657314189e+01 9.0819029643032579e+01 9.0819029628325239e+01 
9.0819029613282922e+01 9.0819029597851667e+01 9.0819029581986641e+01 9.0819029565697917e+01 
9.0819029548999310e+01 9.0819029531845572e+01 9.0819029514247873e+01 9.0819029496184470e+01 
9.0819029477641834e+01 9.0819029458612320e+01 9.0819029439081859e+01 9.0819029419052242e+01 
9.0819029398467762e+01 9.0819029377365226e+01 9.0819029355684748e+01 9.0819029333460193e+01 
9.0819029310608741e+01 9.0819029287187519e+01 9.0819029263150071e+01 9.0819029238456721e+01 
9.0819029213148681e+01 9.0819029187158748e+01 9.0819029160487077e+01 9.0819029133101836e+01 
9.0819029104981993e+01 9.0819029076132665e+01 9.0819029046540606e+01 9.0819029016158225e+01 
9.0819028984972050e+01 9.0819028952965851e+01 9.0819028920112089e+01 9.0819028886412767e+01 
9.0819028851809222e+01 9.0819028816289347e+01 9.0819028779851465e+01 9.0819028742435819e+01 
9.0819028704045394e+01 9.0819028664637344e+01 9.0819028624194019e+01 9.0819028582665638e+01 
9.0819028540085498e+01 9.0819028496361483e+01 9.0819028451481216e+01 9.0819028405424845e+01 
9.0819028358161290e+01 9.0819028309647010e+01 9.0819028259845794e+01 9.0819028208740860e+01 
9.0819028156278648e+01 9.0819028102444719e+01 9.0819028047199083e+01 9.0819027990499990e+01 
9.0819027932297175e+01 9.0819027872566451e+01 9.0819027811257556e+01 9.0819027748334975e+01 
9.0819027683759927e+01 9.0819027617473992e+01 9.0819027549440918e+01 9.0819027479631899e+01 
9.0819027407970026e+01 9.0819027334432135e+01 9.0819027258945738e+01 9.0819027181475064e+01 
9.0819027101959492e+01 9.0819027020356089e+01 9.0819026936613582e+01 9.0819026850648157e+01 
9.0819026762410985e+01 9.0819026671870091e+01 9.0819026578933574e+01 9.0819026483547532e+01 
9.0819026385645046e+01 9.0819026285179362e+01 9.0819026182056717e+01 9.0819026076223437e+01 
9.0819025967596176e+01 9.0819025856125137e+01 9.0819025741695796e+01 9.0819025624259638e+01 
9.0819025503737805e+01 9.0819025380027355e+01 9.0819025253066911e+01 9.0819025122753004e+01 
9.0819024989023305e+01 9.0819024851760432e+01 9.0819024710877926e+01 9.0819024566285790e+01 
9.0819024417891512e+01 9.0819024265581291e+01 9.0819024109266707e+01 9.0819023948832992e+01 
9.0819023784170440e+01 9.0819023615171474e+01 9.0819023441718187e+01 9.0819023263699336e+01 
9.0819023080988558e+01 9.0819022893467974e+01 9.0819022701004911e+01 9.0819022503474642e+01 
9.0819022300743086e+01 9.0819022092667936e+01 9.0819021879113137e+01 9.0819021659926960e+01 
9.0819021434975141e+01 9.0819021204100252e+01 9.0819020967137121e+01 9.0819020723933590e+01 
9.0819020474324645e+01 9.0819020218139883e+01 9.0819019955207878e+01 9.0819019685348749e+01 
9.0819019408385358e+01 9.0819019124124523e+01 9.0819018832370048e+01 9.0819018532937733e+01 
9.0819018225617967e+01 9.0819017910201083e+01 9.0819017586476562e+01 9.0819017254220995e+01 
9.0819016913221247e+01 9.0819016563233049e+01 9.0819016204026269e+01 9.0819015835356339e+01 
9.0819015456976970e+01 9.0819015068634059e+01 9.0819014670060511e+01 9.0819014260980865e+01 
9.0819013841139252e+01 9.0819013410226745e+01 9.0819012967967680e+01 9.0819012514062166e+01 
9.0819012048193542e+01 9.0819011570054357e+01 9.0819011079324895e+01 9.0819010575670220e+01 
9.0819010058746272e+01 9.0819009528205711e+01 9.0819008983685450e+01 9.0819008424830173e+01 
9.0819007851250774e+01 9.0819007262562181e+01 9.0819006658368551e+01 9.0819006038254116e+01 
9.0819005401812859e+01 9.0819004748602822e+01 9.0819004078187191e+01 9.0819003390114858e+01 
9.0819002683913993e+01 9.0819001959110778e+01 9.0819001215221519e+01 9.0819000451732705e+01 
9.0818999668133515e+01 9.0818998863891636e+01 9.0818998038467669e+01 9.0818997191301833e+01 
9.0818996321821032e+01 9.0818995429435560e+01 9.0818994513544069e+01 9.0818993573524779e+01 
9.0818992608746996e+01 9.0818991618558343e+01 9.0818990602282170e+01 9.0818989559238219e+01 
9.0818988488720549e+01 9.0818987390004565e+01 9.0818986262345575e+01 9.0818985104982332e+01 
9.0818983917134389e+01 9.0818982697997512e+01 9.0818981446748239e+01 9.0818980162536334e+01 
9.0818978844499981e+01 9.0818977491742928e+01 9.0818976103354274e+01 9.0818974678395179e+01 
9.0818973215899973e+01 9.0818971714878813e+01 9.0818970174325344e+01 9.0818968593182873e+01 
9.0818966970398520e+01 9.0818965304867490e+01 9.0818963595461597e+01 9.0818961841031069e+01 
9.0818960040384809e+01 9.0818958192311086e+01 9.0818956295554528e+01 9.0818954348836073e+01 
9.0818952350838472e+01 9.0818950300212535e+01 9.0818948195569760e+01 9.0818946035488153e+01 
9.0818943818507947e+01 9.0818941543131572e+01 9.0818939207819056e+01 9.0818936810989356e+01 
9.0818934351028815e+01 9.0818931826266535e+01 9.0818929234999629e+01 9.0818926575478869e+01 
9.0818923845901949e+01 9.0818921044423689e+01 9.0818918169153420e+01 9.0818915218145065e+01 
9.0818912189403008e+01 9.0818909080881639e+01 9.0818905890479186e+01 9.0818902616036183e+01 
9.0818899255341123e+01 9.0818895806123351e+01 9.0818892266046930e+01 9.0818888632722036e+01 
9.0818884903691824e+01 9.0818881076435972e+01 9.0818877148364606e+01 9.0818873116824037e+01 
9.0818868979088066e+01 9.0818864732360495e+01 9.0818860373767691e+01 9.0818855900365335e+01 
9.0818851309130594e+01 9.0818846596956149e+01 9.0818841760658401e+01 9.0818836796966153e+01 
9.0818831702525827e+01 9.0818826473890852e+01 9.0818821107530127e+01 9.0818815599811472e+01 
9.0818809947014913e+01 9.0818804145317401e+01 9.0818798190794979e+01 9.0818792079426672e+01 
9.0818785807076665e+01 9.0818779369505165e+01 9.0818772762361860e+01 9.0818765981178757e+01 
9.0818759021371747e+01 9.0818751878235517e+01 9.0818744546941176e+01 9.0818737022532446e+01 
9.0818729299922737e+01 9.0818721373890156e+01 9.0818713239077397e+01 9.0818704889984829e+01 
9.0818696320967106e+01 9.0818687526231969e+01 9.0818678499832814e+01 9.0818669235669716e+01 
9.0818659727477211e+01 9.0818649968828382e+01 9.0818639953126223e+01 9.0818629673598664e+01 
9.0818619123296571e+01 9.0818608295088410e+01 9.0818597181652095e+01 9.0818585775474219e+01 
9.0818574068847511e+01 9.0818562053852133e+01 9.0818549722369838e+01 9.0818537066062021e+01 
9.0818524076372000e+01 9.0818510744518960e+01 9.0818497061490177e+01 9.0818483018035039e+01 
9.0818468604657838e+01 9.0818453811616976e+01 9.0818438628910059e+01 9.0818423046273296e+01 
9.0818407053172706e+01 9.0818390638795037e+01 9.0818373792043857e+01 9.0818356501530403e+01 
9.0818338755564668e+01 9.0818320542150403e+01 9.0818301848973491e+01 9.0818282663396403e+01 
9.0818262972450242e+01 9.0818242762821612e+01 9.0818222020849078e+01 9.0818200732507520e+01 
9.0818178883408535e+01 9.0818156458778319e+01 9.0818133443457839e+01 9.0818109821888015e+01 
9.0818085578098547e+01 9.0818060695700510e+01 9.0818035157871691e+01 9.0818008947347394e+01 
9.0817982046408162e+01 9.0817954436867865e+01 9.0817926100060902e+01 9.0817897016829960e+01 
9.0817867167514677e+01 9.0817836531933182e+01 9.0817805089377273e+01 9.0817772818589290e+01 
9.0817739697752259e+01 9.0817705704474619e+01 9.0817670815776907e+01 9.0817635008071321e+01 
9.0817598257152085e+01 9.0817560538172373e+01 9.0817521825632454e+01 9.0817482093362642e+01 
9.0817441314500513e+01 9.0817399461478260e+01 9.0817356506002739e+01 9.0817312419032376e+01 
9.0817267170764637e+01 9.0817220730607801e+01 9.0817173067167658e+01 9.0817124148221509e+01 
9.0817073940698876e+01 9.0817022410656847e+01 9.0816969523258905e+01 9.0816915242752373e+01 
9.0816859532440105e+01 9.0816802354661064e+01 9.0816743670761269e+01 9.0816683441067084e+01 
9.0816621624862123e+01 9.0816558180356353e+01 9.0816493064659440e+01 9.0816426233750704e+01 
9.0816357642450470e+01 9.0816287244389329e+01 9.0816214991975500e+01 9.0816140836364923e+01 
9.0816064727425726e+01 9.0815986613706684e+01 9.0815906442400490e+01 9.0815824159309699e+01 
9.0815739708808962e+01 9.0815653033807664e+01 9.0815564075712260e+01 9.0815472774384062e+01 
9.0815379068102530e+01 9.0815282893519992e+01 9.0815184185621703e+01 9.0815082877678719e+01 
9.0814978901205720e+01 9.0814872185913231e+01 9.0814762659660502e+01 9.0814650248406920e+01 
9.0814534876161630e+01 9.0814416464932179e+01 9.0814294934671395e+01 9.0814170203225373e+01 
9.0814042186274918e+01 9.0813910797280272e+01 9.0813775947423750e+01 9.0813637545546769e+01 
9.0813495498090461e+01 9.0813349709032195e+01 9.0813200079819865e+01 9.0813046509306361e+01 
9.0812888893680153e+01 9.0812727126395430e+01 9.0812561098101199e+01 9.0812390696565771e+01 
9.0812215806601969e+01 9.0812036309988699e+01 9.0811852085392161e+01 9.0811663008282352e+01 
9.0811468950849587e+01 9.0811269781919137e+01 9.0811065366861044e+01 9.0810855567499601e+01 
9.0810640242021080e+01 9.0810419244876229e+01 9.0810192426683372e+01 9.0809959634126514e+01 
9.0809720709853053e+01 9.0809475492365706e+01 9.0809223815914592e+01 9.0808965510385377e+01 
9.0808700401183501e+01 9.0808428309117531e+01 9.0808149050276754e+01 9.0807862435908248e+01 
9.0807568272287824e+01 9.0807266360591029e+01 9.0806956496757778e+01 9.0806638471354617e+01 
9.0806312069433474e+01 9.0805977070386518e+01 9.0805633247797743e+01 9.0805280369288354e+01 
9.0804918196362394e+01 9.0804546484243545e+01 9.0804164981710755e+01 9.0803773430929084e+01 
9.0803371567274937e+01 9.0802959119157492e+01 9.0802535807835682e+01 9.0802101347230362e+01 
9.0801655443730226e+01 9.0801197795994483e+01 9.0800728094749203e+01 9.0800246022578378e+01 
9.0799751253710738e+01 9.0799243453798510e+01 9.0798722279692711e+01 9.0798187379211569e+01 
9.0797638390902662e+01 9.0797074943799188e+01 9.0796496657169499e+01 9.0795903140261174e+01 
9.0795293992036520e+01 9.0794668800902201e+01 9.0794027144432008e+01 9.0793368589081965e+01 
9.0792692689897891e+01 9.0791998990215475e+01 9.0791287021351920e+01 9.0790556302291051e+01 
9.0789806339358066e+01 9.0789036625887064e+01 9.0788246641879809e+01 9.0787435853655353e+01 
9.0786603713489768e+01 9.0785749659248111e+01 9.0784873114004839e+01 9.0783973485655437e+01 
9.0783050166517882e+01 9.0782102532922877e+01 9.0781129944794145e+01 9.0780131745217773e+01 
9.0779107259998895e+01 9.0778055797208964e+01 9.0776976646719206e+01 9.0775869079723094e+01 
9.0774732348245706e+01 9.0773565684640516e+01 9.0772368301072746e+01 9.0771139388989894e+01 
9.0769878118577083e+01 9.0768583638199715e+01 9.0767255073830654e+01 9.0765891528462475e+01 
9.0764492081504699e+01 9.0763055788164877e+01 9.0761581678813442e+01 9.0760068758333333e+01 
9.0758516005450076e+01 9.0756922372047001e+01 9.0755286782460914e+01 9.0753608132759950e+01 
9.0751885290002718e+01 9.0750117091477733e+01 9.0748302343923498e+01 9.0746439822727837e+01 
9.0744528271106745e+01 9.0742566399261477e+01 9.0740552883513899e+01 9.0738486365419362e+01 
9.0736365450856539e+01 9.0734188709093146e+01 9.0731954671828063e+01 9.0729661832208251e+01 
9.0727308643819669e+01 9.0724893519652724e+01 9.0722414831040339e+01 9.0719870906568957e+01 
9.0717260030960844e+01 9.0714580443927147e+01 9.0711830338992300e+01 9.0709007862287052e+01 
9.0706111111310250e+01 9.0703138133659067e+01 9.0700086925726254e+01 9.0696955431363037e+01 
9.0693741540508825e+01 9.0690443087783905e+01 9.0687057851047015e+01 9.0683583549915269e+01 
9.0680017844245569e+01 9.0676358332577763e+01 9.0672602550536823e+01 9.0668747969194129e+01 
9.0664791993387226e+01 9.0660731959995033e+01 9.0656565136170414e+01 9.0652288717525963e+01 
9.0647899826273999e+01 9.0643395509318694e+01 9.0638772736299174e+01 9.0634028397582881e+01 
9.0629159302207157e+01 9.0624162175768731e+01 9.0619033658258758e+01 9.0613770301843019e+01 
9.0608368568585490e+01 9.0602824828113867e+01 9.0597135355225603e+01 9.0591296327433213e+01 
9.0585303822447315e+01 9.0579153815595674e+01 9.0572842177176838e+01 9.0566364669746989e+01 
9.0559716945338010e+01 9.0552894542605330e+01 9.0545892883903775e+01 9.0538707272289898e+01 
9.0531332888448844e+01 9.0523764787543783e+01 9.0515997895986459e+01 9.0508027008126888e+01 
9.0499846782859947e+01 9.0491451740147340e+01 9.0482836257452789e+01 9.0473994566088223e+01 
9.0464920747469407e+01 9.0455608729278055e+01 9.0446052281529632e+01 9.0436245012542599e+01 
9.0426180364809539e+01 9.0415851610765230e+01 9.0405251848451186e+01 9.0394373997073600e+01 
9.0383210792452289e+01 9.0371754782358380e+01 9.0359998321738161e+01 9.0347933567820633e+01 
9.0335552475106013e+01 9.0322846790232902e+01 9.0309808046721386e+01 9.0296427559589034e+01 
9.0282696419837393e+01 9.0268605488806614e+01 9.0254145392394292e+01 9.0239306515136860e+01 
9.0224078994149949e+01 9.0208452712925023e+01 9.0192417294979393e+01 9.0175962097356503e+01 
9.0159076203973441e+01 9.0141748418813108e+01 9.0123967258957023e+01 9.0105720947456732e+01 
9.0086997406039956e+01 9.0067784247648561e+01 9.0048068768805280e+01 9.0027837941806055e+01 
9.0007078406734053e+01 8.9985776463293604e+01 8.9963918062459371e+01 8.9941488797938348e+01 
8.9918473897441103e+01 8.9894858213759520e+01 8.9870626215647107e+01 8.9845761978499226e+01 
8.9820249174830110e+01 8.9794071064542692e+01 8.9767210484989349e+01 8.9739649840819496e+01 
8.9711371093611234e+01 8.9682355751284462e+01 8.9652584857291913e+01 8.9622038979585398e+01 
8.9590698199354861e+01 8.9558542099537320e+01 8.9525549753092292e+01 8.9491699711042884e+01 
8.9456969990278324e+01 8.9421338061117012e+01 8.9384780834627236e+01 8.9347274649703991e+01 
8.9308795259899668e+01 8.9269317820007672e+01 8.9228816872396848e+01 8.9187266333095948e+01 
8.9144639477627166e+01 8.9100908926588076e+01 8.9056046630981044e+01 8.9010023857291159e+01 
8.8962811172311419e+01 8.8914378427716940e+01 8.8864694744388800e+01 8.8813728496488011e+01 
8.8761447295282935e+01 8.8707817972730638e+01 8.8652806564816387e+01 8.8596378294653618e+01 
8.8538497555347888e+01 8.8479127892630345e+01 8.8418231987264434e+01 8.8355771637232223e+01 
8.8291707739706453e+01 8.8226000272815270e+01 8.8158608277208032e+01 8.8089489837430378e+01 
8.8018602063118522e+01 8.7945901070023055e+01 8.7871341960874560e+01 8.7794878806102517e+01 
8.7716464624422599e+01 8.7636051363306237e+01 8.7553589879349133e+01 8.7469029918556458e+01 
8.7382320096563006e+01 8.7293407878809461e+01 8.7202239560696029e+01 8.7108760247737251e+01 
8.7012913835743532e+01 8.6914642991055715e+01 8.6813889130862535e+01 8.6710592403631040e+01 
8.6604691669683405e+01 8.6496124481955249e+01 8.6384827066972917e+01 8.6270734306089466e+01 
8.6153779717021621e+01 8.6033895435732973e+01 8.5911012198710864e+01 8.5785059325687513e+01 
8.5655964702859336e+01 8.5523654766660144e+01 8.5388054488149749e+01 8.5249087358079365e+01 
8.5106675372702654e+01 8.4960739020400908e+01 8.4811197269198715e+01 8.4657967555246756e+01 
8.4500965772355201e+01 8.4340106262664193e+01 8.4175301808542031e+01 8.4006463625807982e+01 
8.3833501358378783e+01 8.3656323074445766e+01 8.3474835264291485e+01 8.3288942839863125e+01 
8.3098549136222758e+01 8.2903555915001832e+01 8.2703863369991410e+01 8.2499370135007439e+01 
8.2289973294174885e+01 8.2075568394780504e+01 8.1856049462852297e+01 8.1631309021627644e+01 
8.1401238113080069e+01 8.1165726322681635e+01 8.0924661807582794e+01 8.0677931328400902e+01 
8.0425420284813143e+01 8.0167012755158439e+01 7.9902591540258484e+01 7.9632038211676161e+01 
7.9355233164635536e+01 7.9072055675835642e+01 7.8782383966396296e+01 7.8486095270181224e+01 
7.8183065907750603e+01 7.7873171366201163e+01 7.7556286385158757e+01 7.7232285049193706e+01 
7.6901040886934865e+01 7.6562426977164492e+01 7.6216316062179502e+01 7.5862580668709626e+01 
7.5501093236687268e+01 7.5131726256165862e+01 7.4754352412686472e+01 7.4368844741393772e+01 
7.3975076790203687e+01 7.3572922792323396e+01 7.3162257848423991e+01 7.2742958118762843e+01 
7.2314901025548949e+01 7.1877965465838699e+01 7.1432032035242258e+01 7.0976983262712466e+01 
7.0512703856676794e+01 7.0039080962760551e+01 6.9556004433333797e+01 6.9063367109098522e+01 
6.8561065112911095e+01 6.8048998156013312e+01 6.7527069856820304e+01 6.6995188072383755e+01 
6.6453265242618542e+01 6.5901218747344359e+01 6.5338971276155974e+01 6.4766451211092686e+01 
6.4183593022029541e+01 6.3590337674664831e+01 6.2986633050918812e+01 6.2372434381502131e+01 
6.1747704690344854e+01 6.1112415250508775e+01 6.0466546051129278e+01 5.9810086274853511e+01 
5.9143034785155372e+01 5.8465400622816368e+01 5.7777203510764799e+01 5.7078474366362400e+01 
5.6369255820119726e+01 5.5649602739707341e+01 5.4919582758009831e+01 5.4179276803844850e+01 
5.3428779633838481e+01 5.2668200363813014e+01 5.1897662997900696e+01 5.1117306953455113e+01 
5.0327287579679464e+01 4.9527776667739822e+01 4.8718962949974959e+01 4.7901052585657226e+01 
4.7074269630597868e+01 4.6238856487732050e+01 4.5395074335657419e+01 4.4543203531943817e+01 
4.3683543987876050e+01 4.2816415511141223e+01 4.1942158112828167e+01 4.1061132274969296e+01 
4.0173719174728610e+01 3.9280320861223323e+01 3.8381360380865424e+01 3.7477281847023953e+01 
3.6568550449739448e+01 3.5655652401179502e+01 3.4739094812498024e+01 3.3819405497767406e+01 
3.2897132700684828e+01 3.1972844739820712e+01 3.1047129568277811e+01 3.0120594243769542e+01 
2.9193864305307034e+01 2.8267583052909774e+01 2.7342410727027637e+01 2.6419023584684791e+01 
2.5498112869730988e+01 2.4580383675016588e+01 2.3666553694793706e+01 2.2757351866192383e+01 
2.1853516899224779e+01 2.0955795695436962e+01 2.0064941656051261e+01 1.9181712881231132e+01 
1.8306870262940450e+01 1.7441175474771129e+01 1.6585388863064807e+01 1.5740267244655531e+01 
1.4906561617605826e+01 1.4085014792389353e+01 1.3276358952086076e+01 1.2481313151286852e+01 
1.1700580764547977e+01 1.0934846896377428e+01 1.0184775765863739e+01 9.4510080801591858e+00 
8.7341584120877247e+00 8.0348125981483651e+00 7.3535251741081753e+00 6.6908168662106382e+00 
6.0471721567398182e+00 5.4230369432703913e+00 4.8188163113645519e+00 4.2348724407433158e+00 
3.6715226650344595e+00 3.1290377050681917e+00 2.6076400953372465e+00 2.1075028226453942e+00 
1.6287481951253098e+00 1.1714469587026064e+00 7.3561767671165113e-01 3.2122638672643428e-01 
-7.1813453242410924e-02 -4.4364071920969739e-01 -7.9444606879354795e-01 -1.1244710770351032e+00 
-1.4340070584741877e+00 -1.7233935765739079e+00 -1.9930166448261681e+00 -2.2433066272287152e+00 
-2.4747358492637548e+00 -2.6878159339760530e+00 -2.8830948811950430e+00 -3.0611539113138191e+00 
-3.2226040982690392e+00 -3.3680828193989827e+00 -3.4982500526314682e+00 -3.6137845539076592e+00 
-3.7153799498248850e+00 -3.8037407821254789e+00 -3.8795785418215654e+00 -3.9436077313839273e+00 
-3.9965419935037327e+00 -4.0390903444341140e+00 -4.0719535488218490e+00 -4.0958206712466732e+00 
-4.1113658374094060e+00 -4.1192452350755131e+00 -4.1200943815276307e+00 -4.1145256804612220e+00 
-4.1031262870372753e+00 -4.0864562952616446e+00 -4.0650472570789731e+00 -4.0394010376447795e+00 
-4.0099890062729724e+00 -3.9772515576510479e+00 -3.9415979531755845e+00 -3.9034064677872826e+00 
-3.8630248235732036e+00 -3.8207708877404816e+00 -3.7769336094261803e+00 -3.7317741672532443e+00 
-3.6855272976184654e+00 -3.6384027724334000e+00 -3.5905869944429085e+00 -3.5422446783108898e+00 
-3.4935205863615200e+00 -3.4445412891544525e+00 -3.3954169228949933e+00 -3.3462429179640294e+00 
-3.2971016755158304e+00 -3.2480641720461176e+00 -3.1991914749854158e+00 -3.1505361556308480e+00 
-3.1021435890028703e+00 -3.0540531334175771e+00 -3.0062991856240768e+00 -2.9589121102043774e+00 
-2.9119190445167424e+00 -2.8653445827419608e+00 -2.8192113445382634e+00 -2.7735404354104043e+00 
-2.7283518071497417e+00 -2.6836645276142881e+00 -2.6394969697083801e+00 -2.5958669297173933e+00 
-2.5527916851846539e+00 -2.5102880023206748e+00 -2.4683721025456364e+00 -2.4270595972216999e+00 
-2.3863653989677633e+00 -2.3463036171991618e+00 -2.3068874447286585e+00 -2.2681290414297193e+00 
-2.2300394201214075e+00 -2.1926283390054708e+00 -2.1559042041861041e+00 -2.1198739850438195e+00 
-2.0845431445264384e+00 -2.0499155857695444e+00 -2.0159936158705531e+00 -1.9827779271183137e+00 
-1.9502675955247712e+00 -1.9184600961174367e+00 -1.8873513341296155e+00 -1.8569356909675925e+00 
-1.8272060836369302e+00 -1.7981540361695063e+00 -1.7697697615040826e+00 -1.7420422522303065e+00 
-1.7149593786031259e+00 -1.6885079922651485e+00 -1.6626740341720700e+00 -1.6374426452945359e+00 
-1.6127982787626558e+00 -1.5887248122214288e+00 -1.5652056592717420e+00 -1.5422238789785148e+00 
-1.5197622825318378e+00 -1.4978035362467867e+00 -1.4763302601813713e+00 -1.4553251217398799e+00 
-1.4347709237106709e+00 -1.4146506862642438e+00 -1.3949477225103064e+00 -1.3756457072828914e+00 
-1.3567287388916824e+00 -1.3381813936467728e+00 -1.3199887730339586e+00 -1.3021365434888867e+00 
-1.2846109687910010e+00 -1.2673989351719288e+00 -1.2504879693069206e+00 -1.2338662494311305e+00 
-1.2175226098934395e+00 -1.2014465395276617e+00 -1.1856281742825847e+00 -1.1700582846069087e+00 
-1.1547282581310245e+00 -1.1396300782236735e+00 -1.1247562990266724e+00 -1.1101000175845457e+00 
-1.0956548436877152e+00 -1.0814148680380633e+00 -1.0673746293246391e+00 -1.0535290807659308e+00 
-1.0398735566346626e+00 -1.0264037392328877e+00 -1.0131156267309493e+00 -1.0000055022253791e+00 
-9.8706990430984687e-01 -9.7430559939164407e-01 -9.6170955592560481e-01 -9.4927892067937636e-01 
-9.3701099708988145e-01 -9.2490322572187933e-01 -9.1295316679639327e-01 -9.0115848472019378e-01 
-8.8951693451764524e-01 -8.7802635004314711e-01 -8.6668463383587446e-01 -8.5548974846813308e-01 
-8.4443970923382816e-01 -8.3353257802355030e-01 -8.2276645823688144e-01 -8.1213949058985979e-01 
-8.0164984968532582e-01 -7.9129574122533908e-01 -7.8107539975730722e-01 -7.7098708685827588e-01 
-7.6102908967452720e-01 -7.5119971974576827e-01 -7.4149731205448310e-01 -7.3192022425132064e-01 
-7.2246683601645756e-01 -7.1313554852481520e-01 -7.0392478398974123e-01 -6.9483298526539405e-01 
-6.8585861549268123e-01 -6.7700015777731648e-01 -6.6825611489149539e-01 -6.5962500899296483e-01 
-6.5110538135699736e-01 -6.4269579211808670e-01 -6.3439482001913228e-01 -6.2620106216657501e-01 
-6.1811313379043931e-01 -6.1012966800857060e-01 -6.0224931559460082e-01 -5.9447074474933181e-01 
-5.8679264087530736e-01 -5.7921370635445546e-01 -5.7173266032868009e-01 -5.6434823848333593e-01 
-5.5705919283352545e-01 -5.4986429151317051e-01 -5.4276231856681723e-01 -5.3575207374413081e-01 
-5.2883237229705005e-01 -5.2200204477956014e-01 -5.1525993685005356e-01 -5.0860490907624301e-01 
-5.0203583674259544e-01 -4.9555160966025114e-01 -4.8915113197940024e-01 -4.8283332200408080e-01 
-4.7659711200936933e-01 -4.7044144806093552e-01 -4.6436528983692010e-01 -4.5836761045212143e-01 
-4.5244739628444852e-01 -4.4660364680361625e-01 -4.4083537440205350e-01 -4.3514160422799569e-01 
-4.2952137402073143e-01 -4.2397373394797916e-01 -4.1849774644536264e-01 -4.1309248605796045e-01 
-4.0775703928390222e-01 -4.0249050441998402e-01 -3.9729199140927918e-01 -3.9216062169071586e-01 
-3.8709552805059860e-01 -3.8209585447604594e-01 -3.7716075601032550e-01 -3.7228939861004995e-01 
-3.6748095900422423e-01 -3.6273462455511041e-01 -3.5804959312088996e-01 -3.5342507292009967e-01 
-3.4886028239781874e-01 -3.4435445009358412e-01 -3.3990681451101235e-01 -3.3551662398910398e-01 
-3.3118313657521181e-01 -3.2690561989964873e-01 -3.2268335105191570e-01 -3.1851561645852805e-01 
-3.1440171176241993e-01 -3.1034094170390608e-01 -3.0633262000318162e-01 -3.0237606924433846e-01 
-2.9847062076088243e-01 -2.9461561452272400e-01 -2.9081039902463351e-01 -2.8705433117613505e-01 
-2.8334677619282245e-01 -2.7968710748907921e-01 -2.7607470657218397e-01 -2.7250896293778393e-01 
-2.6898927396671812e-01 -2.6551504482317317e-01 -2.6208568835415474e-01 -2.5870062499025753e-01 
-2.5535928264771618e-01 -2.5206109663172210e-01 -2.4880550954098857e-01 -2.4559197117354861e-01 
-2.4241993843376963e-01 -2.3928887524056849e-01 -2.3619825243681405e-01 -2.3314754769989618e-01 
-2.3013624545345329e-01 -2.2716383678023860e-01 -2.2422981933611158e-01 -2.2133369726514110e-01 
-2.1847498111580402e-01 -2.1565318775826708e-01 -2.1286784030273673e-01 -2.1011846801886364e-01 
-2.0740460625618801e-01 -2.0472579636561269e-01 -2.0208158562189035e-01 -1.9947152714711183e-01 
-1.9689517983518273e-01 -1.9435210827727534e-01 -1.9184188268824359e-01 -1.8936407883398809e-01 
-1.8691827795976071e-01 -1.8450406671939210e-01 -1.8212103710543659e-01 -1.7976878638021759e-01 
-1.7744691700776397e-01 -1.7515503658662548e-01 -1.7289275778355606e-01 -1.7065969826805355e-01 
-1.6845548064774490e-01 -1.6627973240460608e-01 -1.6413208583200553e-01 -1.6201217797256079e-01 
-1.5991965055679805e-01 -1.5785414994260369e-01 -1.5581532705545773e-01 -1.5380283732943972e-01 
-1.5181634064899605e-01 -1.4985550129145930e-01 -1.4791998787031174e-01 -1.4600947327917810e-01 
-1.4412363463654532e-01 -1.4226215323119432e-01 -1.4042471446833707e-01 -1.3861100781644936e-01 
-1.3682072675479026e-01 -1.3505356872159927e-01 -1.3330923506296280e-01 -1.3158743098234085e-01 
-1.2988786549074571e-01 -1.2821025135756420e-01 -1.2655430506201493e-01 -1.2491974674523262e-01 
-1.2330630016297132e-01 -1.2171369263891851e-01 -1.2014165501861203e-01 -1.1858992162395225e-01 
-1.1705823020830264e-01 -1.1554632191216810e-01 -1.1405394121944819e-01 -1.1258083591425373e-01 
-1.1112675703828208e-01 -1.0969145884874235e-01 -1.0827469877682430e-01 -1.0687623738670382e-01 
-1.0549583833507747e-01 -1.0413326833122005e-01 -1.0278829709755787e-01 -1.0146069733075126e-01 
-1.0015024466327982e-01 -9.8856717625523727e-02 -9.7579897608334923e-02 -9.6319568826091523e-02 
-9.5075518280229615e-02 -9.3847535723245834e-02 -9.2635413623165672e-02 -9.1438947128469034e-02 
-9.0257934033470696e-02 -8.9092174744146602e-02 -8.7941472244402269e-02 -8.6805632062776444e-02 
-8.5684462239575043e-02 -8.4577773294429420e-02 -8.3485378194273860e-02 -8.2407092321736403e-02 
-8.1342733443938178e-02 -8.0292121681695527e-02 -7.9255079479120125e-02 -7.8231431573611440e-02 
-7.7221004966237058e-02 -7.6223628892495454e-02 -7.5239134793456286e-02 -7.4267356287273503e-02 
-7.3308129141066894e-02 -7.2361291243165538e-02 -7.1426682575711192e-02 -7.0504145187614525e-02 
-6.9593523167861271e-02 -6.8694662619162683e-02 -6.7807411631946687e-02 -6.6931620258684696e-02 
-6.6067140488550141e-02 -6.5213826222404347e-02 -6.4371533248105350e-02 -6.3540119216135754e-02 
-6.2719443615545323e-02 -6.1909367750204260e-02 -6.1109754715363264e-02 -6.0320469374516301e-02 
-5.9541378336562173e-02 -5.8772349933261060e-02 -5.8013254196982653e-02 -5.7263962838740697e-02 
-5.6524349226512255e-02 -5.5794288363836521e-02 -5.5073656868690084e-02 -5.4362332952635060e-02 
-5.3660196400236670e-02 -5.2967128548746363e-02 -5.2283012268047692e-02 -5.1607731940860942e-02 
-5.0941173443203598e-02 
</PP_LOCAL>


<PP_NONLOCAL>
  <PP_BETA>
  1  1      Beta    L
  1189  
 -5.0138046875261464e-10  -5.1458730584479766e-10  -5.2814202355239756e-10  -5.4205378538078020e-10 
 -5.5633199621073245e-10  -5.7098630865652118e-10  -5.8602662959143034e-10  -6.0146312684518049e-10 
 -6.1730623607777125e-10  -6.3356666783438519e-10  -6.5025541478612256e-10  -6.6738375916146719e-10 
 -6.8496328037350256e-10  -7.0300586284803393e-10  -7.2152370405791435e-10  -7.4052932276900302e-10 
 -7.6003556750332314e-10  -7.8005562522515396e-10  -8.0060303025592344e-10  -8.2169167342392046e-10 
 -8.4333581145502699e-10  -8.6555007661080675e-10  -8.8834948658046961e-10  -9.1174945463340517e-10 
 -9.3576580003913688e-10  -9.6041475876175064e-10  -9.8571299443602547e-10  -1.0116776096326851e-09 
 -1.0383261574203886e-09  -1.0656766532322694e-09  -1.0937475870450587e-09  -1.1225579358790104e-09 
 -1.1521271766270905e-09  -1.1824752992220999e-09  -1.2136228201506277e-09  -1.2455907963229794e-09 
 -1.2784008393084490e-09  -1.3120751299455617e-09  -1.3466364333371701e-09  -1.3821081142405250e-09 
 -1.4185141528627426e-09  -1.4558791610723397e-09  -1.4942283990377948e-09  -1.5335877923043793e-09 
 -1.5739839493208150e-09  -1.6154441794276034e-09  -1.6579965113191728e-09  -1.7016697119923459e-09 
 -1.7464933061939270e-09  -1.7924975963805521e-09  -1.8397136832043102e-09  -1.8881734865379540e-09 
 -1.9379097670539665e-09  -1.9889561483720119e-09  -2.0413471397897864e-09  -2.0951181596126137e-09 
 -2.1503055590975793e-09  -2.2069466470283477e-09  -2.2650797149373364e-09  -2.3247440629922364e-09 
 -2.3859800265644410e-09  -2.4488290034972661e-09  -2.5133334820924942e-09  -2.5795370698340683e-09 
 -2.6474845228684170e-09  -2.7172217762613131e-09  -2.7887959750517291e-09  -2.8622555061236721e-09 
 -2.9376500309175708e-09  -3.0150305190032915e-09  -3.0944492825375071e-09  -3.1759600116287150e-09 
 -3.2596178106337869e-09  -3.3454792354106165e-09  -3.4336023315520332e-09  -3.5240466736268271e-09 
 -3.6168734054544368e-09  -3.7121452814404845e-09  -3.8099267090011599e-09  -3.9102837921050766e-09 
 -4.0132843759620741e-09  -4.1189980928891532e-09  -4.2274964093845946e-09  -4.3388526744420069e-09 
 -4.4531421691370651e-09  -4.5704421575203672e-09  -4.6908319388508765e-09  -4.8143929012052432e-09 
 -4.9412085764992443e-09  -5.0713646969585330e-09  -5.2049492530768865e-09  -5.3420525531011449e-09 
 -5.4827672840830007e-09  -5.6271885745389964e-09  -5.7754140587610132e-09  -5.9275439428207626e-09 
 -6.0836810723129168e-09  -6.2439310018826605e-09  -6.4084020665846042e-09  -6.5772054551214491e-09 
 -6.7504552850117657e-09  -6.9282686797377788e-09  -7.1107658479253042e-09  -7.2980701646093623e-09 
 -7.4903082546403850e-09  -7.6876100782874458e-09  -7.8901090190963411e-09  -8.0979419740619607e-09 
 -8.3112494461758266e-09  -8.5301756394115222e-09  -8.7548685562120337e-09  -8.9854800975450321e-09 
 -9.2221661655937184e-09  -9.4650867691526402e-09  -9.7144061317997019e-09  -9.9702928029176066e-09 
 -1.0232919771639591e-08  -1.0502464583796693e-08  -1.0779109461945525e-08  -1.1063041428557586e-08 
 -1.1354452432453628e-08  -1.1653539478568343e-08  -1.1960504761133221e-08  -1.2275555800367478e-08 
 -1.2598905582769719e-08  -1.2930772705104845e-08  -1.3271381522183799e-08  -1.3620962298535984e-08 
 -1.3979751364076817e-08  -1.4347991273875773e-08  -1.4725930972132805e-08  -1.5113825960474144e-08 
 -1.5511938470681062e-08  -1.5920537641968632e-08  -1.6339899702933962e-08  -1.6770308158297295e-08 
 -1.7212053980562016e-08  -1.7665435806723066e-08  -1.8130760140156988e-08  -1.8608341557829800e-08 
 -1.9098502922963083e-08  -1.9601575603301684e-08  -2.0117899695131018e-08  -2.0647824253195053e-08 
 -2.1191707526670602e-08  -2.1749917201357416e-08  -2.2322830648247701e-08  -2.2910835178643361e-08 
 -2.3514328305993130e-08  -2.4133718014626743e-08  -2.4769423035567927e-08  -2.5421873129612492e-08 
 -2.6091509377862902e-08  -2.6778784479915946e-08  -2.7484163059904882e-08  -2.8208121980602958e-08 
 -2.8951150665800908e-08  -2.9713751431175885e-08  -3.0496439823876094e-08  -3.1299744971050184e-08 
 -3.2124209937557371e-08  -3.2970392093099882e-08  -3.3838863489026103e-08  -3.4730211245059044e-08 
 -3.5645037946211599e-08  -3.6583962050156817e-08  -3.7547618305328958e-08  -3.8536658180037468e-08 
 -3.9551750302884307e-08  -4.0593580914782386e-08  -4.1662854332880435e-08  -4.2760293426708065e-08 
 -4.3886640106863337e-08  -4.5042655826572146e-08  -4.6229122096459850e-08  -4.7446841012881929e-08 
 -4.8696635800171778e-08  -4.9979351367171388e-08  -5.1295854878422080e-08  -5.2647036340400525e-08 
 -5.4033809203196892e-08  -5.5457110978042044e-08  -5.6917903871100369e-08  -5.8417175433957914e-08 
 -5.9955939231244853e-08  -6.1535235525843288e-08  -6.3156131982144879e-08  -6.4819724387832165e-08 
 -6.6527137394672876e-08  -6.8279525278826938e-08  -7.0078072721181332e-08  -7.1923995608238939e-08 
 -7.3818541854104081e-08  -7.5762992244119990e-08  -7.7758661300728039e-08  -7.9806898172134785e-08 
 -8.1909087544387487e-08  -8.4066650577474051e-08  -8.6281045866081376e-08  -8.8553770425660327e-08 
 -9.0886360704465318e-08  -9.3280393622250978e-08  -9.5737487636330046e-08  -9.8259303835711684e-08 
 -1.0084754706406027e-07  -1.0350396707223445e-07  -1.0623035970118484e-07  -1.0902856809601031e-07 
 -1.1190048395199374e-07  -1.1484804879345934e-07  -1.1787325528631650e-07  -1.2097814858517691e-07 
 -1.2416482771595620e-07  -1.2743544699489431e-07  -1.3079221748495433e-07  -1.3423740849058408e-07 
 -1.3777334909185084e-07  -1.4140242971898696e-07  -1.4512710376840929e-07  -1.4894988926130751e-07 
 -1.5287337054591952e-07  -1.5690020004464631e-07  -1.6103310004718874e-07  -1.6527486455091442e-07 
 -1.6962836114970304e-07  -1.7409653297254480e-07  -1.7868240067320181e-07  -1.8338906447228029e-07 
 -1.8821970625308976e-07  -1.9317759171271084e-07  -1.9826607256972154e-07  -2.0348858883007634e-07 
 -2.0884867111267067e-07  -2.1434994303615938e-07  -2.1999612366864749e-07  -2.2579103004190462e-07 
 -2.3173857973180583e-07  -2.3784279350673954e-07  -2.4410779804577889e-07  -2.5053782872844677e-07 
 -2.5713723249796601e-07  -2.6391047079992796e-07  -2.7086212259836525e-07  -2.7799688747127178e-07 
 -2.8531958878765891e-07  -2.9283517696829804e-07  -3.0054873283235464e-07  -3.0846547103217861e-07 
 -3.1659074357857295e-07  -3.2493004345892577e-07  -3.3348900835065725e-07  -3.4227342443249353e-07 
 -3.5128923029614938e-07  -3.6054252096106926e-07  -3.7003955199495397e-07  -3.7978674374285825e-07 
 -3.8979068566774545e-07  -4.0005814080543683e-07  -4.1059605033699810e-07  -4.2141153828167840e-07 
 -4.3251191631361582e-07  -4.4390468870560921e-07  -4.5559755740337303e-07  -4.6759842723379368e-07 
 -4.7991541125083626e-07  -4.9255683622290167e-07  -5.0553124826560108e-07  -5.1884741862415218e-07 
 -5.3251434960989628e-07  -5.4654128069589401e-07  -5.6093769477726384e-07  -5.7571332460308280e-07 
 -5.9087815938856800e-07  -6.0644245161870788e-07  -6.2241672405557665e-07  -6.3881177695419963e-07 
 -6.5563869546326391e-07  -6.7290885713351578e-07  -6.9063393942355785e-07  -7.0882592717938212e-07 
 -7.2749712027739805e-07  -7.4666014172743436e-07  -7.6632794634175060e-07  -7.8651382980848690e-07 
 -8.0723143795965136e-07  -8.2849477614937414e-07  -8.5031821876905081e-07  -8.7271651895724466e-07 
 -8.9570481854856751e-07  -9.1929865828588445e-07  -9.4351398830868906e-07  -9.6836717893025781e-07 
 -9.9387503172959509e-07  -1.0200547909180013e-06  -1.0469241549861656e-06  -1.0745012886580496e-06 
 -1.1028048351627594e-06  -1.1318539288322381e-06  -1.1616682080325491e-06  -1.1922678284369701e-06 
 -1.2236734766495332e-06  -1.2559063841880131e-06  -1.2889883418356533e-06  -1.3229417143712488e-06 
 -1.3577894556874601e-06  -1.3935551243075472e-06  -1.4302628993109582e-06  -1.4679375966785231e-06 
 -1.5066046860682776e-06  -1.5462903080332455e-06  -1.5870212916928044e-06  -1.6288251728695674e-06 
 -1.6717302127040550e-06  -1.7157654167597050e-06  -1.7609605546311528e-06  -1.8073461800690311e-06 
 -1.8549536516348825e-06  -1.9038151539001560e-06  -1.9539637192036132e-06  -2.0054332499818468e-06 
 -2.0582585416880103e-06  -2.1124753063142595e-06  -2.1681201965337909e-06  -2.2252308304788105e-06 
 -2.2838458171711851e-06  -2.3440047826229484e-06  -2.4057483966243322e-06  -2.4691184002374221e-06 
 -2.5341576340140159e-06  -2.6009100669567765e-06  -2.6694208262432490e-06  -2.7397362277328402e-06 
 -2.8119038072773898e-06  -2.8859723528564829e-06  -2.9619919375592599e-06  -3.0400139534349881e-06 
 -3.1200911462353077e-06  -3.2022776510716265e-06  -3.2866290290117621e-06  -3.3732023046406043e-06 
 -3.4620560046101351e-06  -3.5532501972049536e-06  -3.6468465329499375e-06  -3.7429082862876257e-06 
 -3.8415003983533910e-06  -3.9426895208773699e-06  -4.0465440612428407e-06  -4.1531342287314453e-06 
 -4.2625320819866376e-06  -4.3748115777272921e-06  -4.4900486207445470e-06  -4.6083211152155894e-06 
 -4.7297090173690969e-06  -4.8542943895379601e-06  -4.9821614556357998e-06  -5.1133966580947783e-06 
 -5.2480887163032335e-06  -5.3863286865825889e-06  -5.5282100237441120e-06  -5.6738286442671380e-06 
 -5.8232829911414473e-06  -5.9766741004176401e-06  -6.1341056695104945e-06  -6.2956841273014788e-06 
 -6.4615187060878100e-06  -6.6317215154266604e-06  -6.8064076179245040e-06  -6.9856951070227564e-06 
 -7.1697051868323116e-06  -7.3585622540709786e-06  -7.5523939821591315e-06  -7.7513314075305085e-06 
 -7.9555090182164108e-06  -8.1650648447632588e-06  -8.3801405535448832e-06  -8.6008815425327213e-06 
 -8.8274370395885691e-06  -9.0599602033463495e-06  -9.2986082267511583e-06  -9.5435424433254446e-06 
 -9.7949284362342803e-06  -1.0052936150223397e-05  -1.0317740006505608e-05  -1.0589519020673329e-05 
 -1.0868456923716914e-05  -1.1154742286230531e-05  -1.1448568645889631e-05  -1.1750134638286063e-05 
 -1.2059644131209414e-05  -1.2377306362465209e-05  -1.2703336081323182e-05  -1.3037953693691313e-05 
 -1.3381385411113490e-05  -1.3733863403691943e-05  -1.4095625957037353e-05  -1.4466917633353052e-05 
 -1.4847989436762038e-05  -1.5239098982988641e-05  -1.5640510673509393e-05  -1.6052495874291066e-05 
 -1.6475333099236362e-05  -1.6909308198461537e-05  -1.7354714551533056e-05  -1.7811853265793971e-05 
 -1.8281033379914010e-05  -1.8762572072800973e-05  -1.9256794878014684e-05  -1.9764035903828402e-05 
 -2.0284638059086341e-05  -2.0818953285010100e-05  -2.1367342793110558e-05  -2.1930177309366162e-05 
 -2.2507837324832469e-05  -2.3100713352852434e-05  -2.3709206193041353e-05  -2.4333727202224631e-05 
 -2.4974698572511803e-05  -2.5632553616694566e-05  -2.6307737061161644e-05  -2.7000705346528637e-05 
 -2.7711926936185942e-05  -2.8441882632973156e-05  -2.9191065904194281e-05  -2.9959983215192991e-05 
 -3.0749154371713729e-05  -3.1559112871279842e-05  -3.2390406263826250e-05  -3.3243596521830338e-05 
 -3.4119260420191267e-05  -3.5017989926114382e-05  -3.5940392599264145e-05  -3.6887092002456083e-05 
 -3.7858728123165293e-05  -3.8855957806136202e-05  -3.9879455197386073e-05  -4.0929912199902163e-05 
 -4.2008038941340802e-05  -4.3114564254043589e-05  -4.4250236167696264e-05  -4.5415822414962017e-05 
 -4.6612110950431710e-05  -4.7839910483241129e-05  -4.9100051023715466e-05  -5.0393384444410026e-05 
 -5.1720785055927011e-05  -5.3083150197896207e-05  -5.4481400845519960e-05  -5.5916482232091801e-05 
 -5.7389364487909299e-05  -5.8901043296012613e-05  -6.0452540565192404e-05  -6.2044905120720728e-05 
 -6.3679213413272837e-05  -6.5356570246517774e-05  -6.7078109523869463e-05  -6.8844995014903269e-05 
 -7.0658421141955334e-05  -7.2519613787435958e-05  -7.4429831122402524e-05  -7.6390364456951982e-05 
 -7.8402539113006257e-05  -8.0467715320081611e-05  -8.2587289134645548e-05  -8.4762693383682894e-05 
 -8.6995398633108608e-05  -8.9286914181680672e-05  -9.1638789081084754e-05  -9.4052613182879323e-05 
 -9.6530018213008629e-05  -9.9072678874608509e-05  -1.0168231397985028e-04  -1.0436068761158701e-04 
 -1.0710961031558614e-04  -1.0993094032415330e-04  -1.1282658481197487e-04  -1.1579850118502534e-04 
 -1.1884869840341100e-04  -1.2197923833904219e-04  -1.2519223716905156e-04  -1.2848986680589783e-04 
 -1.3187435636512196e-04  -1.3534799367174465e-04  -1.3891312680632361e-04  -1.4257216569171313e-04 
 -1.4632758372159704e-04  -1.5018191943189517e-04  -1.5413777821616893e-04  -1.5819783408618657e-04 
 -1.6236483147883375e-04  -1.6664158711058964e-04  -1.7103099188082066e-04  -1.7553601282517325e-04 
 -1.8015969512038792e-04  -1.8490516414188175e-04  -1.8977562757549192e-04  -1.9477437758480206e-04 
 -1.9990479303551469e-04  -2.0517034177836788e-04  -2.1057458299213896e-04  -2.1612116958831220e-04 
 -2.2181385067903301e-04  -2.2765647411001469e-04  -2.3365298906010115e-04  -2.3980744870924248e-04 
 -2.4612401297667818e-04  -2.5260695133117735e-04  -2.5926064567522572e-04  -2.6608959330510817e-04 
 -2.7309840994887535e-04  -2.8029183288424687e-04  -2.8767472413855053e-04  -2.9525207377284875e-04 
 -3.0302900325247106e-04  -3.1101076890621785e-04  -3.1920276547656775e-04  -3.2761052976327696e-04 
 -3.3623974436282632e-04  -3.4509624150623111e-04  -3.5418600699779778e-04  -3.6351518425748033e-04 
 -3.7309007846955401e-04  -3.8291716084039751e-04  -3.9300307296825162e-04  -4.0335463132789152e-04 
 -4.1397883187322608e-04  -4.2488285476092601e-04  -4.3607406919824929e-04  -4.4756003841832836e-04 
 -4.5934852478626137e-04  -4.7144749503943550e-04  -4.8386512566560942e-04  -4.9660980842236233e-04 
 -5.0969015600161758e-04  -5.2311500784304728e-04  -5.3689343610025778e-04  -5.5103475176375948e-04 
 -5.6554851094483313e-04  -5.8044452132450836e-04  -5.9573284877197075e-04  -6.1142382413685386e-04 
 -6.2752805021994574e-04  -6.4405640892700451e-04  -6.6102006861046064e-04  -6.7843049160392634e-04 
 -6.9629944195456685e-04  -7.1463899335849125e-04  -7.3346153730449411e-04  -7.5277979143157953e-04 
 -7.7260680810586262e-04  -7.9295598322258259e-04  -8.1384106523910778e-04  -8.3527616444496636e-04 
 -8.5727576247509425e-04  -8.7985472207264442e-04  -9.0302829710787753e-04  -9.2681214285981128e-04 
 -9.5122232656747840e-04  -9.7627533825783068e-04  -1.0019881018574880e-03  -1.0283779865957392e-03 
 -1.0554628187063680e-03  -1.0832608934360942e-03  -1.1117909873675949e-03  -1.1410723710653047e-03 
 -1.1711248220523682e-03  -1.2019686381273666e-03  -1.2336246510296273e-03  -1.2661142404621771e-03 
 -1.2994593484816127e-03  -1.3336824942644016e-03  -1.3688067892593733e-03  -1.4048559527363954e-03 
 -1.4418543277414919e-03  -1.4798268974689293e-03  -1.5187993020610170e-03  -1.5587978558466991e-03 
 -1.5998495650302526e-03  -1.6419821458416894e-03  -1.6852240431607804e-03  -1.7296044496268646e-03 
 -1.7751533252469743e-03  -1.8219014175150522e-03  -1.8698802820553970e-03  -1.9191223038037808e-03 
 -1.9696607187400053e-03  -2.0215296361860138e-03  -2.0747640616840218e-03  -2.1293999204694538e-03 
 -2.1854740815538706e-03  -2.2430243824334084e-03  -2.3020896544386407e-03  -2.3627097487421375e-03 
 -2.4249255630403961e-03  -2.4887790689272315e-03  -2.5543133399760576e-03  -2.6215725805489713e-03 
 -2.6906021553509221e-03  -2.7614486197476747e-03  -2.8341597508667509e-03  -2.9087845795008845e-03 
 -2.9853734228340719e-03  -3.0639779180106890e-03  -3.1446510565685767e-03  -3.2274472197575642e-03 
 -3.3124222147652592e-03  -3.3996333118724562e-03  -3.4891392825610315e-03  -3.5810004385975844e-03 
 -3.6752786721166650e-03  -3.7720374967278995e-03  -3.8713420896717672e-03  -3.9732593350493431e-03 
 -4.0778578681518202e-03  -4.1852081209160881e-03  -4.2953823685331618e-03  -4.4084547772367984e-03 
 -4.5245014533000730e-03  -4.6436004932682217e-03  -4.7658320354565641e-03  -4.8912783127427655e-03 
 -5.0200237066832286e-03  -5.1521548029837992e-03  -5.2877604483555687e-03  -5.4269318087868182e-03 
 -5.5697624292627588e-03  -5.7163482949650355e-03  -5.8667878939833700e-03  -6.0211822815721509e-03 
 -6.1796351459850437e-03  -6.3422528759210584e-03  -6.5091446296158244e-03  -6.6804224056120232e-03 
 -6.8562011152431086e-03  -7.0365986568647265e-03  -7.2217359918682516e-03  -7.4117372225108958e-03 
 -7.6067296715969590e-03  -7.8068439640445984e-03  -8.0122141103723676e-03  -8.2229775921395520e-03 
 -8.4392754493740566e-03  -8.6612523700210359e-03  -8.8890567814450417e-03  -9.1228409440176957e-03 
 -9.3627610468222898e-03  -9.6089773055054537e-03  -9.8616540623053719e-03  -1.0120959888284306e-02 
 -1.0387067687792070e-02  -1.0660154805185345e-02  -1.0940403133825714e-02  -1.1227999227377442e-02 
 -1.1523134413423383e-02  -1.1826004909414893e-02  -1.2136811940968670e-02  -1.2455761862520044e-02 
 -1.2783066280338628e-02  -1.3118942177908134e-02  -1.3463612043668019e-02  -1.3817304001108949e-02 
 -1.4180251941209546e-02  -1.4552695657195195e-02  -1.4934880981593552e-02  -1.5327059925554082e-02 
 -1.5729490820391087e-02  -1.6142438461301249e-02  -1.6566174253197109e-02  -1.7000976358587931e-02 
 -1.7447129847428255e-02  -1.7904926848842016e-02  -1.8374666704617390e-02  -1.8856656124352913e-02 
 -1.9351209342119719e-02  -1.9858648274488383e-02  -2.0379302679749911e-02  -2.0913510318140847e-02 
 -2.1461617112861136e-02  -2.2023977311649543e-02  -2.2600953648656733e-02  -2.3192917506328490e-02 
 -2.3800249076982243e-02  -2.4423337523727887e-02  -2.5062581140350142e-02  -2.5718387509731339e-02 
 -2.6391173660354886e-02  -2.7081366220384949e-02  -2.7789401568772427e-02  -2.8515725982786202e-02 
 -2.9260795781314901e-02  -3.0025077463226208e-02  -3.0809047840007337e-02  -3.1613194161843869e-02 
 -3.2438014236220378e-02  -3.3284016538049209e-02  -3.4151720310249163e-02  -3.5041655653606361e-02 
 -3.5954363604652512e-02  -3.6890396200192348e-02  -3.7850316527000175e-02  -3.8834698755087098e-02 
 -3.9844128152811825e-02  -4.0879201081971003e-02  -4.1940524970859386e-02  -4.3028718263132093e-02 
 -4.4144410340133909e-02  -4.5288241414181835e-02  -4.6460862390094101e-02  -4.7662934692055792e-02 
 -4.8895130052691693e-02  -5.0158130260985333e-02  -5.1452626865433268e-02  -5.2779320828561758e-02 
 -5.4138922128649632e-02  -5.5532149304202791e-02  -5.6959728936408341e-02  -5.8422395064457643e-02 
 -5.9920888528270551e-02  -6.1455956232772294e-02  -6.3028350327473712e-02  -6.4638827294678708e-02 
 -6.6288146939194229e-02  -6.7977071271943454e-02  -6.9706363279381789e-02  -7.1476785570088963e-02 
 -7.3289098889356891e-02  -7.5144060492009779e-02  -7.7042422363084492e-02  -7.8984929275360008e-02 
 -8.0972316672058883e-02  -8.3005308362347041e-02  -8.5084614016537136e-02  -8.7210926447147868e-02 
 -8.9384918661197715e-02  -9.1607240668307305e-02  -9.3878516028361406e-02  -9.6199338121636280e-02 
 -9.8570266123433947e-02  -1.0099182066438908e-01  -1.0346447915672566e-01  -1.0598867076585132e-01 
 -1.0856477100578533e-01  -1.1119309593603584e-01  -1.1387389593668072e-01  -1.1660734903756560e-01 
 -1.1939355377674053e-01  -1.2223252156250354e-01  -1.2512416851274588e-01  -1.2806830674469033e-01 
 -1.3106463508761979e-01  -1.3411272919082318e-01  -1.3721203099875365e-01  -1.4036183756534740e-01 
 -1.4356128917959779e-01  -1.4680935677487203e-01  -1.5010482859511246e-01  -1.5344629609204632e-01 
 -1.5683213902885659e-01  -1.6026050976751091e-01  -1.6372931671914809e-01  -1.6723620693964189e-01 
 -1.7077854785577024e-01  -1.7435340811137318e-01  -1.7795753752756366e-01  -1.8158734617654412e-01 
 -1.8523888257495255e-01  -1.8890781101001902e-01  -1.9258938802023107e-01  -1.9627843806181239e-01 
 -1.9996932840318396e-01  -2.0365594330183148e-01  -2.0733165753174890e-01  -2.1098930934497664e-01 
 -2.1462117296780697e-01  -2.1821893075112128e-01  -2.2177364511512623e-01  -2.2527573045160373e-01 
 -2.2871492517174435e-01  -2.3208026411478960e-01  -2.3536005156212547e-01  -2.3854183513318167e-01 
 -2.4161238087352105e-01  -2.4455764988182366e-01  -2.4736277686103889e-01  -2.5001205101968205e-01 
 -2.5248889979192218e-01  -2.5477587588957795e-01  -2.5685464824502724e-01  -2.5870599745106526e-01 
 -2.6030981635137168e-01  -2.6164511648293898e-01  -2.6269004111886007e-01  -2.6342188570545538e-01 
 -2.6381712653088008e-01  -2.6385145850196756e-01  -2.6349984294085732e-01  -2.6273656634147668e-01 
 -2.6153531104653799e-01  -2.5986923881659502e-01  -2.5771108826180322e-01  -2.5503328709221884e-01 
 -2.5180808011129924e-01  -2.4800767382727837e-01  -2.4360439848548035e-01  -2.3857088822877798e-01 
 -2.3288027997022620e-01  -2.2650643140871166e-01  -2.1942415843233049e-01  -2.1160949193248049e-01 
 -2.0303995379194881e-01  -1.9369485151047527e-01  -1.8355559058997278e-01  -1.7260600341792046e-01 
 -1.6083269296166475e-01  -1.4822538911975428e-01  -1.3477731507194199e-01  -1.2048556043166132e-01 
 -1.0535145744055706e-01  -8.9380955863363393e-02  -7.2584991655437192e-02  -5.4979843900351648e-02 
 -3.6587473970335689e-02  -1.7435840371563493e-02  2.4408176739938049e-03  2.3001735157507554e-02 
 4.4199422125575219e-02  6.5979517816351446e-02  8.8280705239407356e-02  1.1103469288489358e-01 
 1.3416626953538710e-01  1.5759343719672153e-01  1.8122762598833211e-01  2.0497399349422693e-01 
 2.2873180965966652e-01  2.5239492694400439e-01  2.7585233424947070e-01  2.9898879229279068e-01 
 3.2168554771758961e-01  3.4382112347626442e-01  3.6527218390250238e-01  3.8591447443803661e-01 
 4.0562383806630020e-01  4.2427731292754239e-01  4.4175431798969378e-01  4.5793793547591122e-01 
 4.7271629917328434e-01  4.8598409557437849e-01  4.9764417847449405e-01  5.0760928548094686e-01 
 5.1580382577496020e-01  5.2216568306888067e-01  5.2664794980878582e-01  5.2922048563125990e-01 
 5.2987118407510703e-01  5.2860684350274711e-01  5.2545357131777470e-01  5.2045669690582474e-01 
 5.1368021540035247e-01  5.0520581967485201e-01  4.9513159608667406e-01  4.8357046136276816e-01 
 4.7064840881602360e-01  4.5650261800827330e-01  4.4127946799550116e-01  4.2513248334880382e-01 
 4.0822023536112129e-01  3.9070421808021605e-01  3.7274671920708985e-01  3.5450870835462828e-01 
 3.3614776880536623e-01  3.1781610267439603e-01  2.9965863326194436e-01  2.8181125687350927e-01 
 2.6439925658160968e-01  2.4753591883179504e-01  2.3132137898713973e-01  2.1584171822447742e-01 
 2.0116832843890822e-01  1.8735755500918783e-01  1.7445062001228812e-01  1.6247382110099395e-01 
 1.5143899410449974e-01  1.4134422077406084e-01  1.3217475722242489e-01  1.2390415369175031e-01 
 1.1649553246770629e-01  1.0990298811805516e-01  1.0407307279869145e-01  9.8946329115763537e-02 
 9.4458833892783034e-02  9.0543718064144477e-02  8.7132630670511801e-02  8.4157118415837090e-02 
 8.1549896296551475e-02  7.9245989261312391e-02  7.7183729536559012e-02  7.5305598997988138e-02 
 7.3558910631854477e-02  7.1896327579609662e-02  7.0276222380463507e-02  6.8662882725547533e-02 
 6.7026573242794096e-02  6.5343465493930691e-02  6.3595450456157970e-02  6.1769849273665842e-02 
 5.9859039009413958e-02  5.7860010533437242e-02  5.5773875592396681e-02  5.3605339569896604e-02 
 5.1362155529511878e-02  4.9054573900772308e-02  4.6694800693527633e-02  4.4296475476886123e-02 
 4.1874178604262284e-02  3.9442975369571517e-02  3.7018002997625941e-02  3.4614104653968553e-02 
 3.2245513046529721e-02  2.9925584715622015e-02  2.7666584793040332e-02  2.5479520870166181e-02 
 2.3374023656033867e-02  2.1358271329627011e-02  1.9438953890892455e-02  1.7621273382290283e-02 
 1.5908975573985813e-02  1.4304408565675159e-02  1.2808603739822592e-02  1.1421374587698638e-02 
 1.0141429104075840e-02  8.9664916925645370e-03  7.8934308260879393e-03  6.9183890508670177e-03 
 6.0369123033070038e-03  5.2440758853739521e-03  4.5346048679465603e-03  3.9029870737695357e-03 
 3.3435771902993569e-03  2.8506909370130807e-03  2.4186885657760072e-03  2.0420473003677424e-03 
 1.7154226182080879e-03  1.4336985405719624e-03  1.1920273249311016e-03  9.8585914322532934e-04 
 8.1096248247782422e-04  6.6343611974935951e-04  5.3971360332506280e-04  4.3656121837713774e-04 
 3.5107043092040855e-04  2.8064579201936984e-04  2.2298924865296913e-04  1.7608175241074601e-04 
 1.3816298641179214e-04  1.0770994861336067e-04  8.3415039962708801e-05  6.4164212327047631e-05 
 4.9015637134554294e-05  3.7179264055028329e-05  2.7997552247291902e-05  2.0927576602949267e-05 
 1.5524639410471431e-05  1.1427454864336246e-05  8.3449203096211151e-06  6.0444441025491681e-06 
 4.3417652052987023e-06  3.0921735598265404e-06  2.1830221332239075e-06  1.5274103812002007e-06 
 1.0589137334685330e-06  7.2723353159906170e-07  4.9464562532118283e-07  3.3313259032247507e-07 
 2.2209338466621176e-07  1.4653442836950232e-07  9.5656908636301306e-08  6.1766031265706273e-08 
 3.9438533819123715e-08  2.4894730989119600e-08  1.5530464530374722e-08  9.5724531435781777e-09 
 5.8276301194250766e-09  3.5031227766681862e-09  2.0786176630929705e-09  1.2170471191145100e-09 
 7.0292287912138312e-10  4.0033696076092271e-10  2.2475418280446191e-10  1.2433583610194265e-10 
 6.7753184878608371e-11  3.6353144014715771e-11  1.9198317838538022e-11  9.9751337690385355e-12 
 5.0971772387068039e-12  2.5604235818980944e-12  1.2637993880218177e-12  6.1267840075408979e-13 
 2.9159391373744353e-13  1.3618194669504633e-13  6.2379172451434670e-14  2.8009953754498769e-14 
 1.2322544543005269e-14  5.3086544850807509e-15  2.2393033906891245e-15  9.2312237483903615e-16 
 3.7345802557384707e-16  1.4742808169529321e-16  5.6659328441570377e-17  2.0970748467226771e-17 
 7.6489566788491596e-18  2.3220893653432992e-18  1.0561143121017450e-18  0.0000000000000000e+00 
 0.0000000000000000e+00  0.0000000000000000e+00  0.0000000000000000e+00  0.0000000000000000e+00 
 0.0000000000000000e+00  0.0000000000000000e+00  0.0000000000000000e+00  0.0000000000000000e+00 
 0.0000000000000000e+00  0.0000000000000000e+00  0.0000000000000000e+00  0.0000000000000000e+00 
 0.0000000000000000e+00  0.0000000000000000e+00  0.0000000000000000e+00  0.0000000000000000e+00 
 0.0000000000000000e+00  0.0000000000000000e+00  0.0000000000000000e+00  0.0000000000000000e+00 
 0.0000000000000000e+00  0.0000000000000000e+00  0.0000000000000000e+00  0.0000000000000000e+00 
 0.0000000000000000e+00  0.0000000000000000e+00  0.0000000000000000e+00  0.0000000000000000e+00 
 0.0000000000000000e+00  0.0000000000000000e+00  0.0000000000000000e+00  0.0000000000000000e+00 
 0.0000000000000000e+00  0.0000000000000000e+00  0.0000000000000000e+00  0.0000000000000000e+00 
 0.0000000000000000e+00  0.0000000000000000e+00  0.0000000000000000e+00  0.0000000000000000e+00 
 0.0000000000000000e+00  0.0000000000000000e+00  0.0000000000000000e+00  0.0000000000000000e+00 
 0.0000000000000000e+00  0.0000000000000000e+00  0.0000000000000000e+00  0.0000000000000000e+00 
 0.0000000000000000e+00  0.0000000000000000e+00  0.0000000000000000e+00  0.0000000000000000e+00 
 0.0000000000000000e+00  0.0000000000000000e+00  0.0000000000000000e+00  0.0000000000000000e+00 
 0.0000000000000000e+00  0.0000000000000000e+00  0.0000000000000000e+00  0.0000000000000000e+00 
 0.0000000000000000e+00  0.0000000000000000e+00  0.0000000000000000e+00  0.0000000000000000e+00 
 0.0000000000000000e+00  0.0000000000000000e+00  0.0000000000000000e+00  0.0000000000000000e+00 
 0.0000000000000000e+00  0.0000000000000000e+00  0.0000000000000000e+00  0.0000000000000000e+00 
 0.0000000000000000e+00  0.0000000000000000e+00  0.0000000000000000e+00  0.0000000000000000e+00 
 0.0000000000000000e+00  0.0000000000000000e+00  0.0000000000000000e+00  0.0000000000000000e+00 
 0.0000000000000000e+00  0.0000000000000000e+00  0.0000000000000000e+00  0.0000000000000000e+00 
 0.0000000000000000e+00  0.0000000000000000e+00  0.0000000000000000e+00  0.0000000000000000e+00 
 0.0000000000000000e+00  0.0000000000000000e+00  0.0000000000000000e+00  0.0000000000000000e+00 
 0.0000000000000000e+00  0.0000000000000000e+00  0.0000000000000000e+00  0.0000000000000000e+00 
 0.0000000000000000e+00  0.0000000000000000e+00  0.0000000000000000e+00  0.0000000000000000e+00 
 0.0000000000000000e+00  0.0000000000000000e+00  0.0000000000000000e+00  0.0000000000000000e+00 
 0.0000000000000000e+00  0.0000000000000000e+00  0.0000000000000000e+00  0.0000000000000000e+00 
 0.0000000000000000e+00  0.0000000000000000e+00  0.0000000000000000e+00  0.0000000000000000e+00 
 0.0000000000000000e+00  0.0000000000000000e+00  0.0000000000000000e+00  0.0000000000000000e+00 
 0.0000000000000000e+00  0.0000000000000000e+00  0.0000000000000000e+00  0.0000000000000000e+00 
 0.0000000000000000e+00  0.0000000000000000e+00  0.0000000000000000e+00  0.0000000000000000e+00 
 0.0000000000000000e+00  0.0000000000000000e+00  0.0000000000000000e+00  0.0000000000000000e+00 
 0.0000000000000000e+00  0.0000000000000000e+00  0.0000000000000000e+00  0.0000000000000000e+00 
 0.0000000000000000e+00  0.0000000000000000e+00  0.0000000000000000e+00  0.0000000000000000e+00 
 0.0000000000000000e+00  0.0000000000000000e+00  0.0000000000000000e+00  0.0000000000000000e+00 
 0.0000000000000000e+00  0.0000000000000000e+00  0.0000000000000000e+00  0.0000000000000000e+00 
 0.0000000000000000e+00  0.0000000000000000e+00  0.0000000000000000e+00  0.0000000000000000e+00 
 0.0000000000000000e+00  0.0000000000000000e+00  0.0000000000000000e+00  0.0000000000000000e+00 
 0.0000000000000000e+00  0.0000000000000000e+00  0.0000000000000000e+00  0.0000000000000000e+00 
 0.0000000000000000e+00  0.0000000000000000e+00  0.0000000000000000e+00  0.0000000000000000e+00 
 0.0000000000000000e+00  0.0000000000000000e+00  0.0000000000000000e+00  0.0000000000000000e+00 
 0.0000000000000000e+00  0.0000000000000000e+00  0.0000000000000000e+00  0.0000000000000000e+00 
 0.0000000000000000e+00  0.0000000000000000e+00  0.0000000000000000e+00  0.0000000000000000e+00 
 0.0000000000000000e+00  0.0000000000000000e+00  0.0000000000000000e+00  0.0000000000000000e+00 
 0.0000000000000000e+00 
  </PP_BETA>
  <PP_DIJ>
 1   Number of nonzero Dij
 1 1 6.2162461179625401e+00 
  </PP_DIJ>
</PP_NONLOCAL>
<PP_PSWFC>
S    0   2.00          Wavefunction
 3.9996703331155788e-08  4.0520054897991408e-08  4.1050254451016287e-08  4.1587391595235512e-08 
 4.2131557108124329e-08  4.2682842954969768e-08  4.3241342304413066e-08  4.3807149544195422e-08 
 4.4380360297109730e-08  4.4961071437161156e-08  4.5549381105939065e-08  4.6145388729203245e-08 
 4.6749195033687112e-08  4.7360902064120856e-08  4.7980613200477231e-08  4.8608433175443079e-08 
 4.9244468092119483e-08  4.9888825441953447e-08  5.0541614122904262e-08  5.1202944457847587e-08 
 5.1872928213220316e-08  5.2551678617909433e-08  5.3239310382388032e-08  5.3935939718101719e-08 
 5.4641684357108646e-08  5.5356663571976612e-08  5.6080998195940489e-08  5.6814810643323338e-08 
 5.7558224930224874e-08  5.8311366695480478e-08  5.9074363221894584e-08  5.9847343457751845e-08 
 6.0630438038609835e-08  6.1423779309376720e-08  6.2227501346678101e-08  6.3041739981516298e-08 
 6.3866632822226264e-08  6.4702319277731765e-08  6.5548940581105982e-08  6.6406639813440277e-08 
 6.7275561928025452e-08  6.8155853774849224e-08  6.9047664125414434e-08  6.9951143697881819e-08 
 7.0866445182541947e-08  7.1793723267620419e-08  7.2733134665420537e-08  7.3684838138808380e-08 
 7.4648994528044165e-08  7.5625766777964825e-08  7.6615319965522249e-08  7.7617821327681869e-08 
 7.8633440289686189e-08  7.9662348493688462e-08  8.0704719827760599e-08  8.1760730455281003e-08 
 8.2830558844706764e-08  8.3914385799735527e-08  8.5012394489861898e-08  8.6124770481333842e-08 
 8.7251701768514072e-08  8.8393378805651719e-08  8.9549994539069962e-08  9.0721744439774564e-08 
 9.1908826536489344e-08  9.3111441449123713e-08  9.4329792422678319e-08  9.5564085361594234e-08 
 9.6814528864551619e-08  9.8081334259723738e-08  9.9364715640492422e-08  1.0066488990163059e-07 
 1.0198207677595848e-07  1.0331649887147935e-07  1.0466838170900136e-07  1.0603795376025139e-07 
 1.0742544648648787e-07  1.0883109437761878e-07  1.1025513499183155e-07  1.1169780899574136e-07 
 1.1315936020506508e-07  1.1464003562582702e-07  1.1614008549610452e-07  1.1765976332831899e-07 
 1.1919932595208111e-07  1.2075903355759617e-07  1.2233914973963738e-07  1.2393994154209498e-07 
 1.2556167950310787e-07  1.2720463770078613e-07  1.2886909379953156e-07  1.3055532909696457e-07 
 1.3226362857146486e-07  1.3399428093033460e-07  1.3574757865859147e-07  1.3752381806840017e-07 
 1.3932329934915128e-07  1.4114632661819467e-07  1.4299320797223741e-07  1.4486425553941387e-07 
 1.4675978553203739e-07  1.4868011830004216e-07  1.5062557838512433e-07  1.5259649457559186e-07 
 1.5459319996193174e-07  1.5661603199310466e-07  1.5866533253357608e-07  1.6074144792109394e-07 
 1.6284472902522188e-07  1.6497553130663911e-07  1.6713421487721557e-07  1.6932114456087370e-07 
 1.7153668995524651e-07  1.7378122549414220e-07  1.7605513051082688e-07  1.7835878930213445e-07 
 1.8069259119341628e-07  1.8305693060434031e-07  1.8545220711555138e-07  1.8787882553620382e-07 
 1.9033719597237771e-07  1.9282773389639064e-07  1.9535086021701623e-07  1.9790700135062172e-07 
 2.0049658929323647e-07  2.0312006169356346e-07  2.0577786192694614e-07  2.0847043917030351e-07 
 2.1119824847804576e-07  2.1396175085898306e-07  2.1676141335424112e-07  2.1959770911619620e-07 
 2.2247111748844344e-07  2.2538212408681098e-07  2.2833122088143507e-07  2.3131890627990875e-07 
 2.3434568521151887e-07  2.3741206921258528e-07  2.4051857651291737e-07  2.4366573212340109e-07 
 2.4685406792473318e-07  2.5008412275731601e-07  2.5335644251232899e-07  2.5667158022399246e-07 
 2.6003009616303760e-07  2.6343255793140112e-07  2.6687954055815844e-07  2.7037162659671224e-07 
 2.7390940622325354e-07  2.7749347733651056e-07  2.8112444565880417e-07  2.8480292483842421e-07 
 2.8852953655334747e-07  2.9230491061631199e-07  2.9612968508126658e-07  3.0000450635121398e-07 
 3.0393002928746493e-07  3.0790691732032266e-07  3.1193584256121558e-07  3.1601748591629761e-07 
 3.2015253720153572e-07  3.2434169525930300e-07  3.2858566807649863e-07  3.3288517290421293e-07 
 3.3724093637895960e-07  3.4165369464549358e-07  3.4612419348123726e-07  3.5065318842233545e-07 
 3.5524144489135913e-07  3.5988973832668206e-07  3.6459885431354930e-07  3.6936958871686311e-07 
 3.7420274781570540e-07  3.7909914843962141e-07  3.8405961810668751e-07  3.8908499516338620e-07 
 3.9417612892631199e-07  3.9933387982573182e-07  4.0455911955102548e-07  4.0985273119802856e-07 
 4.1521560941830573e-07  4.2064866057037701e-07  4.2615280287292398e-07  4.3172896656000077e-07 
 4.3737809403827894e-07  4.4310114004634842e-07  4.4889907181610536e-07  4.5477286923625260e-07 
 4.6072352501793962e-07  4.6675204486257232e-07  4.7285944763181889e-07  4.7904676551984170e-07 
 4.8531504422778344e-07  4.9166534314053934e-07  4.9809873550584163e-07  5.0461630861568917e-07 
 5.1121916399015518e-07  5.1790841756359697e-07  5.2468519987330783e-07  5.3155065625063680e-07 
 5.3850594701461204e-07  5.4555224766809756e-07  5.5269074909652186e-07  5.5992265776920529e-07 
 5.6724919594332587e-07  5.7467160187055450e-07  5.8219113000639745e-07  5.8980905122227961e-07 
 5.9752665302040504e-07  6.0534523975143071e-07  6.1326613283499140e-07  6.2129067098311294e-07 
 6.2942021042655076e-07  6.3765612514409251e-07  6.4599980709486385e-07  6.5445266645367664e-07 
 6.6301613184946003e-07  6.7169165060681308e-07  6.8048068899072184e-07  6.8938473245448073e-07 
 6.9840528589086178e-07  7.0754387388657246e-07  7.1680204098004661e-07  7.2618135192261172e-07 
 7.3568339194307558e-07  7.4530976701577943e-07  7.5506210413216027e-07  7.6494205157587054e-07 
 7.7495127920149884e-07  7.8509147871694310e-07  7.9536436396947902e-07  8.0577167123557524e-07 
 8.1631515951450354e-07  8.2699661082579261e-07  8.3781783051057784e-07  8.4878064753689493e-07 
 8.5988691480897309e-07  8.7113850948057478e-07  8.8253733327244161e-07  8.9408531279389616e-07 
 9.0578439986865529e-07  9.1763657186491212e-07  9.2964383202974254e-07  9.4180820982789673e-07 
 9.5413176128502957e-07  9.6661656933543972e-07  9.7926474417436777e-07  9.9207842361493086e-07 
 1.0050597734497478e-06  1.0182109878173294e-06  1.0315342895733030e-06  1.0450319306665439e-06 
 1.0587061925202916e-06  1.0725593864183292e-06  1.0865938538963150e-06  1.1008119671383514e-06 
 1.1152161293788981e-06  1.1298087753101292e-06  1.1445923714948561e-06  1.1595694167851535e-06 
 1.1747424427468365e-06  1.1901140140899823e-06  1.2056867291057046e-06  1.2214632201094676e-06 
 1.2374461538912871e-06  1.2536382321732876e-06  1.2700421920752683e-06  1.2866608065891839e-06 
 1.3034968850639098e-06  1.3205532737023878e-06  1.3378328560745362e-06  1.3553385536515618e-06 
 1.3730733263710028e-06  1.3910401732465550e-06  1.4092421330377466e-06  1.4276822849763946e-06 
 1.4463637494828578e-06  1.4652896886920012e-06  1.4844633065500757e-06  1.5038878484480240e-06 
 1.5235666008130183e-06  1.5435028912727613e-06  1.5637000895665335e-06  1.5841616088152530e-06 
 1.6048909066923877e-06  1.6258914863212934e-06  1.6471668969559174e-06  1.6687207345586090e-06 
 1.6905566423542084e-06  1.7126783113959040e-06  1.7350894811538862e-06  1.7577939401361309e-06 
 1.7807955265740497e-06  1.8040981290841444e-06  1.8277056873045381e-06  1.8516221925407012e-06 
 1.8758516884259468e-06  1.9003982715956383e-06  1.9252660923737015e-06  1.9504593554704995e-06 
 1.9759823206915245e-06  2.0018393036565746e-06  2.0280346765292490e-06  2.0545728687567033e-06 
 2.0814583678196337e-06  2.1086957199925376e-06  2.1362895311143080e-06  2.1642444673692323e-06 
 2.1925652560785053e-06  2.2212566865023613e-06  2.2503236106529444e-06  2.2797709441180250e-06 
 2.3096036668957368e-06  2.3398268242404171e-06  2.3704455275197355e-06  2.4014649550832318e-06 
 2.4328903531424227e-06  2.4647270366626260e-06  2.4969803902666618e-06  2.5296558691505834e-06 
 2.5627590000116067e-06  2.5962953819883986e-06  2.6302706876138978e-06  2.6646906637808291e-06 
 2.6995611327200911e-06  2.7348879929921999e-06  2.7706772204919516e-06  2.8069348694665008e-06 
 2.8436670735470375e-06  2.8808800467942345e-06  2.9185800847576888e-06  2.9567735655495130e-06 
 2.9954669509323035e-06  3.0346667874216660e-06  3.0743797074035141e-06  3.1146124302663391e-06 
 3.1553717635486635e-06  3.1966646041018910e-06  3.2384979392687646e-06  3.2808788480776642e-06 
 3.3238145024529459e-06  3.3673121684415714e-06  3.4113792074562358e-06  3.4560230775352467e-06 
 3.5012513346193773e-06  3.5470716338459350e-06  3.5934917308603071e-06  3.6405194831451931e-06 
 3.6881628513678301e-06  3.7364299007454190e-06  3.7853288024290333e-06  3.8348678349062739e-06 
 3.8850553854229410e-06  3.9358999514239843e-06  3.9874101420140242e-06  4.0395946794377146e-06 
 4.0924624005802372e-06  4.1460222584882364e-06  4.2002833239114481e-06  4.2552547868653778e-06 
 4.3109459582152960e-06  4.3673662712818807e-06  4.4245252834688167e-06  4.4824326779126893e-06 
 4.5410982651554818e-06  4.6005319848400223e-06  4.6607439074287268e-06  4.7217442359459788e-06 
 4.7835433077444908e-06  4.8461515962960292e-06  4.9095797130068516e-06  4.9738384090582365e-06 
 5.0389385772724827e-06  5.1048912540047856e-06  5.1717076210613434e-06  5.2393990076441530e-06 
 5.3079768923228528e-06  5.3774529050340748e-06  5.4478388291086962e-06  5.5191466033274519e-06 
 5.5913883240053532e-06  5.6645762471053352e-06  5.7387227903816388e-06  5.8138405355533517e-06 
 5.8899422305086401e-06  5.9670407915401174e-06  6.0451493056118784e-06  6.1242810326586873e-06 
 6.2044494079178741e-06  6.2856680442944400e-06  6.3679507347599318e-06  6.4513114547856364e-06 
 6.5357643648106589e-06  6.6213238127454873e-06  6.7080043365115914e-06  6.7958206666177018e-06 
 6.8847877287733632e-06  6.9749206465404075e-06  7.0662347440229775e-06  7.1587455485967781e-06 
 7.2524687936782076e-06  7.3474204215340801e-06  7.4436165861326369e-06  7.5410736560365637e-06 
 7.6398082173387435e-06  7.7398370766415328e-06  7.8411772640802912e-06  7.9438460363919990e-06 
 8.0478608800297275e-06  8.1532395143238217e-06  8.2599998946906355e-06  8.3681602158897022e-06 
 8.4777389153301954e-06  8.5887546764276341e-06  8.7012264320117297e-06  8.8151733677863553e-06 
 8.9306149258426482e-06  9.0475708082261489e-06  9.1660609805591643e-06  9.2861056757192541e-06 
 9.4077253975750543e-06  9.5309409247804802e-06  9.6557733146284649e-06  9.7822439069654244e-06 
 9.9103743281676431e-06  1.0040186495180815e-05  1.0171702619624010e-05  1.0304945211959373e-05 
 1.0439937085728892e-05  1.0576701361859627e-05  1.0715261473038787e-05  1.0855641168160125e-05 
 1.0997864516843133e-05  1.1141955914026612e-05  1.1287940084638134e-05  1.1435842088341065e-05 
 1.1585687324360826e-05  1.1737501536392037e-05  1.1891310817588442e-05  1.2047141615637309e-05 
 1.2205020737920241e-05  1.2364975356762304e-05  1.2527033014771522e-05  1.2691221630270633e-05 
 1.2857569502823425e-05  1.3026105318857604e-05  1.3196858157386583e-05  1.3369857495832453e-05 
 1.3545133215952463e-05  1.3722715609871521e-05  1.3902635386223187e-05  1.4084923676401810e-05 
 1.4269612040928452e-05  1.4456732475933364e-05  1.4646317419757920e-05  1.4838399759678843e-05 
 1.5033012838757950e-05  1.5230190462820328e-05  1.5429966907564344e-05  1.5632376925806771e-05 
 1.5837455754866448e-05  1.6045239124090130e-05  1.6255763262524120e-05  1.6469064906735508e-05 
 1.6685181308786944e-05  1.6904150244369090e-05  1.7126010021094751e-05  1.7350799486959205e-05 
 1.7578558038971108e-05  1.7809325631958692e-05  1.8043142787555888e-05  1.8280050603373513e-05 
 1.8520090762360524e-05  1.8763305542360615e-05  1.9009737825869788e-05  1.9259431110000363e-05 
 1.9512429516657425e-05  1.9768777802933735e-05  2.0028521371729412e-05  2.0291706282602847e-05 
 2.0558379262859554e-05  2.0828587718886071e-05  2.1102379747735894e-05  2.1379804148975134e-05 
 2.1660910436795486e-05  2.1945748852402618e-05  2.2234370376688199e-05  2.2526826743194182e-05 
 2.2823170451378375e-05  2.3123454780190295e-05  2.3427733801967108e-05  2.3736062396659370e-05 
 2.4048496266397087e-05  2.4365091950406451e-05  2.4685906840288539e-05  2.5010999195671298e-05 
 2.5340428160246771e-05  2.5674253778205778e-05  2.6012537011082928e-05  2.6355339755025164e-05 
 2.6702724858497481e-05  2.7054756140440350e-05  2.7411498408893264e-05  2.7773017480100111e-05 
 2.8139380198111956e-05  2.8510654454904085e-05  2.8886909211024199e-05  2.9268214516789740e-05 
 2.9654641534052668e-05  3.0046262558551045e-05  3.0443151042867212e-05  3.0845381620013253e-05 
 3.1253030127665289e-05  3.1666173633068852e-05  3.2084890458638438e-05  3.2509260208275503e-05 
 3.2939363794429576e-05  3.3375283465928740e-05  3.3817102836606213e-05  3.4264906914751267e-05 
 3.4718782133413416e-05  3.5178816381590152e-05  3.5645099036329764e-05  3.6117720995781815e-05 
 3.6596774713229325e-05  3.7082354232137839e-05  3.7574555222258221e-05  3.8073475016821104e-05 
 3.8579212650863055e-05  3.9091868900725251e-05  3.9611546324767859e-05  4.0138349305344551e-05 
 4.0672384092083760e-05  4.1213758846524640e-05  4.1762583688158182e-05  4.2318970741925575e-05 
 4.2883034187228029e-05  4.3454890308505001e-05  4.4034657547439023e-05  4.4622456556848873e-05 
 4.5218410256334445e-05  4.5822643889739808e-05  4.6435285084503339e-05  4.7056463912966803e-05 
 4.7686312955718188e-05  4.8324967367045985e-05  4.8972564942586322e-05  4.9629246189246969e-05 
 5.0295154397496299e-05  5.0970435716108919e-05  5.1655239229462967e-05  5.2349717037488748e-05 
 5.3054024338371993e-05  5.3768319514119702e-05  5.4492764219100667e-05  5.5227523471678112e-05 
 5.5972765749056102e-05  5.6728663085467017e-05  5.7495391173832628e-05  5.8273129471036935e-05 
 5.9062061306954764e-05  5.9862373997386341e-05  6.0674258961054364e-05  6.1497911840826991e-05 
 6.2333532629337040e-05  6.3181325799174968e-05  6.4041500437841061e-05  6.4914270387650023e-05 
 6.5799854390790076e-05  6.6698476239746549e-05  6.7610364933310118e-05  6.8535754838398743e-05 
 6.9474885857932669e-05  7.0428003605012689e-05  7.1395359583662085e-05  7.2377211376405029e-05 
 7.3373822838965926e-05  7.4385464302386686e-05  7.5412412782872691e-05  7.6454952199691312e-05 
 7.7513373601462295e-05  7.8587975401193637e-05  7.9679063620433731e-05  8.0786952142925574e-05 
 8.1911962978168447e-05  8.3054426535309224e-05  8.4214681907805657e-05  8.5393077169323896e-05 
 8.6589969681354087e-05  8.7805726413049657e-05  8.9040724273819753e-05  9.0295350459229022e-05 
 9.1570002810783879e-05  9.2865090190212503e-05  9.4181032868873555e-05  9.5518262932958842e-05 
 9.6877224705186642e-05  9.8258375183714629e-05  9.9662184499037341e-05  1.0108913638966816e-04 
 1.0253972869744550e-04  1.0401447388334187e-04  1.0551389956469779e-04  1.0703854907484705e-04 
 1.0858898204614633e-04  1.1016577501747198e-04  1.1176952206729850e-04  1.1340083547352849e-04 
 1.1506034640130059e-04  1.1674870562006421e-04  1.1846658425127193e-04  1.2021467454810921e-04 
 1.2199369070875227e-04  1.2380436972471854e-04  1.2564747226595472e-04  1.2752378360438962e-04 
 1.2943411457776781e-04  1.3137930259567130e-04  1.3336021268973668e-04  1.3537773861017595e-04 
 1.3743280397082060e-04  1.3952636344502056e-04  1.4165940401485635e-04  1.4383294627624507e-04 
 1.4604804580266133e-04  1.4830579457033571e-04  1.5060732244794592e-04  1.5295379875397426e-04 
 1.5534643388507782e-04  1.5778648101899434e-04  1.6027523789569786e-04  1.6281404868071934e-04 
 1.6540430591475931e-04  1.6804745255394527e-04  1.7074498410532505e-04  1.7349845086243925e-04 
 1.7630946024608404e-04  1.7917967925565925e-04  1.8211083703679592e-04  1.8510472757127692e-04 
 1.8816321249560342e-04  1.9128822405491448e-04  1.9448176819935004e-04  1.9774592783035081e-04 
 2.0108286620481382e-04  2.0449483050547960e-04  2.0798415558640726e-04  2.1155326790290614e-04 
 2.1520468963583716e-04  2.1894104302077426e-04  2.2276505489313047e-04  2.2667956146100611e-04 
 2.3068751331820951e-04  2.3479198071063923e-04  2.3899615907000091e-04  2.4330337482966595e-04 
 2.4771709153836798e-04  2.5224091628837545e-04  2.5687860647579020e-04  2.6163407691168336e-04 
 2.6651140730392852e-04  2.7151485013080076e-04  2.7664883892870585e-04  2.8191799701778053e-04 
 2.8732714669057406e-04  2.9288131889058445e-04  2.9858576340909378e-04  3.0444595963052265e-04 
 3.1046762785842262e-04  3.1665674125624872e-04  3.2301953843921148e-04  3.2956253675581231e-04 
 3.3629254630012235e-04  3.4321668469849021e-04  3.5034239271716268e-04  3.5767745074029360e-04 
 3.6522999617101130e-04  3.7300854181162099e-04  3.8102199528266650e-04  3.8927967954446738e-04 
 3.9779135458890407e-04  4.0656724037367250e-04  4.1561804107598027e-04  4.2495497074773199e-04 
 4.3458978045968883e-04  4.4453478702788504e-04  4.5480290342180316e-04  4.6540767096044030e-04 
 4.7636329340951304e-04  4.8768467310063589e-04  4.9938744920144677e-04  5.1148803827434761e-04 
 5.2400367727083532e-04  5.3695246911835770e-04  5.5035343106729488e-04  5.6422654597705971e-04 
 5.7859281673253572e-04  5.9347432399512920e-04  6.0889428750670379e-04  6.2487713117963522e-04 
 6.4144855222225260e-04  6.5863559456608633e-04  6.7646672687969990e-04  6.9497192547354411e-04 
 7.1418276242129629e-04  7.3413249924567049e-04  7.5485618654076746e-04  7.7639076992881825e-04 
 7.9877520277676049e-04  8.2205056612759462e-04  8.4626019633303690e-04  8.7144982090774569e-04 
 8.9766770316151588e-04  9.2496479620440841e-04  9.5339490696107372e-04  9.8301487087459156e-04 
 1.0138847380272741e-03  1.0460679714561665e-03  1.0796316584947075e-03  1.1146467360293201e-03 
 1.1511882306208716e-03  1.1893355145061396e-03  1.2291725785639404e-03  1.2707883234046237e-03 
 1.3142768698204716e-03  1.3597378899184349e-03  1.4072769603458489e-03  1.4570059391145593e-03 
 1.5090433676295282e-03  1.5635148996347651e-03  1.6205537589025977e-03  1.6803012276120925e-03 
 1.7429071674891963e-03  1.8085305759150210e-03  1.8773401793499543e-03  1.9495150665700962e-03 
 2.0252453643690572e-03  2.1047329585425585e-03  2.1881922631456197e-03  2.2758510411923769e-03 
 2.3679512801567716e-03  2.4647501258282718e-03  2.5665208782802299e-03  2.6735540539190869e-03 
 2.7861585177999006e-03  2.9046626906169396e-03  3.0294158350065519e-03  3.1607894260320302e-03 
 3.2991786109556882e-03  3.4450037636398990e-03  3.5987121391550148e-03  3.7607796344052090e-03 
 3.9317126608110669e-03  4.1120501353069201e-03  4.3023655961179951e-03  4.5032694499733163e-03 
 4.7154113575801401e-03  4.9394827643291861e-03  5.1762195833108815e-03  5.4264050377942075e-03 
 5.6908726703437931e-03  5.9705095257186688e-03  6.2662595145978597e-03  6.5791269650026050e-03 
 6.9101803680204502e-03  7.2605563240691461e-03  7.6314636954537621e-03  8.0241879703519640e-03 
 8.4400958425933491e-03  8.8806400106591528e-03  9.3473641981988362e-03  9.8419083970177085e-03 
 1.0366014331911901e-02  1.0921531144888877e-02  1.1510421294187985e-02  1.2134766661079231e-02 
 1.2796774854642663e-02  1.3498785701587549e-02  1.4243277904632362e-02  1.5032875849006583e-02 
 1.5870356532227375e-02  1.6758656587424672e-02  1.7700879365115590e-02  1.8700302032446443e-02 
 1.9760382642515329e-02  2.0884767119453727e-02  2.2077296097484524e-02  2.3342011544196153e-02 
 2.4683163089801032e-02  2.6105213975216649e-02  2.7612846522470223e-02  2.9210967021251470e-02 
 3.0904709915511707e-02  3.2699441163941967e-02  3.4600760638095321e-02  3.6614503412013166e-02 
 3.8746739787665636e-02  4.1003773891551007e-02  4.3392140669677337e-02  4.5918601101171255e-02 
 4.8590135445256123e-02  5.1413934332689197e-02  5.4397387511352466e-02  5.7548070056997871e-02 
 6.0873725864633729e-02  6.4382248244203369e-02  6.8081657456573227e-02  7.1980075042944361e-02 
 7.6085694823149405e-02  8.0406750466395990e-02  8.4951479572308711e-02  8.9728084240968925e-02 
 9.4744688158285156e-02  1.0000929027749840e-01  1.0552971523873667e-01  1.1131356073573978e-01 
 1.1736814211120089e-01  1.2370043453805647e-01  1.3031701322123151e-01  1.3722399212964839e-01 
 1.4442696183752834e-01  1.5193092711171186e-01  1.5974024492116767e-01  1.6785856355794163e-01 
 1.7628876353626710e-01  1.8503290086837779e-01  1.9409215319171949e-01  2.0346676903397801e-01 
 2.1315602024387406e-01  2.2315815728657615e-01  2.3347036671038429e-01  2.4408872965436107e-01 
 2.5500817981636326e-01  2.6622245888377016e-01  2.7772406710632058e-01  2.8950420653644215e-01 
 3.0155271456222826e-01  3.1385798580322632e-01  3.2640688132359852e-01  3.3918462553412054e-01 
 3.5217469319067668e-01  3.6535869161998452e-01  3.7871624673128673e-01  3.9222490541125782e-01 
 4.0586007123311307e-01  4.1959499435267050e-01  4.3340083880760921e-01  4.4724684943681031e-01 
 4.6110063432689746e-01  4.7492856572444314e-01  4.8869628328808662e-01  5.0236926197171283e-01 
 5.1591338910287066e-01  5.2929548822828798e-01  5.4248373483278767e-01  5.5544792929796560e-01 
 5.6815961872849030e-01  5.8059208339979285e-01  5.9272021979907230e-01  6.0452035880954724e-01 
 6.1597005609652655e-01  6.2704788523449495e-01  6.3773325552181914e-01  6.4800626788459970e-01 
 6.5784761496595379e-01  6.6723852590444355e-01  6.7616075244314877e-01  6.8459659067307788e-01 
 6.9252893211311084e-01  6.9994133886067933e-01  7.0681811795539717e-01  7.1314442946546430e-01 
 7.1890638181354161e-01  7.2409112907223505e-01  7.2868696446071701e-01  7.3268340711560265e-01 
 7.3607128049103721e-01  7.3884278140524362e-01  7.4099153927647321e-01  7.4251266548335526e-01 
 7.4340279305403922e-01  7.4366010705189034e-01  7.4328436610258164e-01  7.4227691551893782e-01 
 7.4064069244570674e-01  7.3838022338441545e-01  7.3550161438366624e-01  7.3201253410460054e-01 
 7.2792218990380375e-01  7.2324129702279316e-01  7.1798204093827867e-01  7.1215803291250912e-01 
 7.0578425878860918e-01  6.9887702110107908e-01  6.9145387461501984e-01  6.8353355546684469e-01 
 6.7513590415157587e-01  6.6628178268420024e-01  6.5699298635162184e-01  6.4729215056392575e-01 
 6.3720265340524773e-01  6.2674851457178371e-01  6.1595429146367597e-01  6.0484497326521425e-01 
 5.9344587390087855e-01  5.8178252479057369e-01  5.6988056834383938e-01  5.5776565304287085e-01 
 5.4546333146844272e-01  5.3299896125243817e-01  5.2039761064682455e-01  5.0768396899848611e-01 
 4.9488226285166065e-01  4.8201617821185877e-01  4.6910878939558687e-01  4.5618249477758854e-01 
 4.4325895963483264e-01  4.3035906617709108e-01  4.1750287075042269e-01  4.0470956810441211e-01 
 3.9199746252836537e-01  3.7938394558705241e-01  3.6688548012375405e-01  3.5451759014760892e-01 
 3.4229485618345273e-01  3.3023091563508317e-01  3.1833846769646273e-01  3.0662928233891218e-01 
 2.9511421290481782e-01  2.8380321184867552e-01  2.7270534918333222e-01  2.6182883321143585e-01 
 2.5118103314920109e-01  2.4076850328052246e-01  2.3059700831092536e-01  2.2067154962482260e-01 
 2.1099639218481164e-01  2.0157509184547312e-01  1.9241052288760024e-01  1.8350490561073357e-01 
 1.7485983385187759e-01  1.6647630232594768e-01  1.5835473370853306e-01  1.5049500540374139e-01 
 1.4289647595907135e-01  1.3555801110537491e-01  1.2847800941303819e-01  1.2165442756559150e-01 
 1.1508480525921705e-01  1.0876628974122692e-01  1.0269566000279760e-01  9.6869350641336324e-02 
 9.1283475406137293e-02  8.5933850437787493e-02  8.0816017207441193e-02  7.5925265156939703e-02 
 7.1256654035130304e-02  6.6805035919945785e-02  6.2565076910118547e-02  5.8531278465062356e-02 
 5.4697998366660679e-02  5.1059471272605433e-02  4.7609828827641351e-02  4.4343119296648963e-02 
 4.1253326681959225e-02  3.8334389286610857e-02  3.5580217685384767e-02  3.2984712066295330e-02 
 3.0541778906690201e-02  2.8245346950105939e-02  2.6089382452439268e-02  2.4067903668728671e-02 
 2.2174994554812366e-02  2.0404817661267362e-02  1.8751626200288540e-02  1.7209775269500599e-02 
 1.5773732220088151e-02  1.4438086160070633e-02  1.3197556587037163e-02  1.2047001148192498e-02 
 1.0981422529150787e-02  9.9959744765457208e-03  9.0859669631955416e-03  8.2468705082529396e-03 
 7.4743196684599750e-03  6.7641157202843576e-03  6.1122285562984673e-03  5.5147978226336609e-03 
 4.9681333276539374e-03  4.4687147550992144e-03  4.0131907178041762e-03  3.5983771906627549e-03 
 3.2212553637440211e-03  2.8789689583422580e-03  2.5688210502389044e-03  2.2882704455510338e-03 
 2.0349276552320320e-03  1.8065505145747097e-03  1.6010394939521182e-03  1.4164327465302387e-03 
 1.2509009378191261e-03  1.1027419007194172e-03  9.7037515819856990e-04  8.5233635392775492e-04 
 7.4727162916095444e-04  6.5393198187883872e-04  5.7116764178864949e-04  4.9792249220495738e-04 
 4.3322856717155356e-04  3.7620064945751076e-04  3.2603099230463039e-04  2.8198418505098657e-04 
 2.4339218003567958e-04  2.0964949553006808e-04  1.8020860686475510e-04  1.5457553545050005e-04 
 1.3230564304310118e-04  1.1299963639212917e-04  9.6299785353237935e-05  8.1886355642726635e-05 
 6.9474255677441654e-05  5.8809895376677632e-05  4.9668253406752972e-05  4.1850148122425052e-05 
 3.5179706399296137e-05  2.9502023653070120e-05  2.4681007598628676e-05  2.0597397706761569e-05 
 1.7146951860282870e-05  1.4238791384611524e-05  1.1793895420471340e-05  9.7437355075235076e-06 
 8.0290412465971214e-06  6.5986879937847684e-06  5.4086977011754709e-06  4.4213442458043414e-06 
 3.6043548702717300e-06  2.9301996856619227e-06  2.3754615506671228e-06  1.9202790316193771e-06 
 1.5478555585512031e-06  1.2440283152580924e-06  9.9689083016779312e-07  7.9646366391536143e-07 
 6.3440801389320923e-07  5.0377747141877739e-07  3.9880356995200979e-07  3.1471115006438608e-07 
 2.4755993628448216e-07  1.9410907075902357e-07  1.5170167762437253e-07  1.1816683929504343e-07 
 9.1736651166820771e-08  7.0976284483685708e-08  5.4725228617803943e-08  4.2048104305222606e-08 
 3.2193639221996931e-08  2.4560577598368712e-08  1.8669457401119989e-08  1.4139333105372188e-08 
 1.0668650423725784e-08  8.0195927888630645e-09  6.0053191264205738e-09  4.4795997229115216e-09 
 3.3284329704551285e-09  2.4632915909475109e-09  1.8157036846245729e-09  1.3329226241978716e-09 
 9.7448136814556905e-10  7.0946206440996974e-10  5.1434165360389887e-10  3.7129928017222443e-10 
 2.6689233041645171e-10  1.9102541879422991e-10  1.3615115451740519e-10  9.6653494911862618e-11 
 6.8374330701189254e-11  4.8252010624940263e-11  0.0000000000000000e+00  0.0000000000000000e+00 
 0.0000000000000000e+00  0.0000000000000000e+00  0.0000000000000000e+00  0.0000000000000000e+00 
 0.0000000000000000e+00  0.0000000000000000e+00  0.0000000000000000e+00  0.0000000000000000e+00 
 0.0000000000000000e+00  0.0000000000000000e+00  0.0000000000000000e+00  0.0000000000000000e+00 
 0.0000000000000000e+00  0.0000000000000000e+00  0.0000000000000000e+00  0.0000000000000000e+00 
 0.0000000000000000e+00  0.0000000000000000e+00  0.0000000000000000e+00  0.0000000000000000e+00 
 0.0000000000000000e+00  0.0000000000000000e+00  0.0000000000000000e+00  0.0000000000000000e+00 
 0.0000000000000000e+00  0.0000000000000000e+00  0.0000000000000000e+00  0.0000000000000000e+00 
 0.0000000000000000e+00  0.0000000000000000e+00  0.0000000000000000e+00  0.0000000000000000e+00 
 0.0000000000000000e+00  0.0000000000000000e+00  0.0000000000000000e+00  0.0000000000000000e+00 
 0.0000000000000000e+00  0.0000000000000000e+00  0.0000000000000000e+00  0.0000000000000000e+00 
 0.0000000000000000e+00  0.0000000000000000e+00  0.0000000000000000e+00  0.0000000000000000e+00 
 0.0000000000000000e+00  0.0000000000000000e+00  0.0000000000000000e+00  0.0000000000000000e+00 
 0.0000000000000000e+00  0.0000000000000000e+00  0.0000000000000000e+00  0.0000000000000000e+00 
 0.0000000000000000e+00  0.0000000000000000e+00  0.0000000000000000e+00  0.0000000000000000e+00 
 0.0000000000000000e+00  0.0000000000000000e+00  0.0000000000000000e+00  0.0000000000000000e+00 
 0.0000000000000000e+00  0.0000000000000000e+00  0.0000000000000000e+00  0.0000000000000000e+00 
 0.0000000000000000e+00  0.0000000000000000e+00  0.0000000000000000e+00  0.0000000000000000e+00 
 0.0000000000000000e+00  0.0000000000000000e+00  0.0000000000000000e+00  0.0000000000000000e+00 
 0.0000000000000000e+00  0.0000000000000000e+00  0.0000000000000000e+00  0.0000000000000000e+00 
 0.0000000000000000e+00  0.0000000000000000e+00  0.0000000000000000e+00  0.0000000000000000e+00 
 0.0000000000000000e+00  0.0000000000000000e+00  0.0000000000000000e+00  0.0000000000000000e+00 
 0.0000000000000000e+00  0.0000000000000000e+00  0.0000000000000000e+00  0.0000000000000000e+00 
 0.0000000000000000e+00  0.0000000000000000e+00  0.0000000000000000e+00  0.0000000000000000e+00 
 0.0000000000000000e+00  0.0000000000000000e+00  0.0000000000000000e+00  0.0000000000000000e+00 
 0.0000000000000000e+00  0.0000000000000000e+00  0.0000000000000000e+00  0.0000000000000000e+00 
 0.0000000000000000e+00  0.0000000000000000e+00  0.0000000000000000e+00  0.0000000000000000e+00 
 0.0000000000000000e+00  0.0000000000000000e+00  0.0000000000000000e+00  0.0000000000000000e+00 
 0.0000000000000000e+00 
P    1   0.50          Wavefunction
 7.3995243727632996e-12  7.5944348632663364e-12  7.7944794809729192e-12  7.9997934636639770e-12 
 8.2105156114118939e-12  8.4267883804146485e-12  8.6487579793016494e-12  8.8765744679763159e-12 
 9.1103918590623062e-12  9.3503682220219257e-12  9.5966657900170873e-12  9.8494510695851327e-12 
 1.0108894953203581e-11  1.0375172834819972e-11  1.0648464728424839e-11  1.0928955389748047e-11 
 1.1216834441160702e-11  1.1512296499867092e-11  1.1815541309473351e-11  1.2126773875021732e-11 
 1.2446204601581845e-11  1.2774049436492497e-11  1.3110530015350321e-11  1.3455873811843910e-11 
 1.3810314291534667e-11  1.4174091069688454e-11  1.4547450073264630e-11  1.4930643707172054e-11 
 1.5323931024904450e-11  1.5727577903670399e-11  1.6141857224136508e-11  1.6567049054905131e-11 
 1.7003440841851431e-11  1.7451327602447733e-11  1.7911012125206609e-11  1.8382805174377447e-11 
 1.8867025700034933e-11  1.9364001053701461e-11  1.9874067209649275e-11  2.0397568992031848e-11 
 2.0934860307998194e-11  2.1486304386947582e-11  2.2052274026086480e-11  2.2633151842453679e-11 
 2.3229330531584000e-11  2.3841213132985466e-11  2.4469213302609392e-11  2.5113755592497576e-11 
 2.5775275737795669e-11  2.6454220951326803e-11  2.7151050225924471e-11  2.7866234644729240e-11 
 2.8600257699658898e-11  2.9353615618267483e-11  3.0126817699214015e-11  3.0920386656567805e-11 
 3.1734858973183215e-11  3.2570785263382422e-11  3.3428730645191809e-11  3.4309275122383314e-11 
 3.5213013976579081e-11  3.6140558169684622e-11  3.7092534756922354e-11  3.8069587310744903e-11 
 3.9072376355914630e-11  4.0101579816043630e-11  4.1157893471895995e-11  4.2242031431762150e-11 
 4.3354726614223344e-11  4.4496731243632661e-11  4.5668817358647385e-11  4.6871777334156644e-11 
 4.8106424416957118e-11  4.9373593275538947e-11  5.0674140564353553e-11  5.2008945502944787e-11 
 5.3378910470334959e-11  5.4784961615067513e-11  5.6228049481318990e-11  5.7709149651503077e-11 
 5.9229263405801787e-11  6.0789418399068974e-11  6.2390669355564564e-11  6.4034098781988283e-11 
 6.5720817699295808e-11  6.7451966393791332e-11  6.9228715188004729e-11  7.1052265231874479e-11 
 7.2923849314771017e-11  7.4844732698909432e-11  7.6816213974715271e-11  7.8839625938721439e-11 
 8.0916336494589585e-11  8.3047749577865558e-11  8.5235306105093490e-11  8.7480484947930654e-11 
 8.9784803932921475e-11  9.2149820867606298e-11  9.4577134593659187e-11  9.7068386067766157e-11 
 9.9625259470974778e-11  1.0224948334726532e-10  1.0494283177211265e-10  1.0770712555182957e-10 
 1.1054423345450149e-10  1.1345607347334575e-10  1.1644461412334835e-10  1.1951187577205609e-10 
 1.2265993200542225e-10  1.2589091102963083e-10  1.2920699710984530e-10  1.3261043204685625e-10 
 1.3610351669262463e-10  1.3968861250574641e-10  1.4336814314788931e-10  1.4714459612228158e-10 
 1.5102052445535970e-10  1.5499854842271279e-10  1.5908135732048990e-10  1.6327171128346762e-10 
 1.6757244315100776e-10  1.7198646038216596e-10  1.7651674702124620e-10  1.8116636571512982e-10 
 1.8593845978374314e-10  1.9083625534506312e-10  1.9586306349609759e-10  2.0102228255131488e-10 
 2.0631740034003585e-10  2.1175199656434124e-10  2.1732974521908896e-10  2.2305441707567664e-10 
 2.2892988223122916e-10  2.3496011272493442e-10  2.4114918522329542e-10  2.4750128377611526e-10 
 2.5402070264507682e-10  2.6071184920683046e-10  2.6757924693255191e-10  2.7462753844598422e-10 
 2.8186148866203202e-10  2.8928598800802942e-10  2.9690605572985900e-10  3.0472684328515760e-10 
 3.1275363782590229e-10  3.2099186577273117e-10  3.2944709648341543e-10  3.3812504601796248e-10 
 3.4703158100289605e-10  3.5617272259732447e-10  3.6555465056348017e-10  3.7518370744448048e-10 
 3.8506640285213507e-10  3.9520941786769886e-10  4.0561960955854499e-10  4.1630401561381128e-10 
 4.2726985910215439e-10  4.3852455335482873e-10  4.5007570697738958e-10  4.6193112899340996e-10 
 4.7409883412368882e-10  4.8658704820451738e-10  4.9940421374867055e-10  5.1255899565287815e-10 
 5.2606028705563850e-10  5.3991721534933144e-10  5.5413914835069797e-10  5.6873570063385580e-10 
 5.8371674003013303e-10  5.9909239429911515e-10  6.1487305797541212e-10  6.3106939939577991e-10 
 6.4769236791134060e-10  6.6475320128978115e-10  6.8226343331253354e-10  7.0023490157207359e-10 
 7.1867975547460769e-10  7.3761046445355839e-10  7.5703982639940395e-10  7.7698097631156625e-10 
 7.9744739517820060e-10  8.1845291908988841e-10  8.4001174859339262e-10  8.6213845829180260e-10 
 8.8484800669755784e-10  9.0815574634500846e-10  9.3207743416935412e-10  9.5662924215897506e-10 
 9.8182776828835414e-10  1.0076900477389879e-09  1.0342335644158677e-09  1.0614762627673156e-09 
 1.0894365599161693e-09  1.1181333581105183e-09  1.1475860575024013e-09  1.1778145692631117e-09 
 1.2088393290439774e-09  1.2406813107917038e-09  1.2733620409276419e-09  1.3069036129005420e-09 
 1.3413287021226509e-09  1.3766605812992393e-09  1.4129231361619285e-09  1.4501408816164504e-09 
 1.4883389783157578e-09  1.5275432496696891e-09  1.5677801993026886e-09  1.6090770289713827e-09 
 1.6514616569541274e-09  1.6949627369249527e-09  1.7396096773246772e-09  1.7854326612422726e-09 
 1.8324626668199321e-09  1.8807314881956294e-09  1.9302717569973296e-09  1.9811169644033847e-09 
 2.0333014837840233e-09  2.0868605939392449e-09  2.1418305029488269e-09  2.1982483726505678e-09 
 2.2561523437633211e-09  2.3155815616717832e-09  2.3765762028905021e-09  2.4391775022249643e-09 
 2.5034277806481340e-09  2.5693704739113008e-09  2.6370501619085542e-09  2.7065125988147631e-09 
 2.7778047440174050e-09  2.8509747938631826e-09  2.9260722142408716e-09  3.0031477740224293e-09 
 3.0822535793849751e-09  3.1634431090368367e-09  3.2467712503714888e-09  3.3322943365738073e-09 
 3.4200701847037375e-09  3.5101581347831028e-09  3.6026190899120140e-09  3.6975155574419526e-09 
 3.7949116912333995e-09  3.8948733350265640e-09  3.9974680669545345e-09  4.1027652452289604e-09 
 4.2108360550291517e-09  4.3217535566263013e-09  4.4355927347753810e-09  4.5524305494081464e-09 
 4.6723459876615075e-09  4.7954201172765017e-09  4.9217361414040106e-09  5.0513794548543287e-09 
 5.1844377018286763e-09  5.3210008351717961e-09  5.4611611771858104e-09  5.6050134820465739e-09 
 5.7526549998649722e-09  5.9041855424366740e-09  6.0597075507251334e-09  6.2193261641239004e-09 
 6.3831492915455917e-09  6.5512876843863606e-09  6.7238550114161583e-09  6.9009679356468114e-09 
 7.0827461932317524e-09  7.2693126744534739e-09  7.4607935068572943e-09  7.6573181405934576e-09 
 7.8590194360340131e-09  8.0660337537376446e-09  8.2785010468459899e-09  8.4965649560122541e-09 
 8.7203729069906368e-09  8.9500762110515087e-09  9.1858301684029025e-09  9.4277941746901268e-09 
 9.6761318302237046e-09  9.9310110507968917e-09  1.0192604178465164e-08  1.0461088091938425e-08 
 1.0736644319386511e-08  1.1019459158033498e-08  1.1309723802105826e-08  1.1607634476749637e-08 
 1.1913392574819653e-08  1.2227204795295864e-08  1.2549283283720998e-08  1.2879845775512842e-08 
 1.3219115742804011e-08  1.3567322545168578e-08  1.3924701584425094e-08  1.4291494463702197e-08 
 1.4667949151150720e-08  1.5054320147709397e-08  1.5450868659011566e-08  1.5857862771820257e-08 
 1.6275577635157218e-08  1.6704295646241342e-08  1.7144306641351308e-08  1.7595908091733742e-08 
 1.8059405304684524e-08  1.8535111629935907e-08  1.9023348671486854e-08  1.9524446505018513e-08 
 2.0038743901040647e-08  2.0566588553919316e-08  2.1108337316940189e-08  2.1664356443565901e-08 
 2.2235021835050449e-08  2.2820719294577829e-08  2.3421844788096556e-08  2.4038804712026346e-08 
 2.4672016168018044e-08  2.5321907244952287e-08  2.5988917308367756e-08  2.6673497297514635e-08 
 2.7376110030234178e-08  2.8097230515870472e-08  2.8837346276426168e-08  2.9596957676179208e-08 
 3.0376578259983521e-08  3.1176735100482672e-08  3.1997969154471009e-08  3.2840835628643620e-08 
 3.3705904354982323e-08  3.4593760176031699e-08  3.5505003340325719e-08  3.6440249908232610e-08 
 3.7400132168492217e-08  3.8385299065727965e-08  3.9396416639222411e-08  4.0434168473253352e-08 
 4.1499256159295063e-08  4.2592399770397370e-08  4.3714338348063691e-08  4.4865830401957088e-08 
 4.6047654422772850e-08  4.7260609408624284e-08  4.8505515405297965e-08  4.9783214060744225e-08 
 5.1094569194177572e-08  5.2440467380172737e-08  5.3821818548150978e-08  5.5239556597662869e-08 
 5.6694640029883465e-08  5.8188052595747483e-08  5.9720803961162996e-08  6.1293930389753651e-08 
 6.2908495443591981e-08  6.4565590702397312e-08  6.6266336501685644e-08  6.8011882690370745e-08 
 6.9803409408329128e-08  7.1642127884455721e-08  7.3529281255749631e-08  7.5466145407985084e-08 
 7.7454029838536147e-08  7.9494278541939528e-08  8.1588270918794812e-08  8.3737422708617308e-08 
 8.5943186947275303e-08  8.8207054949659526e-08  9.0530557318250368e-08  9.2915264978265694e-08 
 9.5362790240089938e-08  9.7874787889703797e-08  1.0045295630785327e-07  1.0309903861871537e-07 
 1.0581482386883860e-07  1.0860214823715663e-07  1.1146289627689440e-07  1.1439900219020806e-07 
 1.1741245113642167e-07  1.2050528057474718e-07  1.2367958164239659e-07  1.2693750056902083e-07 
 1.3028124012843248e-07  1.3371306112859618e-07  1.3723528394089682e-07  1.4085029006972062e-07 
 1.4456052376341355e-07  1.4836849366770838e-07  1.5227677452274067e-07  1.5628800890480380e-07 
 1.6040490901402440e-07  1.6463025850916876e-07  1.6896691439082432e-07  1.7341780893423344e-07 
 1.7798595167308922e-07  1.8267443143563856e-07  1.8748641843447340e-07  1.9242516641142677e-07 
 1.9749401483902854e-07  2.0269639118001453e-07  2.0803581320642045e-07  2.1351589137983479e-07 
 2.1914033129442513e-07  2.2491293618439558e-07  2.3083760949757633e-07  2.3691835753689282e-07 
 2.4315929217150574e-07  2.4956463361946335e-07  2.5613871330375491e-07  2.6288597678370348e-07 
 2.6981098676368875e-07  2.7691842618124364e-07  2.8421310137662055e-07  2.9169994534598211e-07 
 2.9938402108042361e-07  3.0727052499309840e-07  3.1536479043677211e-07  3.2367229131419950e-07 
 3.3219864578377423e-07  3.4094962006297228e-07  3.4993113233217513e-07  3.5914925674152545e-07 
 3.6861022752354290e-07  3.7832044321429355e-07  3.8828647098598817e-07  3.9851505109395400e-07 
 4.0901310144100888e-07  4.1978772226234227e-07  4.3084620093409280e-07  4.4219601690889688e-07 
 4.5384484678176842e-07  4.6580056948976128e-07  4.7807127164895535e-07  4.9066525303240322e-07 
 5.0359103219277063e-07  5.1685735223350482e-07  5.3047318673246346e-07  5.4444774582204389e-07 
 5.5879048242996297e-07  5.7351109868494103e-07  5.8861955249166573e-07  6.0412606427951999e-07 
 6.2004112392968577e-07  6.3637549788534987e-07  6.5314023644987454e-07  6.7034668127791542e-07 
 6.8800647306460839e-07  7.0613155943808356e-07  7.2473420306070326e-07  7.4382698994456534e-07 
 7.6342283798696513e-07  7.8353500573165512e-07  8.0417710136190384e-07  8.2536309193151709e-07 
 8.4710731284014007e-07  8.6942447755934112e-07  8.9232968761614577e-07  9.1583844284086421e-07 
 9.3996665188625549e-07  9.6473064302523665e-07  9.9014717523456373e-07  1.0162334495720907e-06 
 1.0430071208554362e-06  1.0704863096500789e-06  1.0986896145751343e-06  1.1276361249352836e-06 
 1.1573454336875465e-06  1.1878376507518401e-06  1.2191334166744879e-06  1.2512539166541103e-06 
 1.2842208949395657e-06  1.3180566696098906e-06  1.3527841477464365e-06  1.3884268410076944e-06 
 1.4250088816175804e-06  1.4625550387782320e-06  1.5010907355186896e-06  1.5406420659911291e-06 
 1.5812358132266315e-06  1.6228994673628101e-06  1.6656612443559425e-06  1.7095501051906085e-06 
 1.7545957756001725e-06  1.8008287663118402e-06  1.8482803938303736e-06  1.8969828017749358e-06 
 1.9469689827839507e-06  1.9982728010032462e-06  2.0509290151731878e-06  2.1049733023309363e-06 
 2.1604422821443987e-06  2.2173735418949121e-06  2.2758056621261591e-06  2.3357782429772941e-06 
 2.3973319312187816e-06  2.4605084480099121e-06  2.5253506173975446e-06  2.5919023955761091e-06 
 2.6602089009295171e-06  2.7303164448761424e-06  2.8022725635386739e-06  2.8761260502612217e-06 
 2.9519269889966932e-06  3.0297267885880909e-06  3.1095782179680616e-06  3.1915354423016927e-06 
 3.2756540600982512e-06  3.3619911413183206e-06  3.4506052665034653e-06  3.5415565669564022e-06 
 3.6349067660003675e-06  3.7307192213472609e-06  3.8290589686049049e-06  3.9299927659546895e-06 
 4.0335891400317195e-06  4.1399184330405003e-06  4.2490528511401940e-06  4.3610665141343402e-06 
 4.4760355065010732e-06  4.5940379298007810e-06  4.7151539564993111e-06  4.8394658852458452e-06 
 4.9670581976457611e-06  5.0980176165699343e-06  5.2324331660431160e-06  5.3703962327553528e-06 
 5.5120006292415462e-06  5.6573426587757259e-06  5.8065211820278633e-06  5.9596376855325126e-06 
 6.1167963520199857e-06  6.2781041326622919e-06  6.4436708212875886e-06  6.6136091306184996e-06 
 6.7880347705913262e-06  6.9670665288148011e-06  7.1508263532288797e-06  7.3394394370258186e-06 
 7.5330343058976728e-06  7.7317429076762837e-06  7.9357007044338250e-06  8.1450467671140351e-06 
 8.3599238727663628e-06  8.5804786044575885e-06  8.8068614539374945e-06  9.0392269271378603e-06 
 9.2777336525861678e-06  9.5225444928181575e-06  9.7738266588758222e-06  1.0031751827980210e-05 
 1.0296496264471185e-05  1.0568240944109055e-05  1.0847171681836229e-05  1.1133479263099813e-05 
 1.1427359578839510e-05  1.1729013764248397e-05  1.2038648341417570e-05  1.2356475365979214e-05 
 1.2682712577866354e-05  1.3017583556311279e-05  1.3361317879208649e-05  1.3714151286973386e-05 
 1.4076325851027568e-05  1.4448090147055107e-05  1.4829699433167398e-05  1.5221415833127965e-05 
 1.5623508524788924e-05  1.6036253933897263e-05  1.6459935933434049e-05  1.6894846048655448e-05 
 1.7341283668009667e-05  1.7799556260110324e-05  1.8269979596952418e-05  1.8752877983563727e-05 
 1.9248584494290949e-05  1.9757441215926724e-05  2.0279799497890875e-05  2.0816020209686543e-05 
 2.1366474005859522e-05  2.1931541598697426e-05  2.2511614038912986e-05  2.3107093004565181e-05 
 2.3718391098480304e-05  2.4345932154444699e-05  2.4990151552450632e-05  2.5651496543286691e-05 
 2.6330426582774943e-05  2.7027413675967719e-05  2.7742942731628726e-05  2.8477511927334557e-05 
 2.9231633085545625e-05  3.0005832061007996e-05  3.0800649139861354e-05  3.1616639450842209e-05 
 3.2454373388986069e-05  3.3314437052247610e-05  3.4197432691473693e-05  3.5103979174180769e-05 
 3.6034712462605210e-05  3.6990286106513586e-05  3.7971371751278218e-05  3.8978659661743576e-05 
 4.0012859262428824e-05  4.1074699694634053e-05  4.2164930391039511e-05  4.3284321668410550e-05 
 4.4433665339045935e-05  4.5613775341631812e-05  4.6825488392190832e-05  4.8069664655843801e-05 
 4.9347188440129874e-05  5.0658968910662154e-05  5.2005940829927278e-05  5.3389065320070628e-05 
 5.4809330650543841e-05  5.6267753051527889e-05  5.7765377554082541e-05  5.9303278858013352e-05 
 6.0882562228489253e-05  6.2504364422486853e-05  6.4169854646184066e-05  6.5880235544473330e-05 
 6.7636744223814669e-05  6.9440653309701990e-05  7.1293272040070710e-05  7.3195947396032887e-05 
 7.5150065271386573e-05  7.7157051682408956e-05  7.9218374019511135e-05  8.1335542342399959e-05 
 8.3510110720467440e-05  8.5743678620204026e-05  8.8037892341513436e-05  9.0394446504890314e-05 
 9.2815085591512066e-05  9.5301605538387839e-05  9.7855855390807317e-05  1.0047973901443308e-04 
 1.0317521686948877e-04  1.0594430784960924e-04  1.0878909118803684e-04  1.1171170843397353e-04 
 1.1471436550203040e-04  1.1779933479785321e-04  1.2096895742314874e-04  1.2422564546348816e-04 
 1.2757188436242643e-04  1.3101023538564198e-04  1.3454333817898087e-04  1.3817391342447625e-04 
 1.4190476559860832e-04  1.4573878583727895e-04  1.4967895491219073e-04  1.5372834632354951e-04 
 1.5789012951425080e-04  1.6216757321096324e-04  1.6656404889778883e-04  1.7108303442846281e-04 
 1.7572811778334831e-04  1.8050300097779674e-04  1.8541150412877013e-04  1.9045756968696942e-04 
 1.9564526684207655e-04  2.0097879610910172e-04  2.0646249410423580e-04  2.1210083851902785e-04 
 2.1789845330216537e-04  2.2386011405860405e-04  2.2999075367629733e-04  2.3629546819130148e-04 
 2.4277952290259149e-04  2.4944835874850707e-04  2.5630759895737084e-04  2.6336305598547279e-04 
 2.7062073875630608e-04  2.7808686021566680e-04  2.8576784521800049e-04  2.9367033876018977e-04 
 3.0180121457983180e-04  3.1016758413596586e-04  3.1877680599115945e-04  3.2763649561487620e-04 
 3.3675453562911689e-04  3.4613908651844440e-04  3.5579859782770319e-04  3.6574181987199613e-04 
 3.7597781598481427e-04  3.8651597533161911e-04  3.9736602631766595e-04  4.0853805062042312e-04 
 4.2004249787860800e-04  4.3189020107161394e-04  4.4409239262496112e-04  4.5666072127936892e-04 
 4.6960726976312544e-04  4.8294457330962906e-04  4.9668563906430036e-04  5.1084396642752815e-04 
 5.2543356838291231e-04  5.4046899386282537e-04  5.5596535120623213e-04  5.7193833276678746e-04 
 5.8840424073250863e-04  6.0538001422176914e-04  6.2288325772402958e-04  6.4093227095759315e-04 
 6.5954608022077968e-04  6.7874447131725877e-04  6.9854802414088364e-04  7.1897814901024251e-04 
 7.4005712484830142e-04  7.6180813930798290e-04  7.8425533095030837e-04  8.0742383358786533e-04 
 8.3133982291285066e-04  8.5603056553582057e-04  8.8152447056855370e-04  9.0785114389215112e-04 
 9.3504144525967316e-04  9.6312754839123892e-04  9.9214300422870508e-04  1.0221228075267194e-03 
 1.0531034669672291e-03  1.0851230789953935e-03  1.1182214055863702e-03  1.1524399561646352e-03 
 1.1878220739103959e-03  1.2244130267013221e-03  1.2622601029522670e-03  1.3014127126309508e-03 
 1.3419224937437490e-03  1.3838434246028512e-03  1.4272319422041478e-03  1.4721470670643368e-03 
 1.5186505348859694e-03  1.5668069354405180e-03  1.6166838590821494e-03  1.6683520513286860e-03 
 1.7218855759714611e-03  1.7773619872022961e-03  1.8348625112738653e-03  1.8944722382392587e-03 
 1.9562803243476736e-03  2.0203802057059792e-03  2.0868698238504070e-03  2.1558518639089382e-03 
 2.2274340060731632e-03  2.3017291911384755e-03  2.3788559009136107e-03  2.4589384543446673e-03 
 2.5421073202450905e-03  2.6284994475714914e-03  2.7182586142359146e-03  2.8115357954980073e-03 
 2.9084895530358647e-03  3.0092864458516988e-03  3.1141014642284124e-03  3.2231184880151804e-03 
 3.3365307705845496e-03  3.4545414498701123e-03  3.5773640879625131e-03  3.7052232408122752e-03 
 3.8383550596604804e-03  3.9770079258926762e-03  4.1214431210870577e-03  4.2719355341049661e-03 
 4.4287744071494824e-03  4.5922641227961695e-03  4.7627250340781975e-03  4.9404943397857769e-03 
 5.1259270072162256e-03  5.3193967446854562e-03  5.5212970261834136e-03  5.7320421706236711e-03 
 5.9520684782004910e-03  6.1818354264232501e-03  6.4218269284472733e-03  6.6725526563598961e-03 
 6.9345494321093066e-03  7.2083826887792942e-03  7.4946480049132005e-03  7.7939727145726273e-03 
 8.1070175957779385e-03  8.4344786399152862e-03  8.7770889046053669e-03  9.1356204524087516e-03 
 9.5108863775871244e-03  9.9037429229452377e-03  1.0315091688539509e-02  1.0745881933751394e-02 
 1.1197112973881389e-02  1.1669836672016723e-02  1.2165160026457136e-02  1.2684247853441737e-02 
 1.3228325564299587e-02  1.3798682035440928e-02  1.4396672568808069e-02  1.5023721939508683e-02 
 1.5681327526353404e-02  1.6371062519908677e-02  1.7094579201449949e-02  1.7853612284856039e-02 
 1.8649982312020433e-02  1.9485599090769429e-02  2.0362465162572577e-02  2.1282679285513258e-02 
 2.2248439916065420e-02  2.3262048671210400e-02  2.4325913750344551e-02  2.5442553294298353e-02 
 2.6614598656644783e-02  2.7844797560357130e-02  2.9136017110833912e-02  3.0491246634396969e-02 
 3.1913600309652922e-02  3.3406319557659839e-02  3.4972775155733965e-02  3.6616469039039964e-02 
 3.8341035753897287e-02  4.0150243527049115e-02  4.2047994915987374e-02  4.4038327006756570e-02 
 4.6125411127330700e-02  4.8313552046402385e-02  5.0607186628797131e-02  5.3010881919045162e-02 
 5.5529332622929806e-02  5.8167357951728324e-02  6.0929897783593860e-02  6.3822008078842293e-02 
 6.6848855458102999e-02  7.0015710811289447e-02  7.3327941747900166e-02  7.6791003622217247e-02 
 8.0410428768216274e-02  8.4191813457620196e-02  8.8140801952139941e-02  9.2263066862653814e-02 
 9.6564284863519409e-02  1.0105010665439570e-01  1.0572611993577924e-01  1.1059780409477425e-01 
 1.1567047531691162e-01  1.2094922098571625e-01  1.2643882254651059e-01  1.3214366654125367e-01 
 1.3806764431689064e-01  1.4421404201957796e-01  1.5058542394745236e-01  1.5718351414300788e-01 
 1.6400908317475207e-01  1.7106184914339581e-01  1.7834040357469075e-01  1.8584217328570754e-01 
 1.9356342761907327e-01  2.0149933587038027e-01  2.0964407223873335e-01  2.1799095642131489e-01 
 2.2653260958541246e-01  2.3526110091947536e-01  2.4416806131909113e-01  2.5324474780227491e-01 
 2.6248205255479040e-01  2.7187046075288873e-01  2.8139996886705160e-01  2.9105997894433788e-01 
 3.0083918474270532e-01  3.1072546362539100e-01  3.2070578497932828e-01  3.3076614249664438e-01 
 3.4089151450615590e-01  3.5106585392952588e-01  3.6127210743832355e-01  3.7149226197528135e-01 
 3.8170741617674381e-01  3.9189787441730045e-01  4.0204324995288265e-01  4.1212259595613360e-01 
 4.2211453819570866e-01  4.3199741651972412e-01  4.4174943073896344e-01  4.5134878787802013e-01 
 4.6077384834760765e-01  4.7000326890302191e-01  4.7901614055145758e-01  4.8779211984753340e-01 
 4.9631155226854706e-01  5.0455558658822852e-01  5.1250627937187232e-01  5.2014668889975568e-01 
 5.2746095799328430e-01  5.3443438537279619e-01  5.4105348532025821e-01  5.4730603555625934e-01 
 5.5318111336991882e-01  5.5866912016294534e-01  5.6376179468484811e-01  5.6845221534451018e-01 
 5.7273479208310096e-01  5.7660524838364524e-01  5.8006059407274568e-01  5.8309908963929713e-01 
 5.8572020285325888e-01  5.8792455851454761e-01  5.8971388219801568e-01  5.9109093888554642e-01 
 5.9205946739085757e-01  5.9262411148697136e-01  5.9279034864076519e-01  5.9256441724373876e-01 
 5.9195324320326570e-01  5.9096436672418240e-01  5.8960587006654808e-01  5.8788630701493405e-01 
 5.8581463473057627e-01  5.8340014858654432e-01  5.8065242051638399e-01  5.7758124132237820e-01 
 5.7419656730184998e-01  5.7050847146438666e-01  5.6652709952441083e-01  5.6226263076692962e-01 
 5.5772524380116950e-01  5.5292508713877864e-01  5.4787225446181032e-01  5.4257676438200930e-01 
 5.3704854443787009e-01  5.3129741903009420e-01  5.2533310095970520e-01  5.1916518620611318e-01 
 5.1280315156458856e-01  5.0625635475336184e-01  4.9953403659925699e-01  4.9264532491654300e-01 
 4.8559923970571062e-01  4.7840469931617435e-01  4.7107052723868159e-01  4.6360545914838308e-01 
 4.5601815026263026e-01  4.4831718207264271e-01  4.4051106891464520e-01  4.3260826384578482e-01 
 4.2461716373381497e-01  4.1654611343015319e-01  4.0840340892500371e-01  4.0019729941081078e-01 
 3.9193598820620634e-01  3.8362763251664489e-01  3.7528034202994431e-01  3.6690217636484773e-01 
 3.5850114140842393e-01  3.5008518459357890e-01  3.4166218918116009e-01  3.3323996762206698e-01 
 3.2482625408350801e-01  3.1642869623007580e-01  3.0805484635473585e-01  2.9971215195723622e-01 
 2.9140794586796909e-01  2.8314943601409853e-01  2.7494369492201221e-01  2.6679764904607384e-01 
 2.5871806800849961e-01  2.5071155382924759e-01  2.4278453021838953e-01  2.3494323199685391e-01 
 2.2719369470499243e-01  2.1954174445243882e-01  2.1199298805745187e-01  2.0455280351959126e-01 
 1.9722633086631117e-01  1.9001846341194420e-01  1.8293383946659655e-01  1.7597683453257726e-01 
 1.6915155402697724e-01  1.6246182657065894e-01  1.5591119788591826e-01  1.4950292534711473e-01 
 1.4323997323029800e-01  1.3712500870896654e-01  1.3116039864329532e-01  1.2534820720923145e-01 
 1.1969019441161617e-01  1.1418781552186737e-01  1.0884222147573616e-01  1.0365426026030793e-01 
 9.8624479311884589e-02  9.3753128937852870e-02  8.9040166766347018e-02  8.4485263217704651e-02 
 8.0087807981666814e-02  7.5846917474245157e-02  7.1761443238423053e-02  6.7829981243594642e-02 
 6.4050882030071130e-02  6.0422261637253241e-02  5.6942013247302074e-02  5.3607819470424214e-02 
 5.0417165193266264e-02  4.7367350908410245e-02  4.4455506440563015e-02  4.1678604983706791e-02 
 3.9033477363174467e-02  3.6516826437263936e-02  3.4125241554534634e-02  3.1855212985252776e-02 
 2.9703146248481034e-02  2.7665376259951999e-02  2.5738181230037530e-02  2.3917796245735555e-02 
 2.2200426475561637e-02  2.0582259941473342e-02  1.9059479807396598e-02  1.7628276139494407e-02 
 1.6284857098956346e-02  1.5025459533732320e-02  1.3846358941233409e-02  1.2743878779528529e-02 
 1.1714399109934975e-02  1.0754364559096483e-02  9.8602915936313994e-03  9.0287751051874032e-03 
 8.2564943082346597e-03  7.5402179571457811e-03  6.8768088930337267e-03  6.2632279344341096e-03 
 5.6965371292190883e-03  5.1739023881091032e-03  4.6925955228041940e-03  4.2499957140885803e-03 
 3.8435904372728924e-03  3.4709758740331439e-03  3.1298568410913197e-03  2.8180462672681580e-03 
 2.5334642512352835e-03  2.2741367328135654e-03  2.0381938109209595e-03  1.8238677412811702e-03 
 1.6294906467798427e-03  1.4534919729144000e-03  1.2943957201442572e-03  1.1508174841276973e-03 
 1.0214613338481245e-03  9.0511655650400951e-04  8.0065429678161549e-04  7.0702411676568230e-04 
 6.2325050128834969e-04  5.4842933198811649e-04  4.8172435176542169e-04  4.2236363969575376e-04 
 3.6963611481059995e-04  3.2288808549582251e-04  2.8151985960005979e-04  2.4498242870550597e-04 
 2.1277423840186836e-04  1.8443805483240556e-04  1.5955793625858209e-04  1.3775631692582258e-04 
 1.1869120911479241e-04  1.0205352793713652e-04  8.7564542187139563e-05  7.4973453395706127e-05 
 6.4055104153706610e-05  5.4607815780381155e-05  4.6451354510436767e-05  3.9425024561073887e-05 
 3.3385885716923286e-05  2.8207092435431975e-05  2.3776350925532594e-05  1.9994490185714981e-05 
 1.6774142600548234e-05  1.4038529383412798e-05  1.1720345913395883e-05  9.7607418413218463e-06 
 8.1083907287963393e-06  6.7186439298019038e-06  5.5527634215307481e-06  4.5772283344596522e-06 
 3.7631100158555723e-06  3.0855105807167684e-06  2.5230600544986370e-06  2.0574673879225021e-06 
 1.6731208210176316e-06  1.3567335272108475e-06  1.0970318568473612e-06  8.8447398203090519e-07 
 7.1100955672720022e-07  5.6986707316348766e-07  4.5536790591209350e-07  3.6276448095417917e-07 
 2.8809990454861155e-07  2.2808661159600098e-07  1.8000180901614280e-07  1.4159769532573737e-07 
 1.1102463225961453e-07  8.6765627319579159e-08  6.7580657184546193e-08  5.2459520802093310e-08 
 4.0582057713328387e-08  3.1284701904810434e-08  2.4032464530716059e-08  1.8395550613152228e-08 
 1.4029915804622352e-08  1.0661160048612582e-08  8.0712361162557608e-09  6.0875231761111991e-09 
 4.5738794352172730e-09  3.4233441424481818e-09  2.5522085330855699e-09  1.8952182637677296e-09 
 1.4017071634248217e-09  1.0324943026978431e-09  7.5740402183579027e-10  5.5329217810238155e-10 
 4.0248196207269400e-10  2.9152963160522389e-10  2.1025482649370097e-10  1.5098212041144681e-10 
 1.0795046658590468e-10  7.6855490701376343e-11  5.4496436388033130e-11  3.8505202117403903e-11 
 2.7139522432644064e-11  0.0000000000000000e+00  0.0000000000000000e+00  0.0000000000000000e+00 
 0.0000000000000000e+00  0.0000000000000000e+00  0.0000000000000000e+00  0.0000000000000000e+00 
 0.0000000000000000e+00  0.0000000000000000e+00  0.0000000000000000e+00  0.0000000000000000e+00 
 0.0000000000000000e+00  0.0000000000000000e+00  0.0000000000000000e+00  0.0000000000000000e+00 
 0.0000000000000000e+00  0.0000000000000000e+00  0.0000000000000000e+00  0.0000000000000000e+00 
 0.0000000000000000e+00  0.0000000000000000e+00  0.0000000000000000e+00  0.0000000000000000e+00 
 0.0000000000000000e+00  0.0000000000000000e+00  0.0000000000000000e+00  0.0000000000000000e+00 
 0.0000000000000000e+00  0.0000000000000000e+00  0.0000000000000000e+00  0.0000000000000000e+00 
 0.0000000000000000e+00  0.0000000000000000e+00  0.0000000000000000e+00  0.0000000000000000e+00 
 0.0000000000000000e+00  0.0000000000000000e+00  0.0000000000000000e+00  0.0000000000000000e+00 
 0.0000000000000000e+00  0.0000000000000000e+00  0.0000000000000000e+00  0.0000000000000000e+00 
 0.0000000000000000e+00  0.0000000000000000e+00  0.0000000000000000e+00  0.0000000000000000e+00 
 0.0000000000000000e+00  0.0000000000000000e+00  0.0000000000000000e+00  0.0000000000000000e+00 
 0.0000000000000000e+00  0.0000000000000000e+00  0.0000000000000000e+00  0.0000000000000000e+00 
 0.0000000000000000e+00  0.0000000000000000e+00  0.0000000000000000e+00  0.0000000000000000e+00 
 0.0000000000000000e+00  0.0000000000000000e+00  0.0000000000000000e+00  0.0000000000000000e+00 
 0.0000000000000000e+00  0.0000000000000000e+00  0.0000000000000000e+00  0.0000000000000000e+00 
 0.0000000000000000e+00  0.0000000000000000e+00  0.0000000000000000e+00  0.0000000000000000e+00 
 0.0000000000000000e+00 
</PP_PSWFC>


<PP_RHOATOM>
 3.1994725820974575e-15  3.2837497267101954e-15  3.3702468113633201e-15  3.4590223113892783e-15 
 3.5501362424165669e-15  3.6436502009426059e-15  3.7396274059753540e-15  3.8381327417717897e-15 
 3.9392328017021672e-15  4.0429959332697105e-15  4.1494922843161545e-15  4.2587938504443985e-15 
 4.3709745236903103e-15  4.4861101424766002e-15  4.6042785428825208e-15  4.7255596112640631e-15 
 4.8500353382602346e-15  4.9777898742218889e-15  5.1089095861006192e-15  5.2434831158361720e-15 
 5.3816014402818208e-15  5.5233579327082481e-15  5.6688484259274986e-15  5.8181712770796750e-15 
 5.9714274341261738e-15  6.1287205040944341e-15  6.2901568231203127e-15  6.4558455283354343e-15 
 6.6258986316481514e-15  6.8004310954679331e-15  6.9795609104244403e-15  7.1634091751337832e-15 
 7.3521001780659139e-15  7.5457614815684475e-15  7.7445240081038260e-15  7.9485221287579839e-15 
 8.1578937540804673e-15  8.3727804273173470e-15  8.5933274200999992e-15  8.8196838306543923e-15 
 9.0520026845973637e-15  9.2904410383878951e-15  9.5351600855034819e-15  9.7863252654132036e-15 
 1.0044106375421344e-14  1.0308677685457045e-14  1.0580218055887598e-14  1.0858911058435141e-14 
 1.1144945100278356e-14  1.1438513551423159e-14  1.1739814875428468e-14  1.2049052763575409e-14 
 1.2366436272570658e-14  1.2692179965877111e-14  1.3026504058767241e-14  1.3369634567197384e-14 
 1.3721803460603497e-14  1.4083248818721738e-14  1.4454214992539817e-14  1.4834952769488046e-14 
 1.5225719542981619e-14  1.5626779486428852e-14  1.6038403731822987e-14  1.6460870553038272e-14 
 1.6894465553954273e-14  1.7339481861535537e-14  1.7796220323997259e-14  1.8264989714190750e-14 
 1.8746106938346358e-14  1.9239897250314859e-14  1.9746694471452279e-14  2.0266841216296572e-14 
 2.0800689124189015e-14  2.1348599096996647e-14  2.1910941543096682e-14  2.2488096627787631e-14 
 2.3080454530296580e-14  2.3688415707556340e-14  2.4312391164930770e-14  2.4952802734071219e-14 
 2.5610083358092157e-14  2.6284677384258470e-14  2.6977040864382746e-14  2.7687641863134982e-14 
 2.8416960774473895e-14  2.9165490646413156e-14  2.9933737514342341e-14  3.0722220743128037e-14 
 3.1531473378226258e-14  3.2362042506043528e-14  3.3214489623790288e-14  3.4089391019076757e-14 
 3.4987338159507590e-14  3.5908938092539219e-14  3.6854813855869660e-14  3.7825604898638484e-14 
 3.8821967513721940e-14  3.9844575281414920e-14  4.0894119524800281e-14  4.1971309777112994e-14 
 4.3076874261415383e-14  4.4211560382907484e-14  4.5376135234205438e-14  4.6571386113929716e-14 
 4.7798121058953405e-14  4.9057169390670672e-14  5.0349382275654631e-14  5.1675633301083738e-14 
 5.3036819065325343e-14  5.4433859784076458e-14  5.5867699912470578e-14  5.7339308783571924e-14 
 5.8849681263688367e-14  6.0399838424946020e-14  6.1990828235580800e-14  6.3623726268412469e-14 
 6.5299636427981527e-14  6.7019691696839523e-14  6.8785054901497858e-14  7.0596919498552484e-14 
 7.2456510381516495e-14  7.4365084708905755e-14  7.6323932754137415e-14  7.8334378777816007e-14 
 8.0397781922996913e-14  8.2515537134032239e-14  8.4689076099620440e-14  8.6919868220697465e-14 
 8.9209421603823561e-14  9.1559284080737105e-14  9.3971044254765448e-14  9.6446332574799535e-14 
 9.8986822437559101e-14  1.0159423131889262e-13  1.0427032193487816e-13  1.0701690343350915e-13 
 1.0983583261777127e-13  1.1272901520093693e-13  1.1569840709492687e-13  1.1874601573260858e-13 
 1.2187390142492697e-13  1.2508417875378404e-13  1.2837901800160909e-13  1.3176064661858729e-13 
 1.3523135072853616e-13  1.3879347667445097e-13  1.4244943260476217e-13  1.4620169010137734e-13 
 1.5005278585060976e-13  1.5400532335812117e-13  1.5806197470904115e-13  1.6222548237444938e-13 
 1.6649866106544625e-13  1.7088439963606228e-13  1.7538566303629407e-13  1.8000549431658788e-13 
 1.8474701668512482e-13  1.8961343561929999e-13  1.9460804103282195e-13  1.9973420949989870e-13 
 2.0499540653801368e-13  2.1039518895083490e-13  2.1593720723284222e-13  2.2162520803729751e-13 
 2.2746303670922776e-13  2.3345463988513206e-13  2.3960406816117179e-13  2.4591547883164836e-13 
 2.5239313869961741e-13  2.5904142696154380e-13  2.6586483816794421e-13  2.7286798526202264e-13 
 2.8005560269835056e-13  2.8743254964370152e-13  2.9500381326220552e-13  3.0277451208704322e-13 
 3.1074989948096053e-13  3.1893536718794272e-13  3.2733644897845125e-13  3.3595882439068565e-13 
 3.4480832257040405e-13  3.5389092621189492e-13  3.6321277560276729e-13  3.7278017277529315e-13 
 3.8259958576711263e-13  3.9267765299417713e-13  4.0302118773889345e-13  4.1363718275650090e-13 
 4.2453281500279536e-13  4.3571545048640157e-13  4.4719264924887063e-13  4.5897217047597258e-13 
 4.7106197774363989e-13  4.8347024440211185e-13  4.9620535910191641e-13  5.0927593146542875e-13 
 5.2269079790784811e-13  5.3645902761151568e-13  5.5058992865762953e-13  5.6509305431949204e-13 
 5.7997820952155182e-13  5.9525545746860459e-13  6.1093512644964335e-13  6.2702781682094944e-13 
 6.4354440817315658e-13  6.6049606668712799e-13  6.7789425268362855e-13  6.9575072837189388e-13 
 7.1407756580233717e-13  7.3288715502877404e-13  7.5219221248568541e-13  7.7200578958618732e-13 
 7.9234128154651948e-13  8.1321243644302243e-13  8.3463336450773049e-13  8.5661854766886802e-13 
 8.7918284934270315e-13  9.0234152448337930e-13  9.2611022989752669e-13  9.5050503483062588e-13 
 9.7554243183229182e-13  1.0012393479078204e-12  1.0276131559635450e-12  1.0546816865537479e-12 
 1.0824632399370644e-12  1.1109765984505470e-12  1.1402410392097486e-12  1.1702763471434273e-12 
 1.2011028283716766e-12  1.2327413239365503e-12  1.2652132238944493e-12  1.2985404817798202e-12 
 1.3327456294499426e-12  1.3678517923208471e-12  1.4038827050046788e-12  1.4408627273590740e-12 
 1.4788168609594225e-12  1.5177707660051406e-12  1.5577507786714189e-12  1.5987839289181670e-12 
 1.6408979587682123e-12  1.6841213410671240e-12  1.7284832987373615e-12  1.7740138245397839e-12 
 1.8207437013558866e-12  1.8687045230045319e-12  1.9179287156072342e-12  1.9684495595165262e-12 
 2.0203012118222310e-12  2.0735187294509340e-12  2.1281380928743208e-12  2.1841962304424871e-12 
 2.2417310433587678e-12  2.3007814313130697e-12  2.3613873187911940e-12  2.4235896820780807e-12 
 2.4874305769734756e-12  2.5529531672390075e-12  2.6202017537962375e-12  2.6892218046958898e-12 
 2.7600599858790482e-12  2.8327641927519027e-12  2.9073835825963329e-12  2.9839686078396041e-12 
 3.0625710502074969e-12  3.1432440557865110e-12  3.2260421710225811e-12  3.3110213796860114e-12 
 3.3982391408358794e-12  3.4877544278224454e-12  3.5796277683748929e-12  3.6739212858366417e-12 
 3.7706987416348797e-12  3.8700255791037033e-12  3.9719689687954971e-12  4.0765978553223387e-12 
 4.1839830053998203e-12  4.2941970560644496e-12  4.4073145615771374e-12  4.5234120386012868e-12 
 4.6425680119914909e-12  4.7648630649748150e-12  4.8903798951470097e-12  5.0192033742773347e-12 
 5.1514206092291496e-12  5.2871210028526817e-12  5.4263963151102390e-12  5.5693407251052472e-12 
 5.7160508945263809e-12  5.8666260327723721e-12  6.0211679638788316e-12  6.1797811953656104e-12 
 6.3425729892984443e-12  6.5096534350073746e-12  6.6811355234818669e-12  6.8571352237243115e-12 
 7.0377715611546302e-12  7.2231666981138969e-12  7.4134460165129102e-12  7.6087382026755790e-12 
 7.8091753344309057e-12  8.0148929705100472e-12  8.2260302423075301e-12  8.4427299480679624e-12 
 8.6651386495613124e-12  8.8934067713120661e-12  9.1276887024493225e-12  9.3681429012467209e-12 
 9.6149320024232047e-12  9.8682229272774607e-12  1.0128186996730848e-11  1.0395000047355573e-11 
 1.0668842550467365e-11  1.0949899734363253e-11  1.1238361709788064e-11  1.1534423598714857e-11 
 1.1838285666527119e-11  1.2150153457692790e-11  1.2470237935022635e-11  1.2798755622607829e-11 
 1.3135928752534373e-11  1.3481985415474332e-11  1.3837159715256780e-11  1.4201691927523825e-11 
 1.4575828662580157e-11  1.4959823032547364e-11  1.5353934822937111e-11  1.5758430668760530e-11 
 1.6173584235294254e-11  1.6599676403626483e-11  1.7036995461110402e-11  1.7485837296854824e-11 
 1.7946505602386231e-11  1.8419312077619368e-11  1.8904576642277640e-11  1.9402627652908010e-11 
 1.9913802125639326e-11  2.0438445964836637e-11  2.0976914197808437e-11  2.1529571215727951e-11 
 2.2096791020933620e-11  2.2678957480778880e-11  2.3276464588205387e-11  2.3889716729218949e-11 
 2.4519128957452002e-11  2.5165127276001384e-11  2.5828148926735696e-11  2.6508642687270801e-11 
 2.7207069175818852e-11  2.7923901164120216e-11  2.8659623898674314e-11  2.9414735430491013e-11 
 3.0189746953590111e-11  3.0985183152482544e-11  3.1801582558873600e-11  3.2639497917834351e-11 
 3.3499496563695031e-11  3.4382160805920243e-11  3.5288088325232970e-11  3.6217892580262363e-11 
 3.7172203224996924e-11  3.8151666537332646e-11  3.9156945859013803e-11  4.0188722047272039e-11 
 4.1247693938477440e-11  4.2334578824124378e-11  4.3450112939483482e-11  4.4595051965260198e-11 
 4.5770171542609404e-11  4.6976267801865964e-11  4.8214157905360092e-11  4.9484680604696997e-11 
 5.0788696812890599e-11  5.2127090191752304e-11  5.3500767754945579e-11  5.4910660487130424e-11 
 5.6357723979631444e-11  5.7842939083077007e-11  5.9367312577467992e-11  6.0931877860148252e-11 
 6.2537695652162164e-11  6.4185854723496532e-11  6.5877472637720772e-11  6.7613696516550279e-11 
 6.9395703824876096e-11  7.1224703176815822e-11  7.3101935163358940e-11  7.5028673202193691e-11 
 7.7006224410321410e-11  7.9035930500078743e-11  8.1119168699207808e-11  8.3257352695630967e-11 
 8.5451933607606369e-11  8.7704400979959578e-11  9.0016283807104871e-11  9.2389151583592386e-11 
 9.4824615382936489e-11  9.7324328965502850e-11  9.9889989916254216e-11  1.0252334081317736e-10 
 1.0522617042723715e-10  1.0800031495472888e-10  1.1084765928292424e-10  1.1377013828993209e-10 
 1.1676973817972238e-10  1.1984849785328923e-10  1.2300851031695641e-10  1.2625192412885918e-10 
 1.2958094488466487e-10  1.3299783674362748e-10  1.3650492399610224e-10  1.4010459267368068e-10 
 1.4379929220313828e-10  1.4759153710542565e-10  1.5148390874096679e-10  1.5547905710256867e-10 
 1.5957970265728446e-10  1.6378863823860887e-10  1.6810873099043384e-10  1.7254292436422490e-10 
 1.7709424017093261e-10  1.8176578068919190e-10  1.8656073083141200e-10  1.9148236036940939e-10 
 1.9653402622128372e-10  2.0171917480129095e-10  2.0704134443451991e-10  2.1250416783823549e-10 
 2.1811137467180742e-10  2.2386679415720546e-10  2.2977435777209977e-10  2.3583810201767120e-10 
 2.4206217126330165e-10  2.4845082067038262e-10  2.5500841919754849e-10  2.6173945268971683e-10 
 2.6864852705339227e-10  2.7574037152076526e-10  2.8301984200522666e-10  2.9049192455099079e-10 
 2.9816173887961568e-10  3.0603454203629542e-10  3.1411573213889437e-10  3.2241085223278339e-10 
 3.3092559425465008e-10  3.3966580310854415e-10  3.4863748085753901e-10  3.5784679103449584e-10 
 3.6730006307553106e-10  3.7700379687991269e-10  3.8696466750023087e-10  3.9718952996682119e-10 
 4.0768542425054961e-10  4.1845958036820871e-10  4.2951942363492106e-10  4.4087258006808892e-10 
 4.5252688194760026e-10  4.6449037353714068e-10  4.7677131697164916e-10  4.8937819831612142e-10 
 5.0231973380114350e-10  5.1560487624073707e-10  5.2924282163828381e-10  5.4324301598650518e-10 
 5.5761516226768611e-10  5.7236922766055863e-10  5.8751545096047265e-10  6.0306435021974293e-10 
 6.1902673061529602e-10  6.3541369255100958e-10  6.5223664000239007e-10  6.6950728911154332e-10 
 6.8723767704065848e-10  7.0544017109254442e-10  7.2412747810708392e-10  7.4331265414277829e-10 
 7.6300911445292489e-10  7.8323064376631923e-10  8.0399140688275239e-10  8.2530595959396259e-10 
 8.4718925994110883e-10  8.6965667982027813e-10  8.9272401694794757e-10  9.1640750719883176e-10 
 9.4072383732898973e-10  9.6569015809760938e-10  9.9132409780138217e-10  1.0176437762359604e-09 
 1.0446678190995627e-09  1.0724153728543748e-09  1.1009061200620594e-09  1.1301602952103104e-09 
 1.1601987010481218e-09  1.1910427254481029e-09  1.2227143588149899e-09  1.2552362120602362e-09 
 1.2886315351634387e-09  1.3229242363421716e-09  1.3581389018527490e-09  1.3943008164453536e-09 
 1.4314359844979576e-09  1.4695711518545411e-09  1.5087338283941268e-09  1.5489523113583686e-09 
 1.5902557094665481e-09  1.6326739678481492e-09  1.6762378938244362e-09  1.7209791835718714e-09 
 1.7669304497016140e-09  1.8141252497908870e-09  1.8625981159035452e-09  1.9123845851388547e-09 
 1.9635212312492377e-09  2.0160456973695538e-09  2.0699967299024012e-09  2.1254142136059590e-09 
 2.1823392079329560e-09  2.2408139846716214e-09  2.3008820669417540e-09  2.3625882696015348e-09 
 2.4259787411232328e-09  2.4911010069986731e-09  2.5580040147381831e-09  2.6267381805296869e-09 
 2.6973554376277649e-09  2.7699092865457781e-09  2.8444548471276219e-09  2.9210489125793016e-09 
 2.9997500055444023e-09  3.0806184363114459e-09  3.1637163632454765e-09  3.2491078555405921e-09 
 3.3368589583948919e-09  3.4270377607141775e-09  3.5197144654560073e-09  3.6149614627311432e-09 
 3.7128534057851601e-09  3.8134672899891807e-09  3.9168825349748815e-09  4.0231810700558771e-09 
 4.1324474230845088e-09  4.2447688129006683e-09  4.3602352455370723e-09  4.4789396143537861e-09 
 4.6009778042835272e-09  4.7264488003784901e-09  4.8554548008592840e-09  4.9881013348767063e-09 
 5.1244973852080302e-09  5.2647555161209479e-09  5.4089920066502581e-09  5.5573269895453045e-09 
 5.7098845961595203e-09  5.8667931075677041e-09  6.0281851122116257e-09  6.1941976703905109e-09 
 6.3649724859295699e-09  6.5406560853775718e-09  6.7214000051031042e-09  6.9073609866789655e-09 
 7.0987011809650424e-09  7.2955883613221305e-09  7.4981961464125483e-09  7.7067042330681422e-09 
 7.9212986397324390e-09  8.1421719610114006e-09  8.3695236338965233e-09  8.6035602162550893e-09 
 8.8444956782152809e-09  9.0925517071084694e-09  9.3479580266680699e-09  9.6109527312232332e-09 
 9.8817826356670807e-09  1.0160703642023057e-08  1.0447981123479311e-08  1.0743890326810441e-08 
 1.1048716794158150e-08  1.1362756805197699e-08  1.1686317840775986e-08  1.2019719069169290e-08 
 1.2363291856175194e-08  1.2717380300323176e-08  1.3082341794563467e-08  1.3458547615872436e-08 
 1.3846383544297659e-08  1.4246250513054862e-08  1.4658565291384200e-08  1.5083761201974488e-08 
 1.5522288874871503e-08  1.5974617039900737e-08  1.6441233359756723e-08  1.6922645306040642e-08 
 1.7419381080665251e-08  1.7931990585193472e-08  1.8461046440832567e-08  1.9007145061972738e-08 
 1.9570907786335920e-08  2.0152982064989439e-08  2.0754042715680920e-08  2.1374793243165078e-08 
 2.2015967230422624e-08  2.2678329804915242e-08  2.3362679184281864e-08  2.4069848306159520e-08 
 2.4800706547109424e-08  2.5556161535946223e-08  2.6337161067107599e-08  2.7144695120063937e-08 
 2.7979797991154890e-08  2.8843550544654688e-08  2.9737082590310271e-08  3.0661575395071275e-08 
 3.1618264337238356e-08  3.2608441711799129e-08  3.3633459696303916e-08  3.4694733487256025e-08 
 3.5793744617660317e-08  3.6932044467089043e-08  3.8111257976393370e-08  3.9333087580011657e-08 
 4.0599317369710840e-08  4.1911817504544899e-08  4.3272548882836178e-08  4.4683568093076566e-08 
 4.6147032661824885e-08  4.7665206617939648e-08  4.9240466393847066e-08  5.0875307086005250e-08 
 5.2572349098301566e-08  5.4334345193812159e-08  5.6164187982178380e-08  5.8064917871819594e-08 
 6.0039731518319581e-08  6.2091990802607354e-08  6.4225232375014906e-08  6.6443177803951040e-08 
 6.8749744370797687e-08  7.1149056555730192e-08  7.3645458262506657e-08  7.6243525833883424e-08 
 7.8948081913221362e-08  8.1764210212066991e-08  8.4697271248063245e-08  8.7752919122489940e-08 
 9.0937119412084107e-08  9.4256168255591789e-08  9.7716712721784543e-08  1.0132577255248415e-07 
 1.0509076338152745e-07  1.0901952153861560e-07  1.1312033055569135e-07  1.1740194950293338e-07 
 1.2187364329171735e-07  1.2654521509304560e-07  1.3142704103207282e-07  1.3653010733254327e-07 
 1.4186605009931004e-07  1.4744719794273042e-07  1.5328661766575858e-07  1.5939816325309463e-07 
 1.6579652842197894e-07  1.7249730301626801e-07  1.7951703354949771e-07  1.8687328822890779e-07 
 1.9458472682109831e-07  2.0267117575133837e-07  2.1115370886282888e-07  2.2005473429970327e-07 
 2.2939808801857641e-07  2.3920913447835759e-07  2.4951487510723201e-07  2.6034406519961458e-07 
 2.7172733995497072e-07  2.8369735043521644e-07  2.9628891028853593e-07  3.0953915416554873e-07 
 3.2348770883954496e-07  3.3817687813677521e-07  3.5365184288644852e-07  3.6996087721412624e-07 
 3.8715558262770583e-07  4.0529114148340356e-07  4.2442659157141644e-07  4.4462512372877918e-07 
 4.6595440457205127e-07  4.8848692664669374e-07  5.1230038851548538e-07  5.3747810755733967e-07 
 5.6410946852310411e-07  5.9229041119915807e-07  6.2212396086621139e-07  6.5372080561318575e-07 
 6.8719992497851576e-07  7.2268927484814916e-07  7.6032653404602190e-07  8.0025991861443237e-07 
 8.4264907040497938e-07  8.8766602729252589e-07  9.3549628309304281e-07  9.8633994612001085e-07 
 1.0404130062633455e-06  1.0979487215307167e-06  1.1591991361662354e-06  1.2244367437699079e-06 
 1.2939563102987948e-06  1.3680768734553344e-06  1.4471439367797288e-06  1.5315318787841889e-06 
 1.6216465997224946e-06  1.7179284311071861e-06  1.8208553359008446e-06  1.9309464304534278e-06 
 2.0487658627751921e-06  2.1749270856699849e-06  2.3100975676586091e-06  2.4550039895543316e-06 
 2.6104379800784672e-06  2.7772624500970594e-06  2.9564185920038441e-06  3.1489336185640069e-06 
 3.3559293242744234e-06  3.5786315621091142e-06  3.8183807395395865e-06  4.0766434501017938e-06 
 4.3550253706979146e-06  4.6552855704679494e-06  4.9793523946644161e-06  5.3293411067632620e-06 
 5.7075734943280550e-06  6.1165996692320730e-06  6.5592223210950530e-06  7.0385237146157276e-06 
 7.5578957573397117e-06  8.1210735048148826e-06  8.7321725156425545e-06  9.3957305202972462e-06 
 1.0116753925511630e-05  1.0900769741354890e-05  1.1753883591829413e-05  1.2682844552952673e-05 
 1.3695117656097755e-05  1.4798965000210453e-05  1.6003536535952398e-05  1.7318971719581840e-05 
 1.8756513386439715e-05  2.0328635365465897e-05  2.2049185549710767e-05  2.3933546356115087e-05 
 2.5998814754034392e-05  2.8264004319579514e-05  3.0750272085758101e-05  3.3481173311006585e-05 
 3.6482947685892842e-05  3.9784840944990670e-05  4.3419466354241430e-05  4.7423211110253664e-05 
 5.1836693324402166e-05  5.6705275979516780e-05  6.2079645049480071e-05  6.8016459872171045e-05 
 7.4579084874842904e-05  8.1838412880155166e-05  8.9873791483693999e-05  9.8774065403976424e-05 
 1.0863874927880484e-04  1.1957934713364606e-04  1.3172083669572848e-04  1.4520333888998641e-04 
 1.6018399524891702e-04  1.7683907861753116e-04  1.9536636545700400e-04  2.1598780126652311e-04 
 2.3895249417198961e-04  2.6454007559150198e-04  2.9306447109816715e-04  3.2487812917543127e-04 
 3.6037676050995604e-04  4.0000464579836251e-04  4.4426057575685027e-04  4.9370449310852534e-04 
 5.4896491276371041e-04  6.1074720317235863e-04  6.7984281886823814e-04  7.5713958147650344e-04 
 8.4363311383217360e-04  9.4043953924340411e-04  1.0488095651866661e-03  1.1701440776625434e-03 
 1.3060113788529832e-03  1.4581662063412936e-03  1.6285706766737272e-03  1.8194172990911193e-03 
 2.0331542064182398e-03  2.2725127488835840e-03  2.5405375925068555e-03  2.8406194560256287e-03 
 3.1765306084654801e-03  3.5524632326619770e-03  3.9730707375426229e-03  4.4435120729619795e-03 
 4.9694990645260569e-03  5.5573467413230345e-03  6.2140265760150908e-03  6.9472224936368756e-03 
 7.7653894321122940e-03  8.6778141535450905e-03  9.6946779106097496e-03  1.0827120467035616e-02 
 1.2087304855804988e-02  1.3488482134324787e-02  1.5045055264095530e-02  1.6772641105552318e-02 
 1.8688129379762213e-02  2.0809737311258548e-02  2.3157058534965146e-02  2.5751104730115468e-02 
 2.8614338341102736e-02  3.1770694665478202e-02  3.5245591539046210e-02  3.9065924832913081e-02 
 4.3260048002011726e-02  4.7857733991590851e-02  5.2890117916908869e-02  5.8389619077078958e-02 
 6.4389841036320963e-02  7.0925448687738896e-02  7.8032021381687536e-02  8.5745881320905992e-02 
 9.4103896459757891e-02  1.0314325705372188e-01  1.1290122474814582e-01  1.2341485264201080e-01 
 1.3472067410211078e-01  1.4685435725567375e-01  1.5985032111848951e-01  1.7374130833988297e-01 
 1.8855790874971756e-01  2.0432802753344226e-01  2.2107629227426948e-01  2.3882339470092617e-01 
 2.5758536625150219e-01  2.7737279204234616e-01  2.9818997602918268e-01  3.2003408140891287e-01 
 3.4289428452460663e-01  3.6675099668781413e-01  3.9157522393187033e-01  4.1732814534808321e-01 
 4.4396099020915653e-01  4.7141527626025553e-01  4.9962343311159924e-01  5.2850977928874665e-01 
 5.5799176171400844e-01  5.8798132052056529e-01  6.1838622620042227e-01  6.4911125546751458e-01 
 6.8005911866409474e-01  7.1113110832801807e-01  7.4222748915650993e-01  7.7324768410198674e-01 
 8.0409032755344390e-01  8.3465325762671183e-01  8.6483351065651937e-01  8.9452736694651036e-01 
 9.2363048136393799e-01  9.5203811779990322e-01  9.7964549409543400e-01  1.0063482342761589e+00 
 1.0320429194096143e+00  1.0566277276785598e+00  1.0800030911563576e+00  1.1020724716040564e+00 
 1.1227431133025636e+00  1.1419268103420663e+00  1.1595406641290475e+00  1.1755078142845348e+00 
 1.1897581295879625e+00  1.2022288476590364e+00  1.2128651540130413e+00  1.2216206928990692e+00 
 1.2284580038987007e+00  1.2333488796195535e+00  1.2362746409828331e+00  1.2372263276113062e+00 
 1.2362048017165084e+00  1.2332207647048377e+00  1.2282946865105580e+00  1.2214566484506326e+00 
 1.2127461012032901e+00  1.2022115403502440e+00  1.1899101027929324e+00  1.1759070882486695e+00 
 1.1602754109388094e+00  1.1430949874780190e+00  1.1244520678382606e+00  1.1044385170673805e+00 
 1.0831510561643629e+00  1.0606904711259344e+00  1.0371607996589722e+00  1.0126685053796423e+00 
 9.8732164947694956e-01  9.6122906979373590e-01  9.3449957706585818e-01  9.0724117766010137e-01 
 8.7956033156938718e-01  8.5156125367224600e-01  8.2334526536026031e-01  7.9501020241650899e-01 
 7.6664988508556364e-01  7.3835365207775716e-01  7.1020596305961581e-01  6.8228606991986118e-01 
 6.5466775712097425e-01  6.2741915012224825e-01  6.0060258982415693e-01  5.7427457006148352e-01 
 5.4848573437964543e-01  5.2328092767534873e-01  4.9869929777422162e-01  4.7477444165414473e-01 
 4.5153459079877190e-01  4.2900283007241879e-01  4.0719734453324496e-01  3.8613168873235015e-01 
 3.6581507326658835e-01  3.4625266364645169e-01  3.2744588689123760e-01  3.0939274165641578e-01 
 2.9208810811824237e-01  2.7552405427514798e-01  2.5969013576287103e-01  2.4457368667781532e-01 
 2.3016009951227551e-01  2.1643309221466345e-01  2.0337496140205960e-01  1.9096682060147319e-01 
 1.7918882289868840e-01  1.6802036761190486e-01  1.5744029084654138e-01  1.4742703999426154e-01 
 1.3795883241500023e-01  1.2901379868740365e-01  1.2057011093285683e-01  1.1260609681357522e-01 
 1.0510033987861431e-01  9.8031766985649998e-02  9.1379723563504878e-02  8.5124037503001626e-02 
 7.9245072474065675e-02  7.3723771467077842e-02  6.8541691348140366e-02  6.3681029202767053e-02 
 5.9124641221940347e-02  5.4856054859679100e-02  5.0859474963231122e-02  4.7119784546559199e-02 
 4.3622540845589815e-02  4.0353967260268346e-02  3.7300941754220149e-02  3.4450982248073102e-02 
 3.1792229507491082e-02  2.9313427991886014e-02  2.7003905094758085e-02  2.4853549171775936e-02 
 2.2852786718150723e-02  2.0992559022673038e-02  1.9264298592073993e-02  1.7659905606245856e-02 
 1.6171724632440994e-02  1.4792521795001149e-02  1.3515462566610272e-02  1.2334090317686888e-02 
 1.1242305732520158e-02  1.0234347174296212e-02  9.3047720564447683e-03  8.4484392549376407e-03 
 7.6604925754473318e-03  6.9363452707592536e-03  6.2716655876226971e-03  5.6623633083849288e-03 
 5.1045772412976562e-03  4.5946636042903397e-03  4.1291852402020055e-03  3.7049015968422037e-03 
 3.3187594026668223e-03  2.9678839681272738e-03  2.6495710436795676e-03  2.3612791678022504e-03 
 2.1006224419377359e-03  1.8653636738052252e-03  1.6534078358029015e-03  1.4627957909993607e-03 
 1.2916982452994489e-03  1.1384098905664330e-03  1.0013437096197710e-03  8.7902541995789894e-04 
 7.7008803865478298e-04  6.7326655604804935e-04  5.8739271050005761e-04  5.1138986061879488e-04 
 4.4426795484180001e-04  3.8511860120156243e-04  3.3311024241042589e-04  2.8748344314671463e-04 
 2.4754629762390677e-04  2.1266996622303709e-04  1.8228435021433215e-04  1.5587391344162112e-04 
 1.3297365934954151e-04  1.1316527095721824e-04  9.6073420380623473e-05  8.1362253334896502e-05 
 6.8732052760027702e-05  5.7916084356927279e-05  4.8677625439695289e-05  4.0807177142345522e-05 
 3.4119858697317763e-05  2.8452981256281356e-05  2.3663797572972033e-05  1.9627422829818776e-05 
 1.6234920976689697e-05  1.3391550168428973e-05  1.1015160241113937e-05  9.0347346546813887e-06 
 7.3890689482324933e-06  6.0255774978593255e-06  4.8992202271352350e-06  3.9715408878165802e-06 
 3.2098085920597755e-06  2.5862544261261679e-06  2.0773951973766299e-06  1.6634366496063200e-06 
 1.3277488149781742e-06  1.0564065430297760e-06  8.3778864818553056e-07  6.6222953745688119e-07 
 5.2171761102145657e-07  4.0963516256923360e-07  3.2053493711258904e-07  2.4994892578726514e-07 
 1.9422538539174985e-07  1.5039046130536416e-07  1.1603116312456241e-07  8.9196790777258126e-08 
 6.8316233633193695e-08  5.2128865461060213e-08  3.9627033763193502e-08  3.0008393273440105e-08 
 2.2636560835591661e-08  1.7008773391843421e-08  1.2729413538346860e-08  9.4884293532876532e-09 
 7.0438183917920250e-09  5.2074713574738701e-09  3.8337805139229669e-09  2.8105128931252103e-09 
 2.0515302569319137e-09  1.4910079785959665e-09  1.0788648650244163e-09  7.7716668066212097e-10 
 5.5730891019193487e-10  3.9782016045823890e-10  2.8265750379475296e-10  1.9988985902695370e-10 
 1.4068595214869561e-10  9.8540165760083186e-11  6.8683260758387527e-11  4.7636044199830939e-11 
 3.2873002004643094e-11  2.2570089134404825e-11  1.5416591336839604e-11  1.0475509888616452e-11 
 7.0804986381792958e-12  4.7601878448389852e-12  3.1829160563776066e-12  2.1165860448661182e-12 
 1.3996666502114550e-12  9.2036293658550681e-13  6.0173944746898455e-13  3.9114711244480301e-13 
 2.5276729487870485e-13  1.6237424053795991e-13  1.0367996486738262e-13  6.5799034320977511e-14 
 4.1500777500459542e-14  2.6011751194672505e-14  1.6200325624541975e-14  1.0024953660780173e-14 
 6.1632344841913195e-15  3.7641370420800505e-15  2.2835726127475774e-15  1.3760006613926303e-15 
 8.2345170412395802e-16  4.8936628663642478e-16  2.8877967571006271e-16  1.6919814118052266e-16 
 9.8419268742396023e-17  5.6830166791066517e-17  3.2572426222175686e-17  1.8528969209845492e-17 
 1.0460186543951740e-17  5.8596425588171387e-18  3.2568841981773983e-18  1.7959261336593839e-18 
 9.8239148599822986e-19  5.3302224255175261e-19  2.8683042614651515e-19  1.5306611717463875e-19 
 8.0995864896942743e-20  4.2494763051938774e-20  2.2103546031948149e-20  1.1397800341968312e-20 
 5.8266516180572609e-21  2.9533832254746727e-21  1.4849307894974707e-21  7.4132529505106299e-22 
 3.6827683893599521e-22  0.0000000000000000e+00  0.0000000000000000e+00  0.0000000000000000e+00 
 0.0000000000000000e+00  0.0000000000000000e+00  0.0000000000000000e+00  0.0000000000000000e+00 
 0.0000000000000000e+00  0.0000000000000000e+00  0.0000000000000000e+00  0.0000000000000000e+00 
 0.0000000000000000e+00  0.0000000000000000e+00  0.0000000000000000e+00  0.0000000000000000e+00 
 0.0000000000000000e+00  0.0000000000000000e+00  0.0000000000000000e+00  0.0000000000000000e+00 
 0.0000000000000000e+00  0.0000000000000000e+00  0.0000000000000000e+00  0.0000000000000000e+00 
 0.0000000000000000e+00  0.0000000000000000e+00  0.0000000000000000e+00  0.0000000000000000e+00 
 0.0000000000000000e+00  0.0000000000000000e+00  0.0000000000000000e+00  0.0000000000000000e+00 
 0.0000000000000000e+00  0.0000000000000000e+00  0.0000000000000000e+00  0.0000000000000000e+00 
 0.0000000000000000e+00  0.0000000000000000e+00  0.0000000000000000e+00  0.0000000000000000e+00 
 0.0000000000000000e+00  0.0000000000000000e+00  0.0000000000000000e+00  0.0000000000000000e+00 
 0.0000000000000000e+00  0.0000000000000000e+00  0.0000000000000000e+00  0.0000000000000000e+00 
 0.0000000000000000e+00  0.0000000000000000e+00  0.0000000000000000e+00  0.0000000000000000e+00 
 0.0000000000000000e+00  0.0000000000000000e+00  0.0000000000000000e+00  0.0000000000000000e+00 
 0.0000000000000000e+00  0.0000000000000000e+00  0.0000000000000000e+00  0.0000000000000000e+00 
 0.0000000000000000e+00  0.0000000000000000e+00  0.0000000000000000e+00  0.0000000000000000e+00 
 0.0000000000000000e+00  0.0000000000000000e+00  0.0000000000000000e+00  0.0000000000000000e+00 
 0.0000000000000000e+00  0.0000000000000000e+00  0.0000000000000000e+00  0.0000000000000000e+00 
 0.0000000000000000e+00 
</PP_RHOATOM>
